min
obj: 
  +4.68205187695116365 a1_x1
  +5.71291625483064269 a1_x2
  +9.00563589084773142 a1_x3
  +9.01724711762336106 a1_x4
  +9.40638568868457803 a1_x5
  +5.77535620951187667 a1_x6
  +36.44079832510822570 a1_z1
  +20.35589591192510284 a1_z2
  +9.85237733259970305 a2_x1
  +8.66656609951932211 a2_x2
  +1.31834896047554095 a2_x3
  +8.26919439786070853 a2_x4
  +6.06353184831551140 a2_x5
  +3.26315819103542193 a2_x6
  +31.01579944565894920 a2_z1
  +42.14273897613190911 a2_z2
  +3.40700085697226296 a3_x1
  +9.41882509326676143 a3_x2
  +9.74900107951637906 a3_x3
  +7.04508203399397814 a3_x4
  +9.97637618984075480 a3_x5
  +5.84735535483849578 a3_x6
  +49.07354774414897491 a3_z1
  +13.99914181947612590 a3_z2
  +1.91431389506638183 a4_x1
  +6.10422017205319989 a4_x2
  +2.25748963263893865 a4_x3
  +5.65946667698913863 a4_x4
  +4.35204976180165826 a4_x5
  +6.78234121926408484 a4_x6
  +29.95675458969477134 a4_z1
  +32.97214499302464219 a4_z2
  +1000000.00000000000000000 short_1
  +1000000.00000000000000000 surp_1
  +1000000.00000000000000000 short_2
  +1000000.00000000000000000 surp_2
  +1000000.00000000000000000 short_3
  +1000000.00000000000000000 surp_3

s.t.

a1_local_1: 
+0.00071554184952218 a1_x4
+0.00058545572312848 a1_x2
+0.00038550431792207 a1_x6
<= 0.073990

a1_local_2: 
+0.04972905207467471 a1_x3
+0.02224092136514273 a1_x4
+0.04481630238006310 a1_x5
<= 4.905950

a1_local_3: 
+1.93040741502271107 a1_x1
+3.39387881284212867 a1_x3
+2.53838765141220435 a1_x6
<= 409.414153

a1_local_4: 
+0.00053322923264519 a1_x2
+0.00046327768546475 a1_x1
+0.00091723824139608 a1_x5
<= 0.091549

a1_local_5: 
+3.93482227514845073 a1_x2
+6.40665961047303067 a1_x3
+6.56891427016982821 a1_x5
<= 720.174802

a1_local_6: 
+0.00050550738568250 a1_x6
+0.00035558988306387 a1_x1
+0.00044902214372220 a1_x3
<= 0.068351

a1_local_7: 
+4.58160156025612686 a1_x4
+3.70920124435694154 a1_x2
+3.41736754739540016 a1_x5
<= 616.527944

a1_local_8: 
+0.00026590742654940 a1_x6
+0.00025955746313912 a1_x2
+0.00021212484799142 a1_x4
<= 0.046138

a1_act_1: 
+0.00443037256837444 a1_x1
-0.44303725683744438 a1_z1
<= 0.000000

a1_act_2: 
+0.26968627298348519 a1_x2
-26.96862729834851891 a1_z2
<= 0.000000

a2_local_1: 
+229.26297668332861690 a2_x2
+315.08343917775789578 a2_x6
+330.22267879720192241 a2_x5
<= 28997.913736

a2_local_2: 
+1.59649508904977444 a2_x1
+1.87316996620362497 a2_x4
+2.35961208051341487 a2_x5
<= 404.784821

a2_local_3: 
+23.54344289943395196 a2_x2
+16.34969815642790891 a2_x5
+10.13257733293235674 a2_x1
<= 3157.652170

a2_local_4: 
+2.62001174931862790 a2_x6
+5.02846948141242667 a2_x4
+2.78712192000976255 a2_x5
<= 389.163011

a2_local_5: 
+0.00132275190002551 a2_x5
+0.00245099691339468 a2_x3
+0.00172106305580567 a2_x6
<= 0.283977

a2_local_6: 
+25.97375119460232895 a2_x6
+18.16083654754216070 a2_x4
+23.72506741912955519 a2_x1
<= 3571.611055

a2_local_7: 
+44.62085263412333802 a2_x3
+40.75281821539081761 a2_x6
+50.74279355467138686 a2_x1
<= 6362.263112

a2_local_8: 
+1.57769322355620734 a2_x5
+1.58117308948640867 a2_x3
+1.70653779896415503 a2_x6
<= 338.420165

a2_act_1: 
+0.60307165466123980 a2_x1
-60.30716546612397622 a2_z1
<= 0.000000

a2_act_2: 
+0.00289253188097310 a2_x2
-0.28925318809731049 a2_z2
<= 0.000000

a3_local_1: 
+23.65392108244919811 a3_x5
+15.99168834232168201 a3_x2
+19.14079559796773466 a3_x3
<= 2276.411007

a3_local_2: 
+7.74106436776211115 a3_x2
+5.08766534596368114 a3_x3
+6.95014224412127213 a3_x4
<= 1002.679577

a3_local_3: 
+0.22641430799564730 a3_x6
+0.46020959577534132 a3_x4
+0.39505049577176587 a3_x1
<= 74.220923

a3_local_4: 
+0.01548245494673177 a3_x4
+0.01742280816845310 a3_x2
+0.00701325700516102 a3_x1
<= 1.965279

a3_local_5: 
+2.24560928145913330 a3_x3
+4.39209087260746500 a3_x5
+5.12565519705396966 a3_x2
<= 581.861318

a3_local_6: 
+0.23727735433138059 a3_x1
+0.21496046387502576 a3_x6
+0.19332805701294009 a3_x2
<= 29.296874

a3_local_7: 
+200.94616926526393286 a3_x1
+268.08553823596753318 a3_x4
+151.22200460131244881 a3_x6
<= 21170.666009

a3_local_8: 
+15.51176762457208547 a3_x4
+7.39216668050244241 a3_x3
+11.89582635116834552 a3_x5
<= 2212.048103

a3_act_1: 
+0.02262243700343038 a3_x1
-2.26224370034303757 a3_z1
<= 0.000000

a3_act_2: 
+1.88264544411057333 a3_x2
-188.26454441105732940 a3_z2
<= 0.000000

a4_local_1: 
+53.28505251140479260 a4_x3
+40.61699993057110447 a4_x5
+46.51287838138850361 a4_x2
<= 8971.662903

a4_local_2: 
+4.36990539387183130 a4_x3
+2.05127906054681297 a4_x2
+3.05669052818325593 a4_x6
<= 325.636587

a4_local_3: 
+0.04779407680509579 a4_x5
+0.07408277808311847 a4_x6
+0.08815284217511501 a4_x3
<= 12.300564

a4_local_4: 
+25.55501081634394467 a4_x3
+24.13896005223129393 a4_x6
+27.65667877708955658 a4_x1
<= 5257.749815

a4_local_5: 
+0.10858978135054187 a4_x3
+0.11188760107449766 a4_x6
+0.04121704397344440 a4_x5
<= 13.523846

a4_local_6: 
+11.66019225543091764 a4_x3
+12.12402116048092360 a4_x4
+16.40947044180643033 a4_x6
<= 2356.101956

a4_local_7: 
+0.23864641952356339 a4_x6
+0.21348747729982540 a4_x3
+0.31526668208570735 a4_x1
<= 51.922761

a4_local_8: 
+0.04510785823714595 a4_x1
+0.10252928758550192 a4_x6
+0.07821958520683392 a4_x3
<= 11.960236

a4_act_1: 
+0.01996051782142931 a4_x1
-1.99605178214293066 a4_z1
<= 0.000000

a4_act_2: 
+0.04817236456580058 a4_x2
-4.81723645658005850 a4_z2
<= 0.000000

coupling_1: 
+73.29233820718751247 a1_x1
+225.75187371217805321 a2_x1
+1008.71147175383055128 a3_x1
+9766.04751599901464942 a4_x1
+817.08059306382097020 short_1
-817.08059306382097020 surp_1
= 558815.352280

coupling_2: 
+0.06505582853462410 a1_x2
+0.14332124854024389 a2_x2
+0.68835744329782911 a3_x2
+7.46425471671295959 a4_x2
+0.53827215397569872 short_2
-0.53827215397569872 surp_2
= 198.969067

coupling_3: 
+0.96209078938342041 a1_x3
+7.47895877054800451 a2_x3
+17.04488556541022248 a3_x3
+154.75267574261818027 a4_x3
+12.50485650361812873 short_3
-12.50485650361812873 surp_3
= 10837.849672

bounds
  0.000000 <= a1_x1 <= 100.000000
  0.000000 <= a1_x2 <= 100.000000
  0.000000 <= a1_x3 <= 100.000000
  0.000000 <= a1_x4 <= 100.000000
  0.000000 <= a1_x5 <= 100.000000
  0.000000 <= a1_x6 <= 100.000000
  0.000000 <= a2_x1 <= 100.000000
  0.000000 <= a2_x2 <= 100.000000
  0.000000 <= a2_x3 <= 100.000000
  0.000000 <= a2_x4 <= 100.000000
  0.000000 <= a2_x5 <= 100.000000
  0.000000 <= a2_x6 <= 100.000000
  0.000000 <= a3_x1 <= 100.000000
  0.000000 <= a3_x2 <= 100.000000
  0.000000 <= a3_x3 <= 100.000000
  0.000000 <= a3_x4 <= 100.000000
  0.000000 <= a3_x5 <= 100.000000
  0.000000 <= a3_x6 <= 100.000000
  0.000000 <= a4_x1 <= 100.000000
  0.000000 <= a4_x2 <= 100.000000
  0.000000 <= a4_x3 <= 100.000000
  0.000000 <= a4_x4 <= 100.000000
  0.000000 <= a4_x5 <= 100.000000
  0.000000 <= a4_x6 <= 100.000000
  0.000000 <= short_1 <= +inf
  0.000000 <= surp_1 <= +inf
  0.000000 <= short_2 <= +inf
  0.000000 <= surp_2 <= +inf
  0.000000 <= short_3 <= +inf
  0.000000 <= surp_3 <= +inf
 0 <= a1_z1 <= 1
 0 <= a1_z2 <= 1
 0 <= a2_z1 <= 1
 0 <= a2_z2 <= 1
 0 <= a3_z1 <= 1
 0 <= a3_z2 <= 1
 0 <= a4_z1 <= 1
 0 <= a4_z2 <= 1

binary
  a1_z1
  a1_z2
  a2_z1
  a2_z2
  a3_z1
  a3_z2
  a4_z1
  a4_z2
end
