min
obj: 
  +3.05711040055168581 a1_x1
  +8.05560131874530505 a1_x2
  +1.97423451738110156 a1_x3
  +4.43855917145081946 a1_x4
  +2.09177435273224699 a1_x5
  +8.36067334918018190 a1_x6
  +15.66642560195388789 a1_z1
  +12.32473257168471292 a1_z2
  +3.90447270498543908 a2_x1
  +3.19064241710492480 a2_x2
  +7.25662050376060552 a2_x3
  +4.24034203150857802 a2_x4
  +1.72165381936256479 a2_x5
  +9.86521199550605488 a2_x6
  +47.43293385770623871 a2_z1
  +10.01849972745584338 a2_z2
  +7.66342890098139051 a3_x1
  +6.60319515439368221 a3_x2
  +5.66277254283255616 a3_x3
  +4.15025934339557701 a3_x4
  +2.04336446202724131 a3_x5
  +3.95648142420414572 a3_x6
  +26.64691344464440093 a3_z1
  +25.19269856348255487 a3_z2
  +2.43191733608034033 a4_x1
  +1.25980278183489802 a4_x2
  +6.71866199762658312 a4_x3
  +9.23282830324045278 a4_x4
  +5.85378359150520033 a4_x5
  +9.83498899970064500 a4_x6
  +10.08347259986509314 a4_z1
  +40.29173016694412013 a4_z2
  +1000000.00000000000000000 short_1
  +1000000.00000000000000000 surp_1
  +1000000.00000000000000000 short_2
  +1000000.00000000000000000 surp_2
  +1000000.00000000000000000 short_3
  +1000000.00000000000000000 surp_3

s.t.

a1_local_1: 
+0.04227591386540614 a1_x5
+0.06958449033213264 a1_x1
+0.02929141928268035 a1_x6
<= 5.522075

a1_local_2: 
+0.06326656632334515 a1_x6
+0.12620616524536193 a1_x4
+0.11005898610331198 a1_x2
<= 12.819448

a1_local_3: 
+15.76641276722752494 a1_x4
+7.01145361238673015 a1_x5
+12.21651453587175240 a1_x1
<= 2313.226229

a1_local_4: 
+37.97998308126899047 a1_x3
+13.50376143148536556 a1_x1
+16.73144568804749710 a1_x4
<= 3007.639034

a1_local_5: 
+2.09850327402367576 a1_x4
+2.48234423346250921 a1_x5
+2.80435747968869409 a1_x1
<= 228.113185

a1_local_6: 
+0.18196700814851366 a1_x2
+0.23672097256138228 a1_x5
+0.30425131815035844 a1_x6
<= 27.420272

a1_local_7: 
+0.00031637503633936 a1_x1
+0.00035370975518008 a1_x3
+0.00028524821630559 a1_x5
<= 0.056013

a1_local_8: 
+2.37668220251336670 a1_x3
+2.08651675445755247 a1_x4
+1.53119849708768174 a1_x1
<= 212.795812

a1_act_1: 
+0.00727149134468315 a1_x1
-0.72714913446831475 a1_z1
<= 0.000000

a1_act_2: 
+3.35918456317260938 a1_x2
-335.91845631726096144 a1_z2
<= 0.000000

a2_local_1: 
+17.93447000528454538 a2_x2
+10.28403399745123004 a2_x6
+26.38554619527905487 a2_x4
<= 3715.632420

a2_local_2: 
+0.01707022048751393 a2_x2
+0.01851089642567751 a2_x5
+0.01924053370602800 a2_x3
<= 3.326308

a2_local_3: 
+0.31392472096932206 a2_x3
+0.24879695367662999 a2_x5
+0.26116604400138049 a2_x2
<= 37.733738

a2_local_4: 
+0.00812884332368805 a2_x1
+0.01736851475337774 a2_x5
+0.01177104970630457 a2_x6
<= 2.392025

a2_local_5: 
+8.30147926420455384 a2_x2
+10.04561770627788952 a2_x6
+5.65943240427339322 a2_x1
<= 1437.367273

a2_local_6: 
+0.00176973760230472 a2_x1
+0.00226787872693563 a2_x5
+0.00132388932606785 a2_x4
<= 0.351224

a2_local_7: 
+1.46435572998274721 a2_x6
+0.99221511477685087 a2_x3
+1.63876756856209616 a2_x4
<= 130.067650

a2_local_8: 
+0.11926487374105726 a2_x3
+0.13404069877424624 a2_x1
+0.08007568827394992 a2_x4
<= 17.780630

a2_act_1: 
+16.62545177961943921 a2_x1
-1662.54517796194386392 a2_z1
<= 0.000000

a2_act_2: 
+0.23479626078916677 a2_x2
-23.47962607891667730 a2_z2
<= 0.000000

a3_local_1: 
+4.66713855372292130 a3_x5
+4.30204038042682857 a3_x6
+2.46885012330428077 a3_x2
<= 529.346127

a3_local_2: 
+136.16330148148446710 a3_x3
+102.84928504531099236 a3_x1
+177.08563596774413895 a3_x5
<= 26850.115331

a3_local_3: 
+1.59001514401396804 a3_x6
+2.97459780716236732 a3_x2
+3.36101370092868867 a3_x3
<= 387.007929

a3_local_4: 
+57.33292610278193990 a3_x5
+78.36746646698351526 a3_x6
+70.87038034153741251 a3_x3
<= 8560.205114

a3_local_5: 
+0.01095177174129001 a3_x5
+0.00776825666510700 a3_x6
+0.00630065943084475 a3_x4
<= 0.946317

a3_local_6: 
+0.08113674239970257 a3_x3
+0.06601251014108915 a3_x6
+0.08695141554922722 a3_x2
<= 7.525288

a3_local_7: 
+580.38153024939708757 a3_x4
+578.28412454154420175 a3_x6
+615.03483973967615839 a3_x3
<= 61759.488496

a3_local_8: 
+3.53276532214170746 a3_x6
+2.13646876580628708 a3_x3
+1.66293456001269502 a3_x5
<= 383.419356

a3_act_1: 
+0.00362329230163447 a3_x1
-0.36232923016344681 a3_z1
<= 0.000000

a3_act_2: 
+3.00426796121032647 a3_x2
-300.42679612103262343 a3_z2
<= 0.000000

a4_local_1: 
+257.75511358237747572 a4_x4
+513.18200392998869575 a4_x1
+201.66760576341047795 a4_x6
<= 62528.878802

a4_local_2: 
+109.26711149068026430 a4_x2
+120.35322802228473904 a4_x6
+51.49712258334445636 a4_x1
<= 14941.692544

a4_local_3: 
+2571.23831829376331370 a4_x4
+3736.29494731532349761 a4_x3
+2803.80804516388161574 a4_x5
<= 374936.778147

a4_local_4: 
+7.98522149167853446 a4_x1
+15.20495178877623133 a4_x6
+9.22297108726046488 a4_x4
<= 2235.275731

a4_local_5: 
+2857.69195694906738936 a4_x3
+2799.82277786358781668 a4_x6
+3021.85065239817095062 a4_x4
<= 537330.752866

a4_local_6: 
+0.68702006085384215 a4_x3
+0.40940922661905771 a4_x1
+0.51919474030799506 a4_x5
<= 69.413749

a4_local_7: 
+93.65271063897868942 a4_x5
+158.24067055588349717 a4_x4
+90.30189220937516836 a4_x3
<= 19695.678640

a4_local_8: 
+0.03636343339200646 a4_x1
+0.04744069983816898 a4_x4
+0.03731360721169526 a4_x6
<= 4.795756

a4_act_1: 
+1.15367258113184401 a4_x1
-115.36725811318440549 a4_z1
<= 0.000000

a4_act_2: 
+0.02732099206595226 a4_x2
-2.73209920659522654 a4_z2
<= 0.000000

coupling_1: 
+0.00234924078522292 a1_x1
+0.00604680915359604 a2_x1
+0.03527676994482161 a3_x1
+0.16831197112124480 a4_x1
+0.01781294532608765 short_1
-0.01781294532608765 surp_1
= 6.699857

coupling_2: 
+0.01221611176092452 a1_x2
+0.04768631479418176 a2_x2
+0.18985952509335016 a3_x2
+1.00666904591739081 a4_x2
+0.09158252906338167 short_2
-0.09158252906338167 surp_2
= 55.126870

coupling_3: 
+0.00006199883546957 a1_x3
+0.00043961372489537 a2_x3
+0.00213526889886837 a3_x3
+0.01667304313586958 a4_x3
+0.00112604435904430 short_3
-0.00112604435904430 surp_3
= 1.327466

bounds
  0.000000 <= a1_x1 <= 100.000000
  0.000000 <= a1_x2 <= 100.000000
  0.000000 <= a1_x3 <= 100.000000
  0.000000 <= a1_x4 <= 100.000000
  0.000000 <= a1_x5 <= 100.000000
  0.000000 <= a1_x6 <= 100.000000
  0.000000 <= a2_x1 <= 100.000000
  0.000000 <= a2_x2 <= 100.000000
  0.000000 <= a2_x3 <= 100.000000
  0.000000 <= a2_x4 <= 100.000000
  0.000000 <= a2_x5 <= 100.000000
  0.000000 <= a2_x6 <= 100.000000
  0.000000 <= a3_x1 <= 100.000000
  0.000000 <= a3_x2 <= 100.000000
  0.000000 <= a3_x3 <= 100.000000
  0.000000 <= a3_x4 <= 100.000000
  0.000000 <= a3_x5 <= 100.000000
  0.000000 <= a3_x6 <= 100.000000
  0.000000 <= a4_x1 <= 100.000000
  0.000000 <= a4_x2 <= 100.000000
  0.000000 <= a4_x3 <= 100.000000
  0.000000 <= a4_x4 <= 100.000000
  0.000000 <= a4_x5 <= 100.000000
  0.000000 <= a4_x6 <= 100.000000
  0.000000 <= short_1 <= +inf
  0.000000 <= surp_1 <= +inf
  0.000000 <= short_2 <= +inf
  0.000000 <= surp_2 <= +inf
  0.000000 <= short_3 <= +inf
  0.000000 <= surp_3 <= +inf
 0 <= a1_z1 <= 1
 0 <= a1_z2 <= 1
 0 <= a2_z1 <= 1
 0 <= a2_z2 <= 1
 0 <= a3_z1 <= 1
 0 <= a3_z2 <= 1
 0 <= a4_z1 <= 1
 0 <= a4_z2 <= 1

binary
  a1_z1
  a1_z2
  a2_z1
  a2_z2
  a3_z1
  a3_z2
  a4_z1
  a4_z2
end
