min
obj: 
  +7.78207569299738466 a1_x1
  +2.62040292120299334 a1_x2
  +1.02293933329670939 a1_x3
  +7.19109322240713489 a1_x4
  +4.26327457704359070 a1_x5
  +6.02462654690972954 a1_x6
  +42.77102711119731282 a1_z1
  +28.11411837117618262 a1_z2
  +5.79112125901829966 a2_x1
  +5.43489317194582089 a2_x2
  +9.42596272358853859 a2_x3
  +8.92130525199075564 a2_x4
  +6.14845489869399664 a2_x5
  +2.14640938868183095 a2_x6
  +31.66094613130910673 a2_z1
  +6.98996133690631005 a2_z2
  +2.81862526144540748 a3_x1
  +1.36412059178846468 a3_x2
  +2.33366974601915000 a3_x3
  +2.45567759910651384 a3_x4
  +5.22782650613177147 a3_x5
  +6.66961894421152923 a3_x6
  +49.85791959361311854 a3_z1
  +30.64094479818616890 a3_z2
  +7.09948941464576322 a4_x1
  +9.56749156260526412 a4_x2
  +9.23547813869581802 a4_x3
  +8.94781396766327930 a4_x4
  +7.43389970639344355 a4_x5
  +1.79601697429660612 a4_x6
  +7.43041409826294341 a4_z1
  +14.53020430166953325 a4_z2
  +1000000.00000000000000000 short_1
  +1000000.00000000000000000 surp_1
  +1000000.00000000000000000 short_2
  +1000000.00000000000000000 surp_2
  +1000000.00000000000000000 short_3
  +1000000.00000000000000000 surp_3

s.t.

a1_local_1: 
+18.31539758598492540 a1_x4
+28.14121727773105164 a1_x6
+13.07530589083449790 a1_x3
<= 2975.804482

a1_local_2: 
+0.03021516293206191 a1_x6
+0.02118289736954786 a1_x5
+0.03082495804065933 a1_x4
<= 4.356692

a1_local_3: 
+8.18597493667999743 a1_x4
+10.80056582935682563 a1_x2
+11.49175388253430974 a1_x3
<= 1767.967299

a1_local_4: 
+0.01581244214217012 a1_x4
+0.01052819893317609 a1_x5
+0.01655887968376807 a1_x2
<= 2.186054

a1_local_5: 
+0.83341270753576169 a1_x2
+2.02800134394044829 a1_x5
+0.98912853309351811 a1_x4
<= 213.013046

a1_local_6: 
+8.82513669332619521 a1_x2
+10.17716545980414011 a1_x3
+5.19219842151536781 a1_x1
<= 1311.435008

a1_local_7: 
+25.01143790244177367 a1_x5
+52.24259723592560078 a1_x2
+25.13839164797094483 a1_x6
<= 5618.437823

a1_local_8: 
+1.71215023239587150 a1_x5
+3.05456885841254921 a1_x1
+2.22253616698840428 a1_x6
<= 429.453569

a1_act_1: 
+2.74246930166040803 a1_x1
-274.24693016604078366 a1_z1
<= 0.000000

a1_act_2: 
+365.62834758840654104 a1_x2
-36562.83475884065410355 a1_z2
<= 0.000000

a2_local_1: 
+0.00095130030322284 a2_x6
+0.00142002086232253 a2_x4
+0.00141265870106082 a2_x3
<= 0.238116

a2_local_2: 
+0.94333038457305962 a2_x5
+1.30798882780080872 a2_x4
+1.96507069661159428 a2_x6
<= 191.299689

a2_local_3: 
+0.07983910417057072 a2_x4
+0.05400569041666319 a2_x5
+0.10638759203323328 a2_x3
<= 7.442045

a2_local_4: 
+0.24288502184544797 a2_x5
+0.23985047577693835 a2_x6
+0.68978290755049187 a2_x4
<= 43.806569

a2_local_5: 
+3.17966684164797719 a2_x4
+1.97992679055738452 a2_x2
+3.96675604676981308 a2_x3
<= 434.656847

a2_local_6: 
+0.14804007127547683 a2_x5
+0.13086136810729135 a2_x4
+0.13481944536685742 a2_x3
<= 15.654289

a2_local_7: 
+281.85576528053786660 a2_x1
+452.10695409054602578 a2_x6
+302.05782270621011776 a2_x4
<= 72342.696126

a2_local_8: 
+0.00312216475643130 a2_x4
+0.00289985967523012 a2_x3
+0.00195006575884669 a2_x5
<= 0.305511

a2_act_1: 
+20.52088256250748088 a2_x1
-2052.08825625074814525 a2_z1
<= 0.000000

a2_act_2: 
+0.01800856727755041 a2_x2
-1.80085672775504069 a2_z2
<= 0.000000

a3_local_1: 
+131.64399702574519324 a3_x6
+201.41954615660367267 a3_x2
+165.90794954350670309 a3_x1
<= 33323.434975

a3_local_2: 
+4.28765914045867724 a3_x1
+2.88471295109878856 a3_x6
+2.39082065486626227 a3_x2
<= 655.981524

a3_local_3: 
+0.25293624106246604 a3_x6
+0.60553033350024899 a3_x5
+0.28501637764928534 a3_x3
<= 60.632652

a3_local_4: 
+96.24237926717344749 a3_x2
+44.28558733800717562 a3_x6
+105.63225027150144797 a3_x4
<= 10440.863630

a3_local_5: 
+0.00476881854187346 a3_x1
+0.00635905073482097 a3_x5
+0.00425936858019130 a3_x3
<= 0.762775

a3_local_6: 
+291.74041534251142593 a3_x5
+345.34186030208394413 a3_x2
+285.72011856224867188 a3_x3
<= 47551.628792

a3_local_7: 
+1.31122167174154147 a3_x2
+1.07223166213489707 a3_x3
+1.55993340107173339 a3_x1
<= 210.598398

a3_local_8: 
+7.80898653678431653 a3_x6
+3.63020121473439383 a3_x1
+6.35850833033976404 a3_x2
<= 809.628652

a3_act_1: 
+0.03104090328188804 a3_x1
-3.10409032818880393 a3_z1
<= 0.000000

a3_act_2: 
+0.01973669689085708 a3_x2
-1.97366968908570772 a3_z2
<= 0.000000

a4_local_1: 
+974.07935076016804032 a4_x1
+2238.08313285804797488 a4_x6
+1181.16627777431085633 a4_x5
<= 277510.649766

a4_local_2: 
+913.82860808117197848 a4_x2
+434.37383697412928996 a4_x5
+851.91575858186592995 a4_x4
<= 147915.439956

a4_local_3: 
+820.53432798387825642 a4_x6
+638.24734404148352951 a4_x2
+375.93184946306899974 a4_x5
<= 106846.200583

a4_local_4: 
+175.60239277621678866 a4_x6
+106.66330864439716208 a4_x3
+184.21133318081837160 a4_x4
<= 29537.474909

a4_local_5: 
+32.81370292055969884 a4_x5
+33.38094373443767182 a4_x2
+57.19645281541384207 a4_x3
<= 4943.932090

a4_local_6: 
+668.38685981915580214 a4_x1
+569.98870657214365565 a4_x5
+684.24766923741788105 a4_x4
<= 106022.386340

a4_local_7: 
+0.05010726892531403 a4_x6
+0.09646977241397267 a4_x3
+0.07986620851781999 a4_x2
<= 13.615037

a4_local_8: 
+114.93329899153860651 a4_x3
+182.12600410668653694 a4_x6
+91.37468823656566030 a4_x4
<= 13999.544952

a4_act_1: 
+16.45227512731845820 a4_x1
-1645.22751273184576348 a4_z1
<= 0.000000

a4_act_2: 
+0.91457746355283298 a4_x2
-91.45774635528329100 a4_z2
<= 0.000000

coupling_1: 
+5.45444676700303610 a1_x1
+31.66313678205849413 a2_x1
+118.28402312299152754 a3_x1
+359.88593836281160065 a4_x1
+55.38069154607764233 short_1
-55.38069154607764233 surp_1
= 36489.434855

coupling_2: 
+0.00839216671545620 a1_x2
+0.03462815036226656 a2_x2
+0.16907081447912939 a3_x2
+0.59289016415780293 a4_x2
+0.06007188281603628 short_2
-0.06007188281603628 surp_2
= 22.541447

coupling_3: 
+0.12349391554591643 a1_x3
+0.40349134062648229 a2_x3
+1.20080722316643196 a3_x3
+5.50685332589503407 a4_x3
+1.05615458892594960 short_3
-1.05615458892594960 surp_3
= 162.254119

bounds
  0.000000 <= a1_x1 <= 100.000000
  0.000000 <= a1_x2 <= 100.000000
  0.000000 <= a1_x3 <= 100.000000
  0.000000 <= a1_x4 <= 100.000000
  0.000000 <= a1_x5 <= 100.000000
  0.000000 <= a1_x6 <= 100.000000
  0.000000 <= a2_x1 <= 100.000000
  0.000000 <= a2_x2 <= 100.000000
  0.000000 <= a2_x3 <= 100.000000
  0.000000 <= a2_x4 <= 100.000000
  0.000000 <= a2_x5 <= 100.000000
  0.000000 <= a2_x6 <= 100.000000
  0.000000 <= a3_x1 <= 100.000000
  0.000000 <= a3_x2 <= 100.000000
  0.000000 <= a3_x3 <= 100.000000
  0.000000 <= a3_x4 <= 100.000000
  0.000000 <= a3_x5 <= 100.000000
  0.000000 <= a3_x6 <= 100.000000
  0.000000 <= a4_x1 <= 100.000000
  0.000000 <= a4_x2 <= 100.000000
  0.000000 <= a4_x3 <= 100.000000
  0.000000 <= a4_x4 <= 100.000000
  0.000000 <= a4_x5 <= 100.000000
  0.000000 <= a4_x6 <= 100.000000
  0.000000 <= short_1 <= +inf
  0.000000 <= surp_1 <= +inf
  0.000000 <= short_2 <= +inf
  0.000000 <= surp_2 <= +inf
  0.000000 <= short_3 <= +inf
  0.000000 <= surp_3 <= +inf
 0 <= a1_z1 <= 1
 0 <= a1_z2 <= 1
 0 <= a2_z1 <= 1
 0 <= a2_z2 <= 1
 0 <= a3_z1 <= 1
 0 <= a3_z2 <= 1
 0 <= a4_z1 <= 1
 0 <= a4_z2 <= 1

binary
  a1_z1
  a1_z2
  a2_z1
  a2_z2
  a3_z1
  a3_z2
  a4_z1
  a4_z2
end
