min
obj: 
  +9.92789069156587445 a1_x1
  +4.10293210566149646 a1_x2
  +3.32901181929639423 a1_x3
  +9.10176472428019245 a1_x4
  +1.02767819950250816 a1_x5
  +7.50152284301075145 a1_x6
  +48.47610588570461232 a1_z1
  +46.46239370281180214 a1_z2
  +3.18500776910177885 a2_x1
  +1.07942930179392071 a2_x2
  +3.49956447593909603 a2_x3
  +4.21239525423910788 a2_x4
  +5.82517656009187501 a2_x5
  +3.89342540667494053 a2_x6
  +48.49908581708631061 a2_z1
  +41.13663869847970034 a2_z2
  +2.67192419795283609 a3_x1
  +3.86821883222705321 a3_x2
  +5.91403436703844054 a3_x3
  +8.81180590098727734 a3_x4
  +5.97909561349352625 a3_x5
  +2.68685564033826729 a3_x6
  +5.18637677701330446 a3_z1
  +6.88066661844991856 a3_z2
  +1.28562252519206366 a4_x1
  +5.29948947704055140 a4_x2
  +9.02951063485292771 a4_x3
  +3.08226664425655672 a4_x4
  +2.19298535751718138 a4_x5
  +7.06762935071550480 a4_x6
  +41.57694264723444633 a4_z1
  +44.44096075316435446 a4_z2
  +1000000.00000000000000000 short_1
  +1000000.00000000000000000 surp_1
  +1000000.00000000000000000 short_2
  +1000000.00000000000000000 surp_2
  +1000000.00000000000000000 short_3
  +1000000.00000000000000000 surp_3

s.t.

a1_local_1: 
+1.21501867946975217 a1_x4
+1.18164631490537930 a1_x6
+0.82303261414582640 a1_x1
<= 128.373546

a1_local_2: 
+0.79127728181851420 a1_x6
+0.95132572721491082 a1_x5
+1.26377949042312809 a1_x4
<= 134.081833

a1_local_3: 
+0.70888383895069862 a1_x3
+0.57337271729634609 a1_x1
+0.46742754996248337 a1_x6
<= 103.913646

a1_local_4: 
+1.29285773260494841 a1_x5
+1.36477642842819002 a1_x2
+0.73272074397687081 a1_x4
<= 142.913383

a1_local_5: 
+0.71301792026251276 a1_x4
+1.40248929456335225 a1_x2
+0.86469824810218687 a1_x5
<= 177.742148

a1_local_6: 
+1.42598131843986642 a1_x3
+1.34546167344763679 a1_x4
+0.70127145921804712 a1_x1
<= 133.724844

a1_local_7: 
+1.15777141363412150 a1_x1
+0.86372835624012034 a1_x2
+0.99437982447742612 a1_x5
<= 159.200569

a1_local_8: 
+1.09119457705747536 a1_x5
+1.18076092422336587 a1_x2
+0.84691149536282306 a1_x4
<= 141.597984

a1_act_1: 
+0.10000000000000001 a1_x1
-10.00000000000000000 a1_z1
<= 0.000000

a1_act_2: 
+0.09999999999999999 a1_x2
-9.99999999999999822 a1_z2
<= 0.000000

a2_local_1: 
+0.69037705955911943 a2_x6
+0.42086762197054728 a2_x4
+0.99266000378354380 a2_x1
<= 139.438876

a2_local_2: 
+1.07695403690108549 a2_x2
+1.03994431642959650 a2_x1
+0.92854473425577266 a2_x4
<= 169.619087

a2_local_3: 
+1.36615822705863144 a2_x3
+1.40511867175437066 a2_x4
+0.71168366067717481 a2_x5
<= 242.042653

a2_local_4: 
+0.75966402025395929 a2_x4
+1.30196850859396673 a2_x3
+1.31637141333308794 a2_x2
<= 125.050489

a2_local_5: 
+1.19791668431628406 a2_x1
+0.78884095717804736 a2_x4
+1.26768265630798438 a2_x2
<= 141.260763

a2_local_6: 
+0.69602168714649215 a2_x3
+1.43673684091617848 a2_x5
+1.08450744798437304 a2_x1
<= 204.147592

a2_local_7: 
+0.80721460123616018 a2_x3
+1.03704969679433012 a2_x6
+1.23882793803359159 a2_x4
<= 202.910173

a2_local_8: 
+0.97849416338633921 a2_x1
+1.79075639443060997 a2_x6
+1.69111676946478351 a2_x5
<= 261.917992

a2_act_1: 
+0.10000000000000001 a2_x1
-10.00000000000000000 a2_z1
<= 0.000000

a2_act_2: 
+0.10000000000000001 a2_x2
-10.00000000000000000 a2_z2
<= 0.000000

a3_local_1: 
+1.53516604128286005 a3_x1
+1.35913693643935440 a3_x4
+0.65139533647080372 a3_x2
<= 136.546115

a3_local_2: 
+0.74418733476839083 a3_x6
+1.34374767384508731 a3_x4
+1.15016229358444999 a3_x1
<= 125.999214

a3_local_3: 
+1.39624204437054256 a3_x2
+0.85747778462066970 a3_x3
+0.71620819902384680 a3_x5
<= 155.369181

a3_local_4: 
+0.74498068518282512 a3_x5
+1.34231668000169768 a3_x1
+1.10881459586575448 a3_x6
<= 142.952091

a3_local_5: 
+1.05305293782880072 a3_x6
+0.73385772437237728 a3_x3
+1.36266195311255678 a3_x1
<= 119.957445

a3_local_6: 
+0.90186303545680024 a3_x2
+1.10881581868303569 a3_x6
+0.94211412005498962 a3_x4
<= 121.818628

a3_local_7: 
+1.41230313942881769 a3_x2
+0.66640384915273365 a3_x5
+1.50059157261981690 a3_x4
<= 189.938858

a3_local_8: 
+1.15195450916475983 a3_x2
+1.24026720832964554 a3_x1
+0.80627786761110121 a3_x5
<= 198.728610

a3_act_1: 
+0.09999999999999999 a3_x1
-10.00000000000000000 a3_z1
<= 0.000000

a3_act_2: 
+0.10000000000000001 a3_x2
-10.00000000000000178 a3_z2
<= 0.000000

a4_local_1: 
+1.49261364504521588 a4_x2
+0.66996573649151314 a4_x6
+1.44407503393053616 a4_x5
<= 237.108475

a4_local_2: 
+0.62823343579449831 a4_x3
+1.59176500807434018 a4_x5
+1.28514731607699528 a4_x1
<= 201.801571

a4_local_3: 
+0.83522432276703862 a4_x4
+1.19728314027909466 a4_x3
+1.04624313120500467 a4_x6
<= 188.990239

a4_local_4: 
+1.23593504530041209 a4_x5
+0.80910400898692492 a4_x1
+0.81419027416480216 a4_x4
<= 137.881523

a4_local_5: 
+0.76408964291946702 a4_x5
+1.37056298370850094 a4_x6
+0.72962717648639297 a4_x1
<= 176.373698

a4_local_6: 
+1.07612069222968176 a4_x4
+1.07591716060219489 a4_x3
+0.92926379654315294 a4_x2
<= 128.637839

a4_local_7: 
+0.90307499200828611 a4_x3
+1.44136670186379701 a4_x6
+0.69378597320648783 a4_x1
<= 184.741017

a4_local_8: 
+0.94438556672081364 a4_x3
+0.97891764358082123 a4_x2
+1.05888954177084305 a4_x6
<= 113.364002

a4_act_1: 
+0.09999999999999999 a4_x1
-10.00000000000000000 a4_z1
<= 0.000000

a4_act_2: 
+0.10000000000000001 a4_x2
-10.00000000000000000 a4_z2
<= 0.000000

coupling_1: 
+0.00821543982959847 a1_x1
+0.04900031921316341 a2_x1
+0.20270816432369324 a3_x1
+0.97064885839334869 a4_x1
+0.08450345875057876 short_1
-0.08450345875057876 surp_1
= 35.925671

coupling_2: 
+0.01133441261857177 a1_x2
+0.04039309422074903 a2_x2
+0.43578739855360116 a3_x2
+0.87086233240893840 a4_x2
+0.15800011120726176 short_2
-0.15800011120726176 surp_2
= 76.371491

coupling_3: 
+0.00528792255824660 a1_x3
+0.01828869867239205 a2_x3
+0.14714311030745336 a3_x3
+0.98421990769378809 a4_x3
+0.06818225489145925 short_3
-0.06818225489145925 surp_3
= 40.960770

bounds
  0.000000 <= a1_x1 <= 100.000000
  0.000000 <= a1_x2 <= 100.000000
  0.000000 <= a1_x3 <= 100.000000
  0.000000 <= a1_x4 <= 100.000000
  0.000000 <= a1_x5 <= 100.000000
  0.000000 <= a1_x6 <= 100.000000
  0.000000 <= a2_x1 <= 100.000000
  0.000000 <= a2_x2 <= 100.000000
  0.000000 <= a2_x3 <= 100.000000
  0.000000 <= a2_x4 <= 100.000000
  0.000000 <= a2_x5 <= 100.000000
  0.000000 <= a2_x6 <= 100.000000
  0.000000 <= a3_x1 <= 100.000000
  0.000000 <= a3_x2 <= 100.000000
  0.000000 <= a3_x3 <= 100.000000
  0.000000 <= a3_x4 <= 100.000000
  0.000000 <= a3_x5 <= 100.000000
  0.000000 <= a3_x6 <= 100.000000
  0.000000 <= a4_x1 <= 100.000000
  0.000000 <= a4_x2 <= 100.000000
  0.000000 <= a4_x3 <= 100.000000
  0.000000 <= a4_x4 <= 100.000000
  0.000000 <= a4_x5 <= 100.000000
  0.000000 <= a4_x6 <= 100.000000
  0.000000 <= short_1 <= +inf
  0.000000 <= surp_1 <= +inf
  0.000000 <= short_2 <= +inf
  0.000000 <= surp_2 <= +inf
  0.000000 <= short_3 <= +inf
  0.000000 <= surp_3 <= +inf
 0 <= a1_z1 <= 1
 0 <= a1_z2 <= 1
 0 <= a2_z1 <= 1
 0 <= a2_z2 <= 1
 0 <= a3_z1 <= 1
 0 <= a3_z2 <= 1
 0 <= a4_z1 <= 1
 0 <= a4_z2 <= 1

binary
  a1_z1
  a1_z2
  a2_z1
  a2_z2
  a3_z1
  a3_z2
  a4_z1
  a4_z2
end
