min
obj: 
  +1.58690782181034451 a1_x1
  +1.85914319529187777 a1_x2
  +3.32311090405199927 a1_x3
  +9.20870591814637862 a1_x4
  +9.62032466035919853 a1_x5
  +2.65221673698665317 a1_x6
  +45.97121590191820673 a1_z1
  +15.23159126469524693 a1_z2
  +7.38516429138446995 a2_x1
  +8.18461543331298103 a2_x2
  +6.32869026358351139 a2_x3
  +1.72084034317845602 a2_x4
  +2.51957804121249751 a2_x5
  +8.19694216322757185 a2_x6
  +32.90972281828447876 a2_z1
  +29.00608133785045339 a2_z2
  +9.62518175189459946 a3_x1
  +3.90094189534807345 a3_x2
  +1.32195101356612454 a3_x3
  +4.74857750195312356 a3_x4
  +3.55589835486331518 a3_x5
  +8.12436598238075014 a3_x6
  +20.82211554905935103 a3_z1
  +25.22287462451485496 a3_z2
  +3.97402812736189226 a4_x1
  +5.87257606585061964 a4_x2
  +8.54493066197249362 a4_x3
  +7.89453690964795740 a4_x4
  +2.70429770668290548 a4_x5
  +9.26226871331643586 a4_x6
  +13.31023289155729650 a4_z1
  +27.54299042523267715 a4_z2
  +1000000.00000000000000000 short_1
  +1000000.00000000000000000 surp_1
  +1000000.00000000000000000 short_2
  +1000000.00000000000000000 surp_2
  +1000000.00000000000000000 short_3
  +1000000.00000000000000000 surp_3

s.t.

a1_local_1: 
+0.00049415753771742 a1_x4
+0.00064046812528857 a1_x1
+0.00045484815318282 a1_x3
<= 0.070469

a1_local_2: 
+9.24297686417003028 a1_x2
+6.28288606289948959 a1_x4
+7.16689674944125787 a1_x3
<= 1528.118360

a1_local_3: 
+0.00017514583968056 a1_x6
+0.00035115185415354 a1_x4
+0.00020974260403371 a1_x1
<= 0.031787

a1_local_4: 
+0.00228621010891729 a1_x6
+0.00203183938233005 a1_x2
+0.00187133661531007 a1_x1
<= 0.242470

a1_local_5: 
+0.01164705516281513 a1_x1
+0.01696901578330883 a1_x2
+0.01973432055197182 a1_x5
<= 2.523546

a1_local_6: 
+0.00022335188253172 a1_x1
+0.00035339994187752 a1_x2
+0.00031463794338864 a1_x6
<= 0.032327

a1_local_7: 
+0.00015200434972813 a1_x5
+0.00032336470691119 a1_x2
+0.00027855431030130 a1_x4
<= 0.049942

a1_local_8: 
+0.00152565505840310 a1_x1
+0.00107496742834664 a1_x2
+0.00150121682571765 a1_x3
<= 0.257013

a1_act_1: 
+8.95149920837035928 a1_x1
-895.14992083703589287 a1_z1
<= 0.000000

a1_act_2: 
+21.19826434477331034 a1_x2
-2119.82643447733107678 a1_z2
<= 0.000000

a2_local_1: 
+1.15078199706550799 a2_x1
+2.92893058542276430 a2_x5
+1.75474249153631967 a2_x3
<= 312.318260

a2_local_2: 
+1.28401234668942132 a2_x4
+3.03435831154340008 a2_x2
+2.47642650010330323 a2_x5
<= 310.947225

a2_local_3: 
+0.12187590824645984 a2_x2
+0.10843111788367622 a2_x1
+0.09904736261980941 a2_x5
<= 10.946599

a2_local_4: 
+0.03961479180434446 a2_x6
+0.02702393421669662 a2_x2
+0.03992219730950317 a2_x4
<= 4.978532

a2_local_5: 
+0.00500387564824980 a2_x1
+0.00906391516069859 a2_x6
+0.00789581635029986 a2_x2
<= 1.041174

a2_local_6: 
+2.74635290128915877 a2_x4
+2.87720122421574720 a2_x6
+2.64607101000530820 a2_x5
<= 433.636556

a2_local_7: 
+2.09694527510894169 a2_x4
+1.44714540837818251 a2_x6
+2.80938830061919953 a2_x3
<= 390.869577

a2_local_8: 
+0.00094763747833418 a2_x5
+0.00082615374413510 a2_x1
+0.00063238621426766 a2_x4
<= 0.156754

a2_act_1: 
+0.65264814334906707 a2_x1
-65.26481433490670270 a2_z1
<= 0.000000

a2_act_2: 
+20.89828864257987462 a2_x2
-2089.82886425798733399 a2_z2
<= 0.000000

a3_local_1: 
+0.07875444699910113 a3_x3
+0.09131950499219622 a3_x5
+0.04055768683616301 a3_x4
<= 7.297731

a3_local_2: 
+270.23218615121925268 a3_x3
+300.44382490156289123 a3_x5
+202.87513453852406542 a3_x2
<= 39392.436178

a3_local_3: 
+46.36941026427212620 a3_x5
+59.15790294613950806 a3_x6
+65.96921564496676638 a3_x2
<= 8603.329120

a3_local_4: 
+0.28341109460645542 a3_x4
+0.24792931316087474 a3_x3
+0.11933750691544996 a3_x1
<= 28.412694

a3_local_5: 
+0.03413118288642666 a3_x1
+0.02904566934820982 a3_x4
+0.01579372437915772 a3_x5
<= 4.530749

a3_local_6: 
+0.00504179266587177 a3_x5
+0.00915396090855432 a3_x4
+0.00711749101695822 a3_x6
<= 0.861997

a3_local_7: 
+63.74153439916901220 a3_x5
+48.92122681041398380 a3_x4
+57.11652272014025300 a3_x2
<= 10307.347657

a3_local_8: 
+97.55036689190764321 a3_x6
+44.57612590811980624 a3_x2
+73.90767895359279294 a3_x3
<= 11787.418774

a3_act_1: 
+0.00550313549370440 a3_x1
-0.55031354937043997 a3_z1
<= 0.000000

a3_act_2: 
+357.96792309383454267 a3_x2
-35796.79230938345426694 a3_z2
<= 0.000000

a4_local_1: 
+0.03275959581705407 a4_x3
+0.02746560541840183 a4_x2
+0.04427067537112571 a4_x4
<= 6.185057

a4_local_2: 
+18.79572280987040145 a4_x5
+9.51382318262844073 a4_x4
+19.93266736738005918 a4_x1
<= 1935.672922

a4_local_3: 
+4.49243750326357549 a4_x3
+5.43918943307578395 a4_x2
+5.94863772266803981 a4_x6
<= 910.427145

a4_local_4: 
+1747.49385740434649961 a4_x1
+2068.36277674535949700 a4_x6
+1990.65005591679869212 a4_x5
<= 268247.208526

a4_local_5: 
+4.20122574173255181 a4_x1
+4.65366005701826602 a4_x2
+3.95834927538096215 a4_x6
<= 504.040988

a4_local_6: 
+11.53841615527305464 a4_x6
+33.89664564409809344 a4_x3
+19.32632511627615912 a4_x5
<= 2655.930164

a4_local_7: 
+1.23267899775795375 a4_x1
+1.29422953633073634 a4_x4
+1.79880302939155978 a4_x5
<= 139.287816

a4_local_8: 
+0.02922280258582014 a4_x5
+0.02574624170609615 a4_x1
+0.03955721414171835 a4_x6
<= 5.393502

a4_act_1: 
+182.44207332917602571 a4_x1
-18244.20733291760188877 a4_z1
<= 0.000000

a4_act_2: 
+91.09804621194513174 a4_x2
-9109.80462119451294711 a4_z2
<= 0.000000

coupling_1: 
+0.14206713219505818 a1_x1
+0.44650627892643485 a2_x1
+1.49332003950259562 a3_x1
+13.63681564505362687 a4_x1
+0.96690611350075140 short_1
-0.96690611350075140 surp_1
= 934.289418

coupling_2: 
+9.50637497484862593 a1_x2
+21.49032545390666371 a2_x2
+248.29717622434540658 a3_x2
+725.04752305950489699 a4_x2
+84.08069340393818436 short_2
-84.08069340393818436 surp_2
= 78067.648652

coupling_3: 
+0.00011876709685366 a1_x3
+0.00048893214888950 a2_x3
+0.00464414955650192 a3_x3
+0.01531687055821886 a4_x3
+0.00180221634613758 short_3
-0.00180221634613758 surp_3
= 1.048592

bounds
  0.000000 <= a1_x1 <= 100.000000
  0.000000 <= a1_x2 <= 100.000000
  0.000000 <= a1_x3 <= 100.000000
  0.000000 <= a1_x4 <= 100.000000
  0.000000 <= a1_x5 <= 100.000000
  0.000000 <= a1_x6 <= 100.000000
  0.000000 <= a2_x1 <= 100.000000
  0.000000 <= a2_x2 <= 100.000000
  0.000000 <= a2_x3 <= 100.000000
  0.000000 <= a2_x4 <= 100.000000
  0.000000 <= a2_x5 <= 100.000000
  0.000000 <= a2_x6 <= 100.000000
  0.000000 <= a3_x1 <= 100.000000
  0.000000 <= a3_x2 <= 100.000000
  0.000000 <= a3_x3 <= 100.000000
  0.000000 <= a3_x4 <= 100.000000
  0.000000 <= a3_x5 <= 100.000000
  0.000000 <= a3_x6 <= 100.000000
  0.000000 <= a4_x1 <= 100.000000
  0.000000 <= a4_x2 <= 100.000000
  0.000000 <= a4_x3 <= 100.000000
  0.000000 <= a4_x4 <= 100.000000
  0.000000 <= a4_x5 <= 100.000000
  0.000000 <= a4_x6 <= 100.000000
  0.000000 <= short_1 <= +inf
  0.000000 <= surp_1 <= +inf
  0.000000 <= short_2 <= +inf
  0.000000 <= surp_2 <= +inf
  0.000000 <= short_3 <= +inf
  0.000000 <= surp_3 <= +inf
 0 <= a1_z1 <= 1
 0 <= a1_z2 <= 1
 0 <= a2_z1 <= 1
 0 <= a2_z2 <= 1
 0 <= a3_z1 <= 1
 0 <= a3_z2 <= 1
 0 <= a4_z1 <= 1
 0 <= a4_z2 <= 1

binary
  a1_z1
  a1_z2
  a2_z1
  a2_z2
  a3_z1
  a3_z2
  a4_z1
  a4_z2
end
