min
obj: 
  +2.86702301288668870 a1_x1
  +4.61217347674817457 a1_x2
  +8.37266539443051627 a1_x3
  +3.88741117842564377 a1_x4
  +3.57352147071314707 a1_x5
  +7.90632682258909369 a1_x6
  +32.52167325628295202 a1_z1
  +46.95512094955829951 a1_z2
  +1.34162249297538905 a2_x1
  +5.04177078463243156 a2_x2
  +1.10989142532268992 a2_x3
  +7.53499127677043390 a2_x4
  +4.74514201764349153 a2_x5
  +4.92271964690250208 a2_x6
  +7.37175972020868908 a2_z1
  +32.23919956008293042 a2_z2
  +7.19883337190115391 a3_x1
  +9.69659328832065093 a3_x2
  +2.68145044350852224 a3_x3
  +4.74181989860472974 a3_x4
  +5.40392510460596665 a3_x5
  +9.85025370993833427 a3_x6
  +17.99205279831755888 a3_z1
  +28.73085531973273987 a3_z2
  +5.38171902546503311 a4_x1
  +3.72975403904797487 a4_x2
  +6.65779047476273789 a4_x3
  +5.43042814174023825 a4_x4
  +9.71759449267787367 a4_x5
  +8.04794548671517163 a4_x6
  +7.84716545501873153 a4_z1
  +24.37447779336789466 a4_z2
  +1000000.00000000000000000 short_1
  +1000000.00000000000000000 surp_1
  +1000000.00000000000000000 short_2
  +1000000.00000000000000000 surp_2
  +1000000.00000000000000000 short_3
  +1000000.00000000000000000 surp_3

s.t.

a1_local_1: 
+0.75472573801036946 a1_x3
+1.32498462638392334 a1_x1
+1.17726940492991528 a1_x2
<= 195.876542

a1_local_2: 
+1.20311966167186646 a1_x4
+0.90361891902783420 a1_x6
+0.83117251912448220 a1_x2
<= 110.084938

a1_local_3: 
+1.45778828517307857 a1_x3
+0.68597066540514373 a1_x4
+0.73088131078761576 a1_x1
<= 187.598018

a1_local_4: 
+0.66872221773875962 a1_x3
+0.60839304254108084 a1_x6
+1.64367428631874324 a1_x1
<= 160.044109

a1_local_5: 
+0.83167637709024844 a1_x5
+1.20239077067291267 a1_x1
+1.12922768985952882 a1_x3
<= 161.332482

a1_local_6: 
+1.15620194750512550 a1_x6
+0.93250323884611408 a1_x3
+0.86490080920363321 a1_x1
<= 134.954570

a1_local_7: 
+0.85552678483154165 a1_x4
+1.16887047574659642 a1_x3
+1.06819923722896881 a1_x6
<= 107.082191

a1_local_8: 
+0.91465463065916675 a1_x6
+1.12884328451427018 a1_x3
+0.88586255835351857 a1_x2
<= 107.684544

a1_act_1: 
+0.10000000000000001 a1_x1
-10.00000000000000000 a1_z1
<= 0.000000

a1_act_2: 
+0.10000000000000001 a1_x2
-10.00000000000000178 a1_z2
<= 0.000000

a2_local_1: 
+0.80143586396699218 a2_x3
+1.24776048210538537 a2_x1
+1.03579858280022297 a2_x4
<= 139.464286

a2_local_2: 
+1.26408441133474336 a2_x3
+0.79108641087038056 a2_x4
+0.91668418827015530 a2_x1
<= 193.362131

a2_local_3: 
+0.73450215460200563 a2_x2
+1.02354628101806067 a2_x5
+1.36146639425701355 a2_x6
<= 190.730980

a2_local_4: 
+1.33025466767426170 a2_x3
+1.17130007580763973 a2_x4
+0.91605006935527078 a2_x2
<= 205.663903

a2_local_5: 
+0.72994684638846874 a2_x3
+1.11766346441297326 a2_x5
+1.36996276502551306 a2_x6
<= 201.322380

a2_local_6: 
+0.65532467351982371 a2_x2
+1.52596116155505923 a2_x5
+0.81324738353424675 a2_x1
<= 201.113926

a2_local_7: 
+0.79411719683566384 a2_x6
+1.25925997319378280 a2_x2
+0.85221890163606617 a2_x5
<= 141.524018

a2_local_8: 
+0.89561606987628661 a2_x2
+1.20140218311110103 a2_x4
+0.83236073153325041 a2_x6
<= 191.798337

a2_act_1: 
+0.09999999999999999 a2_x1
-10.00000000000000000 a2_z1
<= 0.000000

a2_act_2: 
+0.10000000000000001 a2_x2
-10.00000000000000178 a2_z2
<= 0.000000

a3_local_1: 
+0.85396775625603771 a3_x6
+1.17100439996024708 a3_x2
+0.85954162289799751 a3_x1
<= 147.746378

a3_local_2: 
+1.20725089716054157 a3_x3
+0.82832823098496233 a3_x1
+0.96282836761533952 a3_x4
<= 172.858378

a3_local_3: 
+1.02241018488976732 a3_x4
+0.82643913357730192 a3_x1
+1.21001046461997408 a3_x6
<= 178.266010

a3_local_4: 
+1.18416876126276049 a3_x1
+1.19212969924258405 a3_x3
+0.83883490247357062 a3_x5
<= 117.935688

a3_local_5: 
+0.59863986406980207 a3_x5
+1.27085449992803201 a3_x4
+1.67045340616240523 a3_x6
<= 152.735331

a3_local_6: 
+0.76733689581740527 a3_x2
+1.26823822040903744 a3_x3
+1.30320854562160804 a3_x6
<= 178.510910

a3_local_7: 
+1.20064068599480200 a3_x4
+0.69594678063841831 a3_x1
+1.43689148052766646 a3_x2
<= 179.022851

a3_local_8: 
+1.45743217326549512 a3_x2
+0.68613827685676709 a3_x1
+1.07372631953375008 a3_x5
<= 105.291825

a3_act_1: 
+0.10000000000000001 a3_x1
-10.00000000000000000 a3_z1
<= 0.000000

a3_act_2: 
+0.09999999999999999 a3_x2
-9.99999999999999822 a3_z2
<= 0.000000

a4_local_1: 
+0.74796130182463105 a4_x1
+1.33696756444555032 a4_x4
+1.00400659758937771 a4_x3
<= 123.786758

a4_local_2: 
+1.17680838340659921 a4_x1
+0.84975601304370529 a4_x6
+0.87646179667627644 a4_x3
<= 136.197927

a4_local_3: 
+1.07719103296800989 a4_x2
+0.67935411715235661 a4_x5
+1.47198636874637967 a4_x1
<= 183.999455

a4_local_4: 
+0.81124402459131395 a4_x5
+0.83831920664339399 a4_x4
+1.23267471893401859 a4_x3
<= 124.586613

a4_local_5: 
+0.69082944963965465 a4_x1
+1.25211364852442264 a4_x4
+1.44753527881825583 a4_x2
<= 137.289562

a4_local_6: 
+1.13741571699877020 a4_x4
+1.35098159865453593 a4_x2
+0.74020253199297148 a4_x6
<= 164.533615

a4_local_7: 
+0.88127640658120232 a4_x2
+0.94058996728456079 a4_x1
+1.13471777132826057 a4_x3
<= 142.332347

a4_local_8: 
+1.18634613849520743 a4_x1
+0.74023993197972593 a4_x2
+1.35091334146965236 a4_x5
<= 213.581294

a4_act_1: 
+0.09999999999999999 a4_x1
-10.00000000000000000 a4_z1
<= 0.000000

a4_act_2: 
+0.10000000000000001 a4_x2
-10.00000000000000000 a4_z2
<= 0.000000

coupling_1: 
+0.01173061936382859 a1_x1
+0.04531930374918922 a2_x1
+0.20662342290308400 a3_x1
+0.97081019756959142 a4_x1
+0.07950746719564540 short_1
-0.07950746719564540 surp_1
= 30.902999

coupling_2: 
+0.00825624650750684 a1_x2
+0.04558361977670163 a2_x2
+0.29820729703621424 a3_x2
+0.93734959586164646 a4_x2
+0.12308962412409766 short_2
-0.12308962412409766 surp_2
= 29.257890

coupling_3: 
+0.02077474944427198 a1_x3
+0.09347753954727710 a2_x3
+0.32559051973447711 a3_x3
+0.91915774247333792 a4_x3
+0.14136869755371023 short_3
-0.14136869755371023 surp_3
= 27.981391

bounds
  0.000000 <= a1_x1 <= 100.000000
  0.000000 <= a1_x2 <= 100.000000
  0.000000 <= a1_x3 <= 100.000000
  0.000000 <= a1_x4 <= 100.000000
  0.000000 <= a1_x5 <= 100.000000
  0.000000 <= a1_x6 <= 100.000000
  0.000000 <= a2_x1 <= 100.000000
  0.000000 <= a2_x2 <= 100.000000
  0.000000 <= a2_x3 <= 100.000000
  0.000000 <= a2_x4 <= 100.000000
  0.000000 <= a2_x5 <= 100.000000
  0.000000 <= a2_x6 <= 100.000000
  0.000000 <= a3_x1 <= 100.000000
  0.000000 <= a3_x2 <= 100.000000
  0.000000 <= a3_x3 <= 100.000000
  0.000000 <= a3_x4 <= 100.000000
  0.000000 <= a3_x5 <= 100.000000
  0.000000 <= a3_x6 <= 100.000000
  0.000000 <= a4_x1 <= 100.000000
  0.000000 <= a4_x2 <= 100.000000
  0.000000 <= a4_x3 <= 100.000000
  0.000000 <= a4_x4 <= 100.000000
  0.000000 <= a4_x5 <= 100.000000
  0.000000 <= a4_x6 <= 100.000000
  0.000000 <= short_1 <= +inf
  0.000000 <= surp_1 <= +inf
  0.000000 <= short_2 <= +inf
  0.000000 <= surp_2 <= +inf
  0.000000 <= short_3 <= +inf
  0.000000 <= surp_3 <= +inf
 0 <= a1_z1 <= 1
 0 <= a1_z2 <= 1
 0 <= a2_z1 <= 1
 0 <= a2_z2 <= 1
 0 <= a3_z1 <= 1
 0 <= a3_z2 <= 1
 0 <= a4_z1 <= 1
 0 <= a4_z2 <= 1

binary
  a1_z1
  a1_z2
  a2_z1
  a2_z2
  a3_z1
  a3_z2
  a4_z1
  a4_z2
end
