min
obj: 
  +3.04305245350352704 a1_x1
  +8.52421046785006808 a1_x2
  +7.69307565210918742 a1_x3
  +6.91899621560824230 a1_x4
  +9.20970734213053355 a1_x5
  +1.67836132765545631 a1_x6
  +29.95730103851083470 a1_z1
  +31.08072985890714435 a1_z2
  +3.99822752437524187 a2_x1
  +4.07165663414877166 a2_x2
  +8.34795406785622518 a2_x3
  +4.87171054907478673 a2_x4
  +6.00614521080850050 a2_x5
  +2.78826542023549706 a2_x6
  +21.64829021237791906 a2_z1
  +42.54057128991149028 a2_z2
  +2.99288059555848207 a3_x1
  +5.53541108642779456 a3_x2
  +5.21389691922773402 a3_x3
  +2.06500474656608013 a3_x4
  +6.41053556614162368 a3_x5
  +2.65986220405491736 a3_x6
  +31.21797170368752461 a3_z1
  +44.91309333626589506 a3_z2
  +1.34783919856301182 a4_x1
  +6.31764736904795043 a4_x2
  +9.98943596309341864 a4_x3
  +5.70541292643470310 a4_x4
  +4.44152957180650887 a4_x5
  +5.06133401945766614 a4_x6
  +15.23838321132246598 a4_z1
  +39.66649904034947838 a4_z2
  +1000000.00000000000000000 short_1
  +1000000.00000000000000000 surp_1
  +1000000.00000000000000000 short_2
  +1000000.00000000000000000 surp_2
  +1000000.00000000000000000 short_3
  +1000000.00000000000000000 surp_3

s.t.

a1_local_1: 
+0.00031313928544073 a1_x4
+0.00038956699396363 a1_x3
+0.00083924620661493 a1_x1
<= 0.095786

a1_local_2: 
+0.00012192505791251 a1_x5
+0.00007422303037965 a1_x2
+0.00009176201249947 a1_x1
<= 0.011239

a1_local_3: 
+16.33849518928883526 a1_x1
+23.13246911731586053 a1_x5
+23.25789096150979773 a1_x4
<= 3604.407423

a1_local_4: 
+4.12243939419787431 a1_x4
+3.09524422326580240 a1_x1
+3.31892488629920068 a1_x2
<= 443.051439

a1_local_5: 
+67.96590589905079582 a1_x4
+138.92055873059547366 a1_x6
+56.31767334372952405 a1_x3
<= 18044.086561

a1_local_6: 
+0.00021330075114114 a1_x5
+0.00036436661032213 a1_x1
+0.00020533680916088 a1_x6
<= 0.042363

a1_local_7: 
+0.36025569093635940 a1_x1
+0.37752441947996807 a1_x2
+0.25262012279704438 a1_x4
<= 56.425243

a1_local_8: 
+0.04123989106653018 a1_x3
+0.04379699161140458 a1_x6
+0.01686199388114846 a1_x5
<= 5.224366

a1_act_1: 
+0.15953917916736107 a1_x1
-15.95391791673610804 a1_z1
<= 0.000000

a1_act_2: 
+0.14005234318508408 a1_x2
-14.00523431850840872 a1_z2
<= 0.000000

a2_local_1: 
+16.57582407734955154 a2_x5
+20.20249874621908504 a2_x3
+23.99105151566440952 a2_x6
<= 3990.034183

a2_local_2: 
+112.12037526212158411 a2_x4
+174.83720944879726744 a2_x3
+119.09137240932034274 a2_x6
<= 19859.368913

a2_local_3: 
+0.00176313785246456 a2_x3
+0.00132026851045734 a2_x1
+0.00185204719707830 a2_x2
<= 0.327062

a2_local_4: 
+51.24179451132042828 a2_x4
+39.71502381829427719 a2_x5
+37.18853507804679737 a2_x1
<= 4012.711687

a2_local_5: 
+87.90582619405445541 a2_x1
+98.65676532935189869 a2_x6
+52.46455218463811576 a2_x2
<= 14446.630100

a2_local_6: 
+0.27906934048407078 a2_x1
+0.22087984372360700 a2_x5
+0.31040865217665420 a2_x3
<= 44.302519

a2_local_7: 
+67.90877824101478666 a2_x3
+127.39511121632077106 a2_x6
+64.45155621042826510 a2_x1
<= 11979.004666

a2_local_8: 
+0.21402470597048734 a2_x4
+0.37532783563987804 a2_x1
+0.40499287069577572 a2_x6
<= 35.742845

a2_act_1: 
+0.09054818119099818 a2_x1
-9.05481811909981893 a2_z1
<= 0.000000

a2_act_2: 
+56.38114797045748361 a2_x2
-5638.11479704574867355 a2_z2
<= 0.000000

a3_local_1: 
+0.00581092641446194 a3_x4
+0.00225034104504932 a3_x2
+0.00415472973450384 a3_x5
<= 0.653499

a3_local_2: 
+29.79744996658742906 a3_x1
+27.47768995190249086 a3_x6
+28.65439655890169490 a3_x3
<= 2756.298242

a3_local_3: 
+6.75825267521562711 a3_x2
+5.75591188580787971 a3_x6
+5.16484401334534660 a3_x5
<= 1235.547406

a3_local_4: 
+152.80854353118334643 a3_x1
+218.39989066367382975 a3_x5
+204.84117284468771913 a3_x4
<= 18347.414262

a3_local_5: 
+467.67902177879216197 a3_x4
+263.64726749760461644 a3_x2
+404.69460453715652193 a3_x6
<= 46027.702149

a3_local_6: 
+37.18226017927150195 a3_x5
+32.14999166159893917 a3_x2
+50.93146880813918642 a3_x1
<= 5998.371524

a3_local_7: 
+0.00757884939098554 a3_x2
+0.00714752326517324 a3_x4
+0.00372216984466270 a3_x5
<= 1.184240

a3_local_8: 
+0.39174635749306208 a3_x3
+0.42546147087062758 a3_x5
+0.66625001043660137 a3_x6
<= 73.389244

a3_act_1: 
+0.01787370605515850 a3_x1
-1.78737060551585025 a3_z1
<= 0.000000

a3_act_2: 
+25.21760322397549459 a3_x2
-2521.76032239754931652 a3_z2
<= 0.000000

a4_local_1: 
+200.25648788640637576 a4_x6
+314.67710030979282010 a4_x2
+244.40696763339929021 a4_x1
<= 23437.308804

a4_local_2: 
+1760.87497048808700129 a4_x1
+2107.93919439535602578 a4_x6
+1545.69885684221003430 a4_x5
<= 178929.210601

a4_local_3: 
+15.66371405700559016 a4_x6
+12.64393181231801044 a4_x3
+15.78294684751212529 a4_x2
<= 1893.476320

a4_local_4: 
+0.01913899307160079 a4_x4
+0.02773771375911838 a4_x6
+0.02566039751046409 a4_x2
<= 2.815259

a4_local_5: 
+0.05768746106053602 a4_x5
+0.02504090721619713 a4_x6
+0.03618981696316264 a4_x1
<= 4.347627

a4_local_6: 
+0.28271054100762261 a4_x5
+0.24302550050787786 a4_x1
+0.19119103538546087 a4_x2
<= 46.703167

a4_local_7: 
+41.93332247955654424 a4_x4
+34.92688891306416821 a4_x2
+22.53607420814386586 a4_x5
<= 4761.351146

a4_local_8: 
+0.03355903138514307 a4_x3
+0.01707410199802458 a4_x1
+0.02826341796635869 a4_x2
<= 5.043863

a4_act_1: 
+1.27955912666454785 a4_x1
-127.95591266645477901 a4_z1
<= 0.000000

a4_act_2: 
+0.51068065813316343 a4_x2
-51.06806581331634476 a4_z2
<= 0.000000

coupling_1: 
+33.82160153715085471 a1_x1
+216.58599603445154003 a2_x1
+614.63250902103334283 a3_x1
+2555.17052429483965170 a4_x1
+344.87290771207568696 short_1
-344.87290771207568696 surp_1
= 195504.103232

coupling_2: 
+0.45798977957756115 a1_x2
+2.60355854103180429 a2_x2
+5.74688722273195740 a3_x2
+57.33245326247106988 a4_x2
+4.27923952659995432 short_2
-4.27923952659995432 surp_2
= 4727.209332

coupling_3: 
+0.54419839207751564 a1_x3
+1.42358351770912805 a2_x3
+12.47222326362531675 a3_x3
+52.46249896486615683 a4_x3
+4.47961183951891506 short_3
-4.47961183951891506 surp_3
= 1644.367990

bounds
  0.000000 <= a1_x1 <= 100.000000
  0.000000 <= a1_x2 <= 100.000000
  0.000000 <= a1_x3 <= 100.000000
  0.000000 <= a1_x4 <= 100.000000
  0.000000 <= a1_x5 <= 100.000000
  0.000000 <= a1_x6 <= 100.000000
  0.000000 <= a2_x1 <= 100.000000
  0.000000 <= a2_x2 <= 100.000000
  0.000000 <= a2_x3 <= 100.000000
  0.000000 <= a2_x4 <= 100.000000
  0.000000 <= a2_x5 <= 100.000000
  0.000000 <= a2_x6 <= 100.000000
  0.000000 <= a3_x1 <= 100.000000
  0.000000 <= a3_x2 <= 100.000000
  0.000000 <= a3_x3 <= 100.000000
  0.000000 <= a3_x4 <= 100.000000
  0.000000 <= a3_x5 <= 100.000000
  0.000000 <= a3_x6 <= 100.000000
  0.000000 <= a4_x1 <= 100.000000
  0.000000 <= a4_x2 <= 100.000000
  0.000000 <= a4_x3 <= 100.000000
  0.000000 <= a4_x4 <= 100.000000
  0.000000 <= a4_x5 <= 100.000000
  0.000000 <= a4_x6 <= 100.000000
  0.000000 <= short_1 <= +inf
  0.000000 <= surp_1 <= +inf
  0.000000 <= short_2 <= +inf
  0.000000 <= surp_2 <= +inf
  0.000000 <= short_3 <= +inf
  0.000000 <= surp_3 <= +inf
 0 <= a1_z1 <= 1
 0 <= a1_z2 <= 1
 0 <= a2_z1 <= 1
 0 <= a2_z2 <= 1
 0 <= a3_z1 <= 1
 0 <= a3_z2 <= 1
 0 <= a4_z1 <= 1
 0 <= a4_z2 <= 1

binary
  a1_z1
  a1_z2
  a2_z1
  a2_z2
  a3_z1
  a3_z2
  a4_z1
  a4_z2
end
