min
obj: 
  +4.68205187695116365 a1_x1
  +5.71291625483064269 a1_x2
  +9.00563589084773142 a1_x3
  +9.01724711762336106 a1_x4
  +9.40638568868457803 a1_x5
  +5.77535620951187667 a1_x6
  +36.44079832510822570 a1_z1
  +20.35589591192510284 a1_z2
  +9.85237733259970305 a2_x1
  +8.66656609951932211 a2_x2
  +1.31834896047554095 a2_x3
  +8.26919439786070853 a2_x4
  +6.06353184831551140 a2_x5
  +3.26315819103542193 a2_x6
  +31.01579944565894920 a2_z1
  +42.14273897613190911 a2_z2
  +3.40700085697226296 a3_x1
  +9.41882509326676143 a3_x2
  +9.74900107951637906 a3_x3
  +7.04508203399397814 a3_x4
  +9.97637618984075480 a3_x5
  +5.84735535483849578 a3_x6
  +49.07354774414897491 a3_z1
  +13.99914181947612590 a3_z2
  +1.91431389506638183 a4_x1
  +6.10422017205319989 a4_x2
  +2.25748963263893865 a4_x3
  +5.65946667698913863 a4_x4
  +4.35204976180165826 a4_x5
  +6.78234121926408484 a4_x6
  +29.95675458969477134 a4_z1
  +32.97214499302464219 a4_z2
  +1000000.00000000000000000 short_1
  +1000000.00000000000000000 surp_1
  +1000000.00000000000000000 short_2
  +1000000.00000000000000000 surp_2
  +1000000.00000000000000000 short_3
  +1000000.00000000000000000 surp_3

s.t.

a1_local_1: 
+1.36239454542144522 a1_x4
+1.11471004010267372 a1_x2
+0.73400176429116470 a1_x6
<= 140.876444

a1_local_2: 
+1.49530127330705986 a1_x3
+0.66876155183655095 a1_x4
+1.34757996016478332 a1_x5
<= 147.516850

a1_local_3: 
+0.75418227837105534 a1_x1
+1.32593940308420111 a1_x3
+0.99171137006251386 a1_x6
<= 159.952193

a1_local_4: 
+0.81799788854876521 a1_x2
+0.71068903451150744 a1_x1
+1.40708516867345601 a1_x5
<= 140.440268

a1_local_5: 
+0.77395509511110938 a1_x2
+1.26015014184626351 a1_x3
+1.29206462534682220 a1_x5
<= 141.653909

a1_local_6: 
+1.19230963765816678 a1_x6
+0.83870830899607163 a1_x1
+1.05908132036306601 a1_x3
<= 161.215047

a1_local_7: 
+1.15787803002376477 a1_x4
+0.93740203579326942 a1_x2
+0.86364882489347827 a1_x5
<= 155.811052

a1_local_8: 
+1.11961694160423475 a1_x6
+1.09288009297621524 a1_x2
+0.89316261914289863 a1_x4
<= 194.266594

a1_act_1: 
+0.09999999999999999 a1_x1
-10.00000000000000000 a1_z1
<= 0.000000

a1_act_2: 
+0.09999999999999999 a1_x2
-10.00000000000000000 a1_z2
<= 0.000000

a2_local_1: 
+0.83322734713048530 a2_x2
+1.14513098429086102 a2_x6
+1.20015263954532414 a2_x5
<= 105.389257

a2_local_2: 
+1.59649508904977444 a2_x1
+1.87316996620362497 a2_x4
+2.35961208051341487 a2_x5
<= 404.784821

a2_local_3: 
+1.52431605120596969 a2_x2
+1.05855831870770722 a2_x5
+0.65603192934224208 a2_x1
<= 204.441632

a2_local_4: 
+0.72182797607453397 a2_x6
+1.38537163028541643 a2_x4
+0.76786776819486391 a2_x5
<= 107.216599

a2_local_5: 
+0.73462857105759261 a2_x5
+1.36123211020825274 a2_x3
+0.95584220545224485 a2_x6
<= 157.714823

a2_local_6: 
+1.19591252181658270 a2_x6
+0.83618156157526224 a2_x4
+1.09237610674333241 a2_x1
<= 164.448113

a2_local_7: 
+0.98123234262351178 a2_x3
+0.89617254994848872 a2_x6
+1.11585653907551485 a2_x1
<= 139.908988

a2_local_8: 
+1.57769322355620734 a2_x5
+1.58117308948640867 a2_x3
+1.70653779896415503 a2_x6
<= 338.420165

a2_act_1: 
+0.10000000000000001 a2_x1
-10.00000000000000000 a2_z1
<= 0.000000

a2_act_2: 
+0.10000000000000001 a2_x2
-10.00000000000000178 a2_z2
<= 0.000000

a3_local_1: 
+1.21619835899852791 a3_x5
+0.82223429476047383 a3_x2
+0.98414990542296288 a3_x3
<= 117.044752

a3_local_2: 
+1.23350544512000382 a3_x2
+0.81069767787098257 a3_x3
+1.10747539294270969 a3_x4
<= 159.772695

a3_local_3: 
+0.70141346562245221 a3_x6
+1.42569261785211743 a3_x4
+1.22383492363242863 a3_x1
<= 229.930499

a3_local_4: 
+1.40062176360039881 a3_x4
+1.57615600289032054 a3_x2
+0.63445496395421641 a3_x1
<= 177.789166

a3_local_5: 
+0.66190003401050868 a3_x3
+1.29458188561954923 a3_x5
+1.51080215835753107 a3_x2
<= 171.505359

a3_local_6: 
+1.10784933803536689 a3_x1
+1.00365164757835257 a3_x6
+0.90264981497698571 a3_x2
<= 136.787274

a3_local_7: 
+0.99801149312313975 a3_x1
+1.33146329326840429 a3_x4
+0.75105337492650970 a3_x6
<= 105.145413

a3_local_8: 
+1.44858762107791161 a3_x4
+0.69032758905939562 a3_x3
+1.11090800299880454 a3_x5
<= 206.575136

a3_act_1: 
+0.09999999999999999 a3_x1
-10.00000000000000000 a3_z1
<= 0.000000

a3_act_2: 
+0.10000000000000001 a3_x2
-10.00000000000000000 a3_z2
<= 0.000000

a4_local_1: 
+1.14537784401327070 a4_x3
+0.87307433544909185 a4_x5
+0.99980797331340965 a4_x2
<= 192.848527

a4_local_2: 
+1.45956568385984276 a4_x3
+0.68513531871719913 a4_x2
+1.02094672515616280 a4_x6
<= 108.763908

a4_local_3: 
+0.73632386902872882 a4_x5
+1.14133217823223054 a4_x6
+1.35809803547327856 a4_x3
<= 189.504627

a4_local_4: 
+0.98904665465250396 a4_x3
+0.93424173670005251 a4_x6
+1.07038677541020588 a4_x1
<= 203.488854

a4_local_5: 
+1.59904084269523095 a4_x3
+1.64760294830835652 a4_x6
+0.60694234677519254 a4_x5
<= 199.145638

a4_local_6: 
+0.84295729347153858 a4_x3
+0.87648915554291318 a4_x4
+1.18629971855598382 a4_x6
<= 170.331096

a4_local_7: 
+0.91987683469109605 a4_x6
+0.82290019375446899 a4_x3
+1.21521419923054808 a4_x1
<= 200.139374

a4_local_8: 
+0.66328798980764092 a4_x1
+1.50764074635213641 a4_x6
+1.15017900346028545 a4_x3
<= 175.869160

a4_act_1: 
+0.10000000000000001 a4_x1
-10.00000000000000178 a4_z1
<= 0.000000

a4_act_2: 
+0.09999999999999998 a4_x2
-9.99999999999999822 a4_z2
<= 0.000000

coupling_1: 
+0.00741178802162563 a1_x1
+0.02282946723175187 a2_x1
+0.10200732827607105 a3_x1
+0.98760492253758947 a4_x1
+0.08262839336976291 short_1
-0.08262839336976291 surp_1
= 56.510967

coupling_2: 
+0.00863253033602148 a1_x2
+0.01901789668487048 a2_x2
+0.09134103192817067 a3_x2
+0.99046321796550718 a4_x2
+0.07142558634477768 short_2
-0.07142558634477768 surp_2
= 26.402039

coupling_3: 
+0.00613300460635390 a1_x3
+0.04767584213117532 a2_x3
+0.10865540221461911 a3_x3
+0.98649616402971874 a4_x3
+0.07971424670600438 short_3
-0.07971424670600438 surp_3
= 69.087640

bounds
  0.000000 <= a1_x1 <= 100.000000
  0.000000 <= a1_x2 <= 100.000000
  0.000000 <= a1_x3 <= 100.000000
  0.000000 <= a1_x4 <= 100.000000
  0.000000 <= a1_x5 <= 100.000000
  0.000000 <= a1_x6 <= 100.000000
  0.000000 <= a2_x1 <= 100.000000
  0.000000 <= a2_x2 <= 100.000000
  0.000000 <= a2_x3 <= 100.000000
  0.000000 <= a2_x4 <= 100.000000
  0.000000 <= a2_x5 <= 100.000000
  0.000000 <= a2_x6 <= 100.000000
  0.000000 <= a3_x1 <= 100.000000
  0.000000 <= a3_x2 <= 100.000000
  0.000000 <= a3_x3 <= 100.000000
  0.000000 <= a3_x4 <= 100.000000
  0.000000 <= a3_x5 <= 100.000000
  0.000000 <= a3_x6 <= 100.000000
  0.000000 <= a4_x1 <= 100.000000
  0.000000 <= a4_x2 <= 100.000000
  0.000000 <= a4_x3 <= 100.000000
  0.000000 <= a4_x4 <= 100.000000
  0.000000 <= a4_x5 <= 100.000000
  0.000000 <= a4_x6 <= 100.000000
  0.000000 <= short_1 <= +inf
  0.000000 <= surp_1 <= +inf
  0.000000 <= short_2 <= +inf
  0.000000 <= surp_2 <= +inf
  0.000000 <= short_3 <= +inf
  0.000000 <= surp_3 <= +inf
 0 <= a1_z1 <= 1
 0 <= a1_z2 <= 1
 0 <= a2_z1 <= 1
 0 <= a2_z2 <= 1
 0 <= a3_z1 <= 1
 0 <= a3_z2 <= 1
 0 <= a4_z1 <= 1
 0 <= a4_z2 <= 1

binary
  a1_z1
  a1_z2
  a2_z1
  a2_z2
  a3_z1
  a3_z2
  a4_z1
  a4_z2
end
