min
obj: 
  +4.00927114806491947 a1_x1
  +1.96797315584533505 a1_x2
  +5.12450639908132288 a1_x3
  +5.32896604620880687 a1_x4
  +7.73264361972508052 a1_x5
  +5.13954220661915251 a1_x6
  +7.46013036925632012 a1_z1
  +49.87266735161764331 a1_z2
  +9.36843435344059650 a2_x1
  +1.05737072364449292 a2_x2
  +6.60719118774421155 a2_x3
  +2.15746424177711438 a2_x4
  +4.02884955809363987 a2_x5
  +6.58160214482754569 a2_x6
  +37.18631761224219190 a2_z1
  +14.56992703067312611 a2_z2
  +7.57718464422320714 a3_x1
  +6.32546719961394732 a3_x2
  +1.31829467185166682 a3_x3
  +2.45084274434978422 a3_x4
  +7.58215052014305346 a3_x5
  +8.03960198396170256 a3_x6
  +34.57098216458418705 a3_z1
  +17.01923611963366056 a3_z2
  +9.65762920804675851 a4_x1
  +1.01038921150930694 a4_x2
  +8.26245311728527554 a4_x3
  +1.87174926104206407 a4_x4
  +5.72310336143512366 a4_x5
  +2.03823444273170651 a4_x6
  +33.41705432517787955 a4_z1
  +11.21145989114648600 a4_z2
  +1000000.00000000000000000 short_1
  +1000000.00000000000000000 surp_1
  +1000000.00000000000000000 short_2
  +1000000.00000000000000000 surp_2
  +1000000.00000000000000000 short_3
  +1000000.00000000000000000 surp_3

s.t.

a1_local_1: 
+0.78148208496250937 a1_x3
+0.33201208048706410 a1_x6
+0.52825536371465343 a1_x4
<= 62.059019

a1_local_2: 
+0.82850689794525345 a1_x4
+0.45899830670512559 a1_x6
+0.32077542689389565 a1_x2
<= 91.172631

a1_local_3: 
+0.48859375753669404 a1_x6
+0.82628488203111994 a1_x4
+0.43185242516596495 a1_x1
<= 110.892362

a1_local_4: 
+0.51721050820825076 a1_x2
+0.61058510634536689 a1_x5
+0.59973253881057687 a1_x3
<= 116.602103

a1_local_5: 
+0.78788977519871028 a1_x1
+0.35732272634753814 a1_x4
+0.50154777576307563 a1_x2
<= 112.712521

a1_local_6: 
+0.65598510136492894 a1_x1
+0.67245144267999746 a1_x3
+0.34277194171173625 a1_x6
<= 104.329587

a1_local_7: 
+0.43751232582857641 a1_x2
+0.70564966142939822 a1_x5
+0.55735224057380928 a1_x4
<= 94.597838

a1_local_8: 
+0.51093370724646547 a1_x4
+0.79654162038621490 a1_x5
+0.32321539844488506 a1_x6
<= 84.492688

a1_act_1: 
+0.00999950003749688 a1_x1
-0.99995000374968745 a1_z1
<= 0.000000

a1_act_2: 
+0.01995741996324700 a1_x2
-1.99574199632470006 a1_z2
<= 0.000000

a2_local_1: 
+0.38210255802832649 a2_x4
+0.72087130775669550 a2_x2
+0.57822330703748126 a2_x6
<= 97.014553

a2_local_2: 
+0.52120176967801157 a2_x1
+0.71917277819711223 a2_x4
+0.45949889051526155 a2_x5
<= 109.188042

a2_local_3: 
+0.52461682870637982 a2_x4
+0.38778363135704452 a2_x5
+0.75789249784491519 a2_x3
<= 106.708416

a2_local_4: 
+0.64829000143276161 a2_x2
+0.43879281768829254 a2_x1
+0.62223864970562437 a2_x5
<= 78.142519

a2_local_5: 
+0.60093396416614830 a2_x2
+0.37891042526939894 a2_x3
+0.70377926961066539 a2_x6
<= 94.924375

a2_local_6: 
+0.59465521118310682 a2_x6
+0.42678360136503862 a2_x5
+0.68135228583946383 a2_x2
<= 94.872890

a2_local_7: 
+0.70956674119344976 a2_x2
+0.48423736588227240 a2_x5
+0.51188789131557511 a2_x6
<= 113.728417

a2_local_8: 
+0.67651343220211602 a2_x2
+0.55603899934845002 a2_x4
+0.48285630083254327 a2_x5
<= 113.909435

a2_act_1: 
+0.00999950003749688 a2_x1
-0.99995000374968757 a2_z1
<= 0.000000

a2_act_2: 
+0.00999950003749687 a2_x2
-0.99995000374968734 a2_z2
<= 0.000000

a3_local_1: 
+0.49468250114607065 a3_x1
+0.41145761448933238 a3_x2
+0.76550104803234320 a3_x6
<= 75.497629

a3_local_2: 
+0.46662846550291315 a3_x2
+0.38557347806034403 a3_x1
+0.79598427635151570 a3_x6
<= 70.957978

a3_local_3: 
+0.49835127935034823 a3_x1
+0.38496605246954752 a3_x5
+0.77681860225916632 a3_x2
<= 85.990269

a3_local_4: 
+0.23580221202909221 a3_x4
+0.35878556860106842 a3_x6
+0.33782014686590256 a3_x5
<= 59.872515

a3_local_5: 
+0.49336283095547812 a3_x4
+0.72460937963388772 a3_x1
+0.48118017828895326 a3_x5
<= 55.296011

a3_local_6: 
+0.81750235473186939 a3_x5
+0.46365413463435984 a3_x6
+0.42074342360518546 a3_x1
<= 100.302018

a3_local_7: 
+0.43560991750471073 a3_x6
+0.53775688136088995 a3_x1
+0.62082946650195203 a3_x4
<= 100.006227

a3_local_8: 
+0.54881279298141450 a3_x3
+0.70419164456558436 a3_x1
+0.45046492203495359 a3_x6
<= 69.389881

a3_act_1: 
+0.00999950003749688 a3_x1
-0.99995000374968757 a3_z1
<= 0.000000

a3_act_2: 
+0.01134128736694763 a3_x2
-1.13412873669476344 a3_z2
<= 0.000000

a4_local_1: 
+0.51419106913609913 a4_x3
+0.49951346644504335 a4_x2
+0.69720430381684517 a4_x5
<= 101.950278

a4_local_2: 
+0.31264890934173262 a4_x2
+0.61642671719781406 a4_x5
+0.72268164623999642 a4_x3
<= 114.278486

a4_local_3: 
+0.83160858398989945 a4_x4
+0.38857517482686521 a4_x5
+0.39678268175738912 a4_x2
<= 54.811034

a4_local_4: 
+0.60294574131329637 a4_x5
+0.61426306685376220 a4_x3
+0.50905531893063427 a4_x1
<= 57.122532

a4_local_5: 
+0.50491806736059985 a4_x5
+0.77040214169723142 a4_x6
+0.38927918685842394 a4_x1
<= 89.357969

a4_local_6: 
+1.25343178264654709 a4_x3
+0.56654212028762641 a4_x2
+0.72623509368208827 a4_x1
<= 124.882903

a4_local_7: 
+0.42261030873506078 a4_x1
+0.37320564837512732 a4_x2
+0.82590439578183461 a4_x3
<= 99.069870

a4_local_8: 
+0.85284962493565220 a4_x3
+0.60951968164634351 a4_x1
+0.93887249433595621 a4_x4
<= 138.014681

a4_act_1: 
+0.00999950003749688 a4_x1
-0.99995000374968745 a4_z1
<= 0.000000

a4_act_2: 
+0.00999950003749687 a4_x2
-0.99995000374968734 a4_z2
<= 0.000000

coupling_1: 
+0.01636237707666948 a1_x1
+0.09747919088740756 a2_x1
+0.45767203483301083 a3_x1
+0.85949956168756547 a4_x1
+0.14496015306116275 short_1
-0.14496015306116275 surp_1
= 80.921025

coupling_2: 
+0.00842417855685579 a1_x2
+0.03579559351242410 a2_x2
+0.13596129200534482 a3_x2
+0.97899479447997573 a4_x2
+0.10423873598159902 short_2
-0.10423873598159902 surp_2
= 63.666886

coupling_3: 
+0.00900284770829140 a1_x3
+0.02783167306223261 a2_x3
+0.18491596217288811 a3_x3
+0.96922382517327266 a4_x3
+0.11303895425441331 short_3
-0.11303895425441331 surp_3
= 25.988392

bounds
  0.000000 <= a1_x1 <= 100.000000
  0.000000 <= a1_x2 <= 100.000000
  0.000000 <= a1_x3 <= 100.000000
  0.000000 <= a1_x4 <= 100.000000
  0.000000 <= a1_x5 <= 100.000000
  0.000000 <= a1_x6 <= 100.000000
  0.000000 <= a2_x1 <= 100.000000
  0.000000 <= a2_x2 <= 100.000000
  0.000000 <= a2_x3 <= 100.000000
  0.000000 <= a2_x4 <= 100.000000
  0.000000 <= a2_x5 <= 100.000000
  0.000000 <= a2_x6 <= 100.000000
  0.000000 <= a3_x1 <= 100.000000
  0.000000 <= a3_x2 <= 100.000000
  0.000000 <= a3_x3 <= 100.000000
  0.000000 <= a3_x4 <= 100.000000
  0.000000 <= a3_x5 <= 100.000000
  0.000000 <= a3_x6 <= 100.000000
  0.000000 <= a4_x1 <= 100.000000
  0.000000 <= a4_x2 <= 100.000000
  0.000000 <= a4_x3 <= 100.000000
  0.000000 <= a4_x4 <= 100.000000
  0.000000 <= a4_x5 <= 100.000000
  0.000000 <= a4_x6 <= 100.000000
  0.000000 <= short_1 <= +inf
  0.000000 <= surp_1 <= +inf
  0.000000 <= short_2 <= +inf
  0.000000 <= surp_2 <= +inf
  0.000000 <= short_3 <= +inf
  0.000000 <= surp_3 <= +inf
 0 <= a1_z1 <= 1
 0 <= a1_z2 <= 1
 0 <= a2_z1 <= 1
 0 <= a2_z2 <= 1
 0 <= a3_z1 <= 1
 0 <= a3_z2 <= 1
 0 <= a4_z1 <= 1
 0 <= a4_z2 <= 1

binary
  a1_z1
  a1_z2
  a2_z1
  a2_z2
  a3_z1
  a3_z2
  a4_z1
  a4_z2
end
