min
obj: 
  +9.92789069156587445 a1_x1
  +4.10293210566149646 a1_x2
  +3.32901181929639423 a1_x3
  +9.10176472428019245 a1_x4
  +1.02767819950250816 a1_x5
  +7.50152284301075145 a1_x6
  +48.47610588570461232 a1_z1
  +46.46239370281180214 a1_z2
  +3.18500776910177885 a2_x1
  +1.07942930179392071 a2_x2
  +3.49956447593909603 a2_x3
  +4.21239525423910788 a2_x4
  +5.82517656009187501 a2_x5
  +3.89342540667494053 a2_x6
  +48.49908581708631061 a2_z1
  +41.13663869847970034 a2_z2
  +2.67192419795283609 a3_x1
  +3.86821883222705321 a3_x2
  +5.91403436703844054 a3_x3
  +8.81180590098727734 a3_x4
  +5.97909561349352625 a3_x5
  +2.68685564033826729 a3_x6
  +5.18637677701330446 a3_z1
  +6.88066661844991856 a3_z2
  +1.28562252519206366 a4_x1
  +5.29948947704055140 a4_x2
  +9.02951063485292771 a4_x3
  +3.08226664425655672 a4_x4
  +2.19298535751718138 a4_x5
  +7.06762935071550480 a4_x6
  +41.57694264723444633 a4_z1
  +44.44096075316435446 a4_z2
  +1000000.00000000000000000 short_1
  +1000000.00000000000000000 surp_1
  +1000000.00000000000000000 short_2
  +1000000.00000000000000000 surp_2
  +1000000.00000000000000000 short_3
  +1000000.00000000000000000 surp_3

s.t.

a1_local_1: 
+0.02118512355755812 a1_x4
+0.02060324141973564 a1_x6
+0.01435043585518264 a1_x1
<= 2.238327

a1_local_2: 
+47.74904436755324610 a1_x6
+57.40704984273540390 a1_x5
+76.26184189230674804 a1_x4
<= 8091.069359

a1_local_3: 
+0.70888383895069862 a1_x3
+0.57337271729634609 a1_x1
+0.46742754996248337 a1_x6
<= 103.913646

a1_local_4: 
+0.04064034067091583 a1_x5
+0.04290106915259913 a1_x2
+0.02303271264957197 a1_x4
<= 4.492411

a1_local_5: 
+68.98961202616003163 a1_x4
+135.70092637664046720 a1_x2
+83.66577467549035418 a1_x5
<= 17197.831232

a1_local_6: 
+40.41711501839881748 a1_x3
+38.13491699041053806 a1_x4
+19.87639589650867222 a1_x1
<= 3790.212622

a1_local_7: 
+0.02816262071991515 a1_x1
+0.02101006624915115 a1_x2
+0.02418814415221300 a1_x5
<= 3.872531

a1_local_8: 
+17.77251430799174159 a1_x5
+19.23130013774985869 a1_x2
+13.79382466280864783 a1_x4
<= 2306.235978

a1_act_1: 
+0.01461655073259480 a1_x1
-1.46165507325948019 a1_z1
<= 0.000000

a1_act_2: 
+0.00310905117830472 a1_x2
-0.31090511783047209 a1_z2
<= 0.000000

a2_local_1: 
+0.69037705955911943 a2_x6
+0.42086762197054728 a2_x4
+0.99266000378354380 a2_x1
<= 139.438876

a2_local_2: 
+0.07404810344481354 a2_x2
+0.07150342696277705 a2_x1
+0.06384392850520829 a2_x4
<= 11.662496

a2_local_3: 
+0.24541258240957967 a2_x3
+0.25241132029749830 a2_x4
+0.12784472659622081 a2_x5
<= 43.479819

a2_local_4: 
+3.24727946100347298 a2_x4
+5.56542824736798725 a2_x3
+5.62699527633232144 a2_x2
<= 534.544055

a2_local_5: 
+3.55364532452485404 a2_x1
+2.34011347865102248 a2_x4
+3.76060756440778921 a2_x2
<= 419.053058

a2_local_6: 
+0.00037946792424772 a2_x3
+0.00078330252746555 a2_x5
+0.00059126863101782 a2_x1
<= 0.111300

a2_local_7: 
+0.00057904260278703 a2_x3
+0.00074391116653700 a2_x6
+0.00088865359044019 a2_x4
<= 0.145554

a2_local_8: 
+0.97849416338633921 a2_x1
+1.79075639443060997 a2_x6
+1.69111676946478351 a2_x5
<= 261.917992

a2_act_1: 
+0.03055911671441862 a2_x1
-3.05591167144186171 a2_z1
<= 0.000000

a2_act_2: 
+140.83022265586751587 a2_x2
-14083.02226558675101842 a2_z2
<= 0.000000

a3_local_1: 
+488.06663823275295044 a3_x1
+432.10270265722607519 a3_x4
+207.09442723610857229 a3_x2
<= 43411.332424

a3_local_2: 
+22.25927961222626550 a3_x6
+40.19264209824990530 a3_x4
+34.40233782036030874 a3_x1
<= 3768.744247

a3_local_3: 
+1723.55838313680533247 a3_x2
+1058.49342525909105461 a3_x3
+884.10648459979029212 a3_x5
<= 191791.856669

a3_local_4: 
+0.11365729570485303 a3_x5
+0.20478931449218565 a3_x1
+0.16916528295393793 a3_x6
<= 21.809355

a3_local_5: 
+1302.95594885725677159 a3_x6
+908.01160439029047211 a3_x3
+1686.03916698640182403 a3_x1
<= 148424.890284

a3_local_6: 
+0.00394282641097780 a3_x2
+0.00484759672248799 a3_x6
+0.00411879885156448 a3_x4
<= 0.532575

a3_local_7: 
+0.07823004777150910 a3_x2
+0.03691332512042715 a3_x5
+0.08312050517642354 a3_x4
<= 10.521060

a3_local_8: 
+8.84078531695878134 a3_x2
+9.51854959312279014 a3_x1
+6.18785679178720915 a3_x5
<= 1525.161771

a3_act_1: 
+28.74022875154125600 a3_x1
-2874.02287515412581342 a3_z1
<= 0.000000

a3_act_2: 
+0.00917602504732128 a3_x2
-0.91760250473212812 a3_z2
<= 0.000000

a4_local_1: 
+258.91800013379292977 a4_x2
+116.21640283563898777 a4_x6
+250.49819226133840289 a4_x5
<= 41130.303484

a4_local_2: 
+974.14269108838084321 a4_x3
+2468.20076773671689807 a4_x5
+1992.75745861092514133 a4_x1
<= 312914.776523

a4_local_3: 
+7.36345128299014373 a4_x4
+10.55541108547143025 a4_x3
+9.22382181264602785 a4_x6
<= 1666.163662

a4_local_4: 
+2.62525278187379074 a4_x5
+1.71861988904268603 a4_x1
+1.72942363787911813 a4_x4
<= 292.874496

a4_local_5: 
+83.93429729986253562 a4_x5
+150.55463977137114284 a4_x6
+80.14863820857048893 a4_x1
<= 19374.431401

a4_local_6: 
+149.70168452834096229 a4_x4
+149.67337076417899766 a4_x3
+129.27207581658512936 a4_x2
<= 17895.112854

a4_local_7: 
+0.43253235109329508 a4_x3
+0.69034989769600030 a4_x6
+0.33229231326538450 a4_x1
<= 88.482648

a4_local_8: 
+8986.20278479552507633 a4_x3
+9314.78917596800965839 a4_x2
+10075.75346803772117710 a4_x6
<= 1078703.386449

a4_act_1: 
+0.39517173651570631 a4_x1
-39.51717365157063000 a4_z1
<= 0.000000

a4_act_2: 
+881.82468353754609325 a4_x2
-88182.46835375460796058 a4_z2
<= 0.000000

coupling_1: 
+0.00042819225305530 a1_x1
+0.00255391768663695 a2_x1
+0.01056523660264064 a3_x1
+0.05059063546465208 a4_x1
+0.00440435657054093 short_1
-0.00440435657054093 surp_1
= 1.872461

coupling_2: 
+27.82206972531321654 a1_x2
+99.15110042750822572 a2_x2
+1069.70760603022267787 a3_x2
+2137.66635720761905759 a4_x2
+387.83572281574470253 short_2
-387.83572281574470253 surp_2
= 187465.641634

coupling_3: 
+0.29601225665352876 a1_x3
+1.02378181708210647 a2_x3
+8.23691414792030763 a3_x3
+55.09557916377097797 a4_x3
+3.81676980171949998 short_3
-3.81676980171949998 surp_3
= 2292.940145

bounds
  0.000000 <= a1_x1 <= 100.000000
  0.000000 <= a1_x2 <= 100.000000
  0.000000 <= a1_x3 <= 100.000000
  0.000000 <= a1_x4 <= 100.000000
  0.000000 <= a1_x5 <= 100.000000
  0.000000 <= a1_x6 <= 100.000000
  0.000000 <= a2_x1 <= 100.000000
  0.000000 <= a2_x2 <= 100.000000
  0.000000 <= a2_x3 <= 100.000000
  0.000000 <= a2_x4 <= 100.000000
  0.000000 <= a2_x5 <= 100.000000
  0.000000 <= a2_x6 <= 100.000000
  0.000000 <= a3_x1 <= 100.000000
  0.000000 <= a3_x2 <= 100.000000
  0.000000 <= a3_x3 <= 100.000000
  0.000000 <= a3_x4 <= 100.000000
  0.000000 <= a3_x5 <= 100.000000
  0.000000 <= a3_x6 <= 100.000000
  0.000000 <= a4_x1 <= 100.000000
  0.000000 <= a4_x2 <= 100.000000
  0.000000 <= a4_x3 <= 100.000000
  0.000000 <= a4_x4 <= 100.000000
  0.000000 <= a4_x5 <= 100.000000
  0.000000 <= a4_x6 <= 100.000000
  0.000000 <= short_1 <= +inf
  0.000000 <= surp_1 <= +inf
  0.000000 <= short_2 <= +inf
  0.000000 <= surp_2 <= +inf
  0.000000 <= short_3 <= +inf
  0.000000 <= surp_3 <= +inf
 0 <= a1_z1 <= 1
 0 <= a1_z2 <= 1
 0 <= a2_z1 <= 1
 0 <= a2_z2 <= 1
 0 <= a3_z1 <= 1
 0 <= a3_z2 <= 1
 0 <= a4_z1 <= 1
 0 <= a4_z2 <= 1

binary
  a1_z1
  a1_z2
  a2_z1
  a2_z2
  a3_z1
  a3_z2
  a4_z1
  a4_z2
end
