min
obj: 
  +2.37029411872895501 a1_x1
  +4.08711411622905185 a1_x2
  +7.66136637275760890 a1_x3
  +4.89991689432673461 a1_x4
  +9.18560754331382867 a1_x5
  +7.80552329567271030 a1_x6
  +17.43087311454965516 a1_z1
  +23.40237872614093462 a1_z2
  +7.76967499598976019 a2_x1
  +1.80336421538305247 a2_x2
  +9.57158160013941384 a2_x3
  +5.65827493894111466 a2_x4
  +2.44173723344263127 a2_x5
  +7.27299337053102857 a2_x6
  +31.32172731425238510 a2_z1
  +17.35876123031728824 a2_z2
  +2.34937597507828766 a3_x1
  +3.44404861330662637 a3_x2
  +8.97236298110027342 a3_x3
  +1.18282410761081147 a3_x4
  +8.94329086748358293 a3_x5
  +1.71905082189577563 a3_x6
  +16.00176469749968788 a3_z1
  +34.61198408971173990 a3_z2
  +6.56106695092732561 a4_x1
  +3.99053598556514322 a4_x2
  +4.10040873738996048 a4_x3
  +4.88744804784333908 a4_x4
  +2.91326732486744788 a4_x5
  +5.36841797601257653 a4_x6
  +43.70048480327027818 a4_z1
  +7.09598516541455737 a4_z2
  +1000000.00000000000000000 short_1
  +1000000.00000000000000000 surp_1
  +1000000.00000000000000000 short_2
  +1000000.00000000000000000 surp_2
  +1000000.00000000000000000 short_3
  +1000000.00000000000000000 surp_3

s.t.

a1_local_1: 
+103.72523503706267434 a1_x3
+74.54429063124044319 a1_x2
+41.44085674081547666 a1_x1
<= 15368.415857

a1_local_2: 
+0.00050520538762428 a1_x6
+0.00030041797797732 a1_x3
+0.00029553180635184 a1_x2
<= 0.034104

a1_local_3: 
+24.21877116105785532 a1_x4
+28.01436027142275620 a1_x3
+20.29317928249880865 a1_x6
<= 2232.264960

a1_local_4: 
+2.19090093711860678 a1_x5
+4.13734803709744625 a1_x3
+1.99141061290796229 a1_x6
<= 448.667978

a1_local_5: 
+2.81902319701920101 a1_x3
+2.13448024956148608 a1_x5
+1.13036801276039789 a1_x4
<= 368.781022

a1_local_6: 
+0.17740123501992808 a1_x3
+0.12800643599073130 a1_x1
+0.09730225884242763 a1_x6
<= 20.048278

a1_local_7: 
+0.34749955519298076 a1_x6
+0.40781257661203768 a1_x1
+0.39209655719358399 a1_x4
<= 52.810063

a1_local_8: 
+0.51533765988775582 a1_x3
+0.78497229301395333 a1_x2
+0.84097517278571188 a1_x4
<= 78.116086

a1_act_1: 
+10.81237922455757250 a1_x1
-1081.23792245575714333 a1_z1
<= 0.000000

a1_act_2: 
+170.48682286075174375 a1_x2
-17048.68228607517448836 a1_z2
<= 0.000000

a2_local_1: 
+2.55521689706669575 a2_x3
+2.98815300457118127 a2_x2
+1.48636069825123451 a2_x1
<= 445.226573

a2_local_2: 
+1.14699950930025629 a2_x6
+2.71215054411842083 a2_x2
+2.99707139986509086 a2_x1
<= 437.934029

a2_local_3: 
+0.07172211912641933 a2_x2
+0.11863921062786420 a2_x3
+0.06674094341201285 a2_x1
<= 14.346505

a2_local_4: 
+0.40404045289186746 a2_x1
+0.38741357742107907 a2_x4
+0.46038285349284325 a2_x5
<= 70.996009

a2_local_5: 
+0.83915717107068588 a2_x1
+1.26272454735601380 a2_x6
+1.13099364547175063 a2_x3
<= 100.048430

a2_local_6: 
+18.44957158852119505 a2_x1
+15.03926430620472310 a2_x6
+32.63801082731497871 a2_x2
<= 3224.380704

a2_local_7: 
+0.00269530274950348 a2_x3
+0.00242431945058967 a2_x2
+0.00320360644868291 a2_x4
<= 0.342288

a2_local_8: 
+0.74679405316670266 a2_x4
+0.38465126379202963 a2_x3
+0.65942431697088300 a2_x1
<= 108.257258

a2_act_1: 
+0.08103809945015665 a2_x1
-8.10380994501566576 a2_z1
<= 0.000000

a2_act_2: 
+182.88117749700691661 a2_x2
-18288.11774970069018309 a2_z2
<= 0.000000

a3_local_1: 
+19.64042226431243776 a3_x5
+13.19771041613624618 a3_x4
+34.73375916196732760 a3_x2
<= 3033.067956

a3_local_2: 
+1603.61237368195907038 a3_x4
+1159.73596243950260032 a3_x5
+1641.74949232295239199 a3_x3
<= 221736.914652

a3_local_3: 
+0.05176180388735761 a3_x4
+0.02740443604429657 a3_x3
+0.05973515298336516 a3_x6
<= 5.887896

a3_local_4: 
+113.20874642167184732 a3_x4
+119.28167277970560178 a3_x5
+145.47029661781255072 a3_x2
<= 20807.166863

a3_local_5: 
+0.00620647589394379 a3_x4
+0.00243685288050680 a3_x6
+0.00532839109193506 a3_x5
<= 0.574971

a3_local_6: 
+2.84746370996847897 a3_x1
+2.72879052720038473 a3_x5
+3.07526110373035788 a3_x3
<= 286.607496

a3_local_7: 
+0.09435043743354293 a3_x6
+0.07389616108497213 a3_x4
+0.12908448228596400 a3_x1
<= 11.209500

a3_local_8: 
+3.97683828129228178 a3_x4
+1.94325181654654244 a3_x2
+3.73394130228168608 a3_x1
<= 610.608987

a3_act_1: 
+61.65560158394689694 a3_x1
-6165.56015839469000639 a3_z1
<= 0.000000

a3_act_2: 
+0.08872073204282940 a3_x2
-8.87207320428294111 a3_z2
<= 0.000000

a4_local_1: 
+73.91592609777612211 a4_x5
+92.80022779995073279 a4_x2
+69.79347589664304508 a4_x1
<= 15823.754452

a4_local_2: 
+0.05653119286389469 a4_x4
+0.03100242673216869 a4_x2
+0.06454354050629936 a4_x6
<= 9.493374

a4_local_3: 
+40.68020939496986443 a4_x1
+29.04484694635554121 a4_x3
+30.71288139642412318 a4_x6
<= 4975.504970

a4_local_4: 
+100.78874785800613267 a4_x3
+132.87539305858007310 a4_x4
+108.56346131249934217 a4_x1
<= 20658.802779

a4_local_5: 
+0.83781821072257689 a4_x6
+0.86554597978936465 a4_x3
+0.45795776923687026 a4_x4
<= 103.385795

a4_local_6: 
+1.89915935437572836 a4_x5
+4.06767923105350437 a4_x4
+2.02080849586614386 a4_x2
<= 447.298668

a4_local_7: 
+2668.42003655152393549 a4_x6
+1935.27081616709961054 a4_x2
+2077.84710562244163157 a4_x4
<= 452203.643212

a4_local_8: 
+11.64581934249200224 a4_x6
+19.15189652274771248 a4_x2
+18.80713790682009545 a4_x1
<= 1792.648302

a4_act_1: 
+0.00475839882370791 a4_x1
-0.47583988237079106 a4_z1
<= 0.000000

a4_act_2: 
+626.43919859465370337 a4_x2
-62643.91985946537170094 a4_z2
<= 0.000000

coupling_1: 
+0.00197910812583420 a1_x1
+0.01490953645019103 a2_x1
+0.06047213334664769 a3_x1
+0.31248842378674624 a4_x1
+0.02319475369751118 short_1
-0.02319475369751118 surp_1
= 8.161428

coupling_2: 
+0.31550376595250301 a1_x2
+2.13275938102286045 a2_x2
+8.49054446661072504 a3_x2
+42.55337822661123681 a4_x2
+3.28714684373095434 short_2
-3.28714684373095434 surp_2
= 4201.123875

coupling_3: 
+0.00069017895194493 a1_x3
+0.00343844763599840 a2_x3
+0.03218954389378288 a3_x3
+0.13493310866510441 a4_x3
+0.01139437966651014 short_3
-0.01139437966651014 surp_3
= 9.519987

bounds
  0.000000 <= a1_x1 <= 100.000000
  0.000000 <= a1_x2 <= 100.000000
  0.000000 <= a1_x3 <= 100.000000
  0.000000 <= a1_x4 <= 100.000000
  0.000000 <= a1_x5 <= 100.000000
  0.000000 <= a1_x6 <= 100.000000
  0.000000 <= a2_x1 <= 100.000000
  0.000000 <= a2_x2 <= 100.000000
  0.000000 <= a2_x3 <= 100.000000
  0.000000 <= a2_x4 <= 100.000000
  0.000000 <= a2_x5 <= 100.000000
  0.000000 <= a2_x6 <= 100.000000
  0.000000 <= a3_x1 <= 100.000000
  0.000000 <= a3_x2 <= 100.000000
  0.000000 <= a3_x3 <= 100.000000
  0.000000 <= a3_x4 <= 100.000000
  0.000000 <= a3_x5 <= 100.000000
  0.000000 <= a3_x6 <= 100.000000
  0.000000 <= a4_x1 <= 100.000000
  0.000000 <= a4_x2 <= 100.000000
  0.000000 <= a4_x3 <= 100.000000
  0.000000 <= a4_x4 <= 100.000000
  0.000000 <= a4_x5 <= 100.000000
  0.000000 <= a4_x6 <= 100.000000
  0.000000 <= short_1 <= +inf
  0.000000 <= surp_1 <= +inf
  0.000000 <= short_2 <= +inf
  0.000000 <= surp_2 <= +inf
  0.000000 <= short_3 <= +inf
  0.000000 <= surp_3 <= +inf
 0 <= a1_z1 <= 1
 0 <= a1_z2 <= 1
 0 <= a2_z1 <= 1
 0 <= a2_z2 <= 1
 0 <= a3_z1 <= 1
 0 <= a3_z2 <= 1
 0 <= a4_z1 <= 1
 0 <= a4_z2 <= 1

binary
  a1_z1
  a1_z2
  a2_z1
  a2_z2
  a3_z1
  a3_z2
  a4_z1
  a4_z2
end
