min
obj: 
  +4.00927114806491947 a1_x1
  +1.96797315584533505 a1_x2
  +5.12450639908132288 a1_x3
  +5.32896604620880687 a1_x4
  +7.73264361972508052 a1_x5
  +5.13954220661915251 a1_x6
  +7.46013036925632012 a1_z1
  +49.87266735161764331 a1_z2
  +9.36843435344059650 a2_x1
  +1.05737072364449292 a2_x2
  +6.60719118774421155 a2_x3
  +2.15746424177711438 a2_x4
  +4.02884955809363987 a2_x5
  +6.58160214482754569 a2_x6
  +37.18631761224219190 a2_z1
  +14.56992703067312611 a2_z2
  +7.57718464422320714 a3_x1
  +6.32546719961394732 a3_x2
  +1.31829467185166682 a3_x3
  +2.45084274434978422 a3_x4
  +7.58215052014305346 a3_x5
  +8.03960198396170256 a3_x6
  +34.57098216458418705 a3_z1
  +17.01923611963366056 a3_z2
  +9.65762920804675851 a4_x1
  +1.01038921150930694 a4_x2
  +8.26245311728527554 a4_x3
  +1.87174926104206407 a4_x4
  +5.72310336143512366 a4_x5
  +2.03823444273170651 a4_x6
  +33.41705432517787955 a4_z1
  +11.21145989114648600 a4_z2
  +1000000.00000000000000000 short_1
  +1000000.00000000000000000 surp_1
  +1000000.00000000000000000 short_2
  +1000000.00000000000000000 surp_2
  +1000000.00000000000000000 short_3
  +1000000.00000000000000000 surp_3

s.t.

a1_local_1: 
+81.48486500663969423 a1_x3
+34.61878407661755830 a1_x6
+55.08100291689591899 a1_x4
<= 6470.872303

a1_local_2: 
+0.01639058686948838 a1_x4
+0.00908049364182307 a1_x6
+0.00634599122003814 a1_x2
<= 1.803694

a1_local_3: 
+0.48859375753669404 a1_x6
+0.82628488203111994 a1_x4
+0.43185242516596495 a1_x1
<= 110.892362

a1_local_4: 
+53.66517178423747225 a1_x2
+63.35361347246174546 a1_x5
+62.22756345643994536 a1_x3
<= 12098.501045

a1_local_5: 
+8.63212351408812850 a1_x1
+3.91482921255672478 a1_x4
+5.49495942819049787 a1_x2
<= 1234.878831

a1_local_6: 
+0.00828803553863428 a1_x1
+0.00849607932152905 a1_x3
+0.00433074779997653 a1_x6
<= 1.318151

a1_local_7: 
+70.07678163928098058 a1_x2
+113.02460369355532066 a1_x5
+89.27165922671194664 a1_x4
<= 15151.829192

a1_local_8: 
+0.02720573407102262 a1_x4
+0.04241352487295450 a1_x5
+0.01721028002857800 a1_x6
<= 4.498990

a1_act_1: 
+31.82797924072702855 a1_x1
-3182.79792407270269905 a1_z1
<= 0.000000

a1_act_2: 
+0.01995741996324700 a1_x2
-1.99574199632470006 a1_z2
<= 0.000000

a2_local_1: 
+0.01262230389328829 a2_x4
+0.02381312692960987 a2_x2
+0.01910091975638689 a2_x6
<= 3.204760

a2_local_2: 
+4.41002162334850745 a2_x1
+6.08510501553403937 a2_x4
+3.88793776415767534 a2_x5
<= 923.867981

a2_local_3: 
+0.18582230460149926 a2_x4
+0.13735519739843208 a2_x5
+0.26844989120345442 a2_x3
<= 37.796736

a2_local_4: 
+0.01006108869869790 a2_x2
+0.00680981266000810 a2_x1
+0.00965678667357267 a2_x5
<= 1.212727

a2_local_5: 
+0.16220240327531751 a2_x2
+0.10227443491241307 a2_x3
+0.18996211849100225 a2_x6
<= 25.621720

a2_local_6: 
+78.88491961338641545 a2_x6
+56.61564794666519873 a2_x5
+90.38585601546661508 a2_x2
<= 12585.511947

a2_local_7: 
+2.29346941725195252 a2_x2
+1.56515733456404549 a2_x5
+1.65452966667978951 a2_x6
<= 367.594240

a2_local_8: 
+286.18062466685250911 a2_x2
+235.21718948683027861 a2_x4
+204.25923746521979751 a2_x5
<= 48186.291210

a2_act_1: 
+71.80250231758512314 a2_x1
-7180.25023175851220003 a2_z1
<= 0.000000

a2_act_2: 
+822.12451377479601433 a2_x2
-82212.45137747960689012 a2_z2
<= 0.000000

a3_local_1: 
+20.72609761569400533 a3_x1
+17.23915979010617860 a3_x2
+32.07279297261722917 a3_x6
<= 3163.182886

a3_local_2: 
+0.03705438395825086 a3_x2
+0.03061790858551258 a3_x1
+0.06320811776639329 a3_x6
<= 5.634684

a3_local_3: 
+1.71107277815043335 a3_x1
+1.32176831922928595 a3_x5
+2.66718120121868107 a3_x2
<= 295.244770

a3_local_4: 
+0.23580221202909221 a3_x4
+0.35878556860106842 a3_x6
+0.33782014686590256 a3_x5
<= 59.872515

a3_local_5: 
+0.06663177996239640 a3_x4
+0.09786309327143215 a3_x1
+0.06498643543925489 a3_x5
<= 7.468077

a3_local_6: 
+0.81750235473186939 a3_x5
+0.46365413463435984 a3_x6
+0.42074342360518546 a3_x1
<= 100.302018

a3_local_7: 
+0.43560991750471073 a3_x6
+0.53775688136088995 a3_x1
+0.62082946650195203 a3_x4
<= 100.006227

a3_local_8: 
+0.09269762022071219 a3_x3
+0.11894199709872631 a3_x1
+0.07608610221839883 a3_x6
<= 11.720348

a3_act_1: 
+828.65138942756584584 a3_x1
-82865.13894275658822153 a3_z1
<= 0.000000

a3_act_2: 
+0.01134128736694763 a3_x2
-1.13412873669476344 a3_z2
<= 0.000000

a4_local_1: 
+134.00991066241272165 a4_x3
+130.18459290908910475 a4_x2
+181.70733036052570242 a4_x5
<= 26570.565762

a4_local_2: 
+7.46627390263273849 a4_x2
+14.72069971774335251 a4_x5
+17.25814149358084038 a4_x3
<= 2729.049921

a4_local_3: 
+3.72247388965718917 a4_x4
+1.73935306863012329 a4_x5
+1.77609178301600901 a4_x2
<= 245.346967

a4_local_4: 
+2853.83666874717664541 a4_x5
+2907.40334383336539759 a4_x3
+2409.43858799089639433 a4_x1
<= 270369.896019

a4_local_5: 
+4576.73313478198906523 a4_x5
+6983.16268903604304796 a4_x6
+3528.54664617011030714 a4_x1
<= 809968.200231

a4_local_6: 
+1.25343178264654709 a4_x3
+0.56654212028762641 a4_x2
+0.72623509368208827 a4_x1
<= 124.882903

a4_local_7: 
+0.00859903135666026 a4_x1
+0.00759377375924905 a4_x2
+0.01680502735058423 a4_x3
<= 2.015817

a4_local_8: 
+0.85284962493565220 a4_x3
+0.60951968164634351 a4_x1
+0.93887249433595621 a4_x4
<= 138.014681

a4_act_1: 
+0.04294512529263800 a4_x1
-4.29451252926380000 a4_z1
<= 0.000000

a4_act_2: 
+267.49153779604318970 a4_x2
-26749.15377960431942483 a4_z2
<= 0.000000

coupling_1: 
+0.09194216057095966 a1_x1
+0.54774727283827740 a2_x1
+2.57171409253573247 a3_x1
+4.82963119240329686 a4_x1
+0.81454849785512862 short_1
-0.81454849785512862 surp_1
= 454.704953

coupling_2: 
+0.00034163807279637 a1_x2
+0.00145167122226229 a2_x2
+0.00551383775428266 a3_x2
+0.03970261226141985 a4_x2
+0.00422734639717493 short_2
-0.00422734639717493 surp_2
= 2.581977

coupling_3: 
+0.00086944316549703 a1_x3
+0.00268782264371973 a2_x3
+0.01785811831010491 a3_x3
+0.09360205325451601 a4_x3
+0.01091665097488172 short_3
-0.01091665097488172 surp_3
= 2.509809

bounds
  0.000000 <= a1_x1 <= 100.000000
  0.000000 <= a1_x2 <= 100.000000
  0.000000 <= a1_x3 <= 100.000000
  0.000000 <= a1_x4 <= 100.000000
  0.000000 <= a1_x5 <= 100.000000
  0.000000 <= a1_x6 <= 100.000000
  0.000000 <= a2_x1 <= 100.000000
  0.000000 <= a2_x2 <= 100.000000
  0.000000 <= a2_x3 <= 100.000000
  0.000000 <= a2_x4 <= 100.000000
  0.000000 <= a2_x5 <= 100.000000
  0.000000 <= a2_x6 <= 100.000000
  0.000000 <= a3_x1 <= 100.000000
  0.000000 <= a3_x2 <= 100.000000
  0.000000 <= a3_x3 <= 100.000000
  0.000000 <= a3_x4 <= 100.000000
  0.000000 <= a3_x5 <= 100.000000
  0.000000 <= a3_x6 <= 100.000000
  0.000000 <= a4_x1 <= 100.000000
  0.000000 <= a4_x2 <= 100.000000
  0.000000 <= a4_x3 <= 100.000000
  0.000000 <= a4_x4 <= 100.000000
  0.000000 <= a4_x5 <= 100.000000
  0.000000 <= a4_x6 <= 100.000000
  0.000000 <= short_1 <= +inf
  0.000000 <= surp_1 <= +inf
  0.000000 <= short_2 <= +inf
  0.000000 <= surp_2 <= +inf
  0.000000 <= short_3 <= +inf
  0.000000 <= surp_3 <= +inf
 0 <= a1_z1 <= 1
 0 <= a1_z2 <= 1
 0 <= a2_z1 <= 1
 0 <= a2_z2 <= 1
 0 <= a3_z1 <= 1
 0 <= a3_z2 <= 1
 0 <= a4_z1 <= 1
 0 <= a4_z2 <= 1

binary
  a1_z1
  a1_z2
  a2_z1
  a2_z2
  a3_z1
  a3_z2
  a4_z1
  a4_z2
end
