min
obj: 
  +2.86702301288668870 a1_x1
  +4.61217347674817457 a1_x2
  +8.37266539443051627 a1_x3
  +3.88741117842564377 a1_x4
  +3.57352147071314707 a1_x5
  +7.90632682258909369 a1_x6
  +32.52167325628295202 a1_z1
  +46.95512094955829951 a1_z2
  +1.34162249297538905 a2_x1
  +5.04177078463243156 a2_x2
  +1.10989142532268992 a2_x3
  +7.53499127677043390 a2_x4
  +4.74514201764349153 a2_x5
  +4.92271964690250208 a2_x6
  +7.37175972020868908 a2_z1
  +32.23919956008293042 a2_z2
  +7.19883337190115391 a3_x1
  +9.69659328832065093 a3_x2
  +2.68145044350852224 a3_x3
  +4.74181989860472974 a3_x4
  +5.40392510460596665 a3_x5
  +9.85025370993833427 a3_x6
  +17.99205279831755888 a3_z1
  +28.73085531973273987 a3_z2
  +5.38171902546503311 a4_x1
  +3.72975403904797487 a4_x2
  +6.65779047476273789 a4_x3
  +5.43042814174023825 a4_x4
  +9.71759449267787367 a4_x5
  +8.04794548671517163 a4_x6
  +7.84716545501873153 a4_z1
  +24.37447779336789466 a4_z2
  +1000000.00000000000000000 short_1
  +1000000.00000000000000000 surp_1
  +1000000.00000000000000000 short_2
  +1000000.00000000000000000 surp_2
  +1000000.00000000000000000 short_3
  +1000000.00000000000000000 surp_3

s.t.

a1_local_1: 
+0.39177291867941216 a1_x3
+0.68779036958806894 a1_x1
+0.61111241821069417 a1_x2
<= 101.678160

a1_local_2: 
+0.69990565180277409 a1_x4
+0.52567338781966100 a1_x6
+0.48352824934302863 a1_x2
<= 64.041070

a1_local_3: 
+0.82400514536899061 a1_x3
+0.38774036231119735 a1_x4
+0.41312580631111634 a1_x1
<= 106.038534

a1_local_4: 
+0.35648094899768945 a1_x3
+0.32432080677983677 a1_x6
+0.87620622417977745 a1_x1
<= 85.315957

a1_local_5: 
+0.45020744170615418 a1_x5
+0.65088451194159846 a1_x1
+0.61127948726171633 a1_x3
<= 87.333350

a1_local_6: 
+0.67266321542671093 a1_x6
+0.54251822390678728 a1_x3
+0.50318801192081619 a1_x1
<= 78.514809

a1_local_7: 
+0.47534886136480364 a1_x4
+0.64944927450574919 a1_x3
+0.59351419514881065 a1_x6
<= 59.497141

a1_local_8: 
+0.53750857770776128 a1_x6
+0.66337929965646758 a1_x3
+0.52058854547317357 a1_x2
<= 63.282210

a1_act_1: 
+0.00999950003749688 a1_x1
-0.99995000374968757 a1_z1
<= 0.000000

a1_act_2: 
+0.00999950003749688 a1_x2
-0.99995000374968745 a1_z2
<= 0.000000

a2_local_1: 
+0.44305386190229840 a2_x3
+0.68979331370255892 a2_x1
+0.57261545545392156 a2_x4
<= 77.099358

a2_local_2: 
+0.72215275482148855 a2_x3
+0.45193598290534315 a2_x4
+0.52368813816919357 a2_x1
<= 110.464929

a2_local_3: 
+0.39597494269970185 a2_x2
+0.55180053242489535 a2_x5
+0.73397548812584323 a2_x6
<= 102.824326

a2_local_4: 
+1.33025466767426170 a2_x3
+1.17130007580763973 a2_x4
+0.91605006935527078 a2_x2
<= 205.663903

a2_local_5: 
+0.38161231068386592 a2_x3
+0.58430848675053237 a2_x5
+0.71620921290208461 a2_x6
<= 105.250265

a2_local_6: 
+0.35439116549475286 a2_x2
+0.82522019450083373 a2_x5
+0.43979373848120740 a2_x1
<= 108.759828

a2_local_7: 
+0.46293115892475650 a2_x6
+0.73408645613147783 a2_x2
+0.49680158717631906 a2_x5
<= 82.501523

a2_local_8: 
+0.52248322477444342 a2_x2
+0.70087229114775895 a2_x4
+0.48558141575907671 a2_x6
<= 111.891040

a2_act_1: 
+0.01261907309766582 a2_x1
-1.26190730976658205 a2_z1
<= 0.000000

a2_act_2: 
+0.00999950003749688 a2_x2
-0.99995000374968757 a2_z2
<= 0.000000

a3_local_1: 
+0.40326220890881026 a3_x6
+0.55297383011299905 a3_x2
+0.40589431036431994 a3_x1
<= 69.769063

a3_local_2: 
+0.68894482039042559 a3_x3
+0.47270409627566023 a3_x1
+0.54945961800792564 a3_x4
<= 98.645513

a3_local_3: 
+0.57222014825871059 a3_x4
+0.46253952721860947 a3_x1
+0.67721583537832641 a3_x6
<= 99.771505

a3_local_4: 
+0.63053091360848323 a3_x1
+0.63476985121754981 a3_x3
+0.44665199313257420 a3_x5
<= 62.796875

a3_local_5: 
+0.27427507782991190 a3_x5
+0.58225944812390873 a3_x4
+0.76534117669954016 a3_x6
<= 69.977790

a3_local_6: 
+0.38877618047460100 a3_x2
+0.64256106274845282 a3_x3
+0.66027900325177646 a3_x6
<= 90.443703

a3_local_7: 
+0.60103170143918050 a3_x4
+0.34838572651871602 a3_x1
+0.71929707313678815 a3_x2
<= 89.617493

a3_local_8: 
+0.75283736148377689 a3_x2
+0.35442509053748988 a3_x1
+0.55463389938917085 a3_x5
<= 54.388548

a3_act_1: 
+0.00999950003749688 a3_x1
-0.99995000374968745 a3_z1
<= 0.000000

a3_act_2: 
+0.00547632037561417 a3_x2
-0.54763203756141676 a3_z2
<= 0.000000

a4_local_1: 
+0.40835286714628022 a4_x1
+0.72992350926589189 a4_x4
+0.54814195835967328 a4_x3
<= 67.581942

a4_local_2: 
+0.69402579243393325 a4_x1
+0.50114580983945267 a4_x6
+0.51689561491350478 a4_x3
<= 80.323080

a4_local_3: 
+0.52048023159280377 a4_x2
+0.32825225740575220 a4_x5
+0.71123856647376904 a4_x1
<= 88.905381

a4_local_4: 
+0.47799834974959449 a4_x5
+0.49395149325235732 a4_x4
+0.72631226063617504 a4_x3
<= 73.408486

a4_local_5: 
+0.33950806613546908 a4_x1
+0.61535113133073882 a4_x4
+0.71139107261683698 a4_x2
<= 67.470942

a4_local_6: 
+0.59398797369782308 a4_x4
+0.70551761356461118 a4_x2
+0.38655295116251548 a4_x6
<= 85.923719

a4_local_7: 
+0.51319099488252173 a4_x2
+0.54773087930478404 a4_x1
+0.66077672978661683 a4_x3
<= 82.883960

a4_local_8: 
+0.61016323740756173 a4_x1
+0.38072125722768346 a4_x2
+0.69480367587635550 a4_x5
<= 109.849436

a4_act_1: 
+0.00999950003749688 a4_x1
-0.99995000374968745 a4_z1
<= 0.000000

a4_act_2: 
+0.00999950003749688 a4_x2
-0.99995000374968757 a4_z2
<= 0.000000

coupling_1: 
+0.01173061936382859 a1_x1
+0.04531930374918924 a2_x1
+0.20662342290308408 a3_x1
+0.97081019756959186 a4_x1
+0.07950746719564544 short_1
-0.07950746719564544 surp_1
= 30.902999

coupling_2: 
+0.00825624650750684 a1_x2
+0.04558361977670164 a2_x2
+0.29820729703621429 a3_x2
+0.93734959586164657 a4_x2
+0.12308962412409767 short_2
-0.12308962412409767 surp_2
= 29.257890

coupling_3: 
+0.02077474944427198 a1_x3
+0.09347753954727710 a2_x3
+0.32559051973447711 a3_x3
+0.91915774247333792 a4_x3
+0.14136869755371023 short_3
-0.14136869755371023 surp_3
= 27.981391

bounds
  0.000000 <= a1_x1 <= 100.000000
  0.000000 <= a1_x2 <= 100.000000
  0.000000 <= a1_x3 <= 100.000000
  0.000000 <= a1_x4 <= 100.000000
  0.000000 <= a1_x5 <= 100.000000
  0.000000 <= a1_x6 <= 100.000000
  0.000000 <= a2_x1 <= 100.000000
  0.000000 <= a2_x2 <= 100.000000
  0.000000 <= a2_x3 <= 100.000000
  0.000000 <= a2_x4 <= 100.000000
  0.000000 <= a2_x5 <= 100.000000
  0.000000 <= a2_x6 <= 100.000000
  0.000000 <= a3_x1 <= 100.000000
  0.000000 <= a3_x2 <= 100.000000
  0.000000 <= a3_x3 <= 100.000000
  0.000000 <= a3_x4 <= 100.000000
  0.000000 <= a3_x5 <= 100.000000
  0.000000 <= a3_x6 <= 100.000000
  0.000000 <= a4_x1 <= 100.000000
  0.000000 <= a4_x2 <= 100.000000
  0.000000 <= a4_x3 <= 100.000000
  0.000000 <= a4_x4 <= 100.000000
  0.000000 <= a4_x5 <= 100.000000
  0.000000 <= a4_x6 <= 100.000000
  0.000000 <= short_1 <= +inf
  0.000000 <= surp_1 <= +inf
  0.000000 <= short_2 <= +inf
  0.000000 <= surp_2 <= +inf
  0.000000 <= short_3 <= +inf
  0.000000 <= surp_3 <= +inf
 0 <= a1_z1 <= 1
 0 <= a1_z2 <= 1
 0 <= a2_z1 <= 1
 0 <= a2_z2 <= 1
 0 <= a3_z1 <= 1
 0 <= a3_z2 <= 1
 0 <= a4_z1 <= 1
 0 <= a4_z2 <= 1

binary
  a1_z1
  a1_z2
  a2_z1
  a2_z2
  a3_z1
  a3_z2
  a4_z1
  a4_z2
end
