min
obj: 
  +2.86702301288668870 a1_x1
  +4.61217347674817457 a1_x2
  +8.37266539443051627 a1_x3
  +3.88741117842564377 a1_x4
  +3.57352147071314707 a1_x5
  +7.90632682258909369 a1_x6
  +32.52167325628295202 a1_z1
  +46.95512094955829951 a1_z2
  +1.34162249297538905 a2_x1
  +5.04177078463243156 a2_x2
  +1.10989142532268992 a2_x3
  +7.53499127677043390 a2_x4
  +4.74514201764349153 a2_x5
  +4.92271964690250208 a2_x6
  +7.37175972020868908 a2_z1
  +32.23919956008293042 a2_z2
  +7.19883337190115391 a3_x1
  +9.69659328832065093 a3_x2
  +2.68145044350852224 a3_x3
  +4.74181989860472974 a3_x4
  +5.40392510460596665 a3_x5
  +9.85025370993833427 a3_x6
  +17.99205279831755888 a3_z1
  +28.73085531973273987 a3_z2
  +5.38171902546503311 a4_x1
  +3.72975403904797487 a4_x2
  +6.65779047476273789 a4_x3
  +5.43042814174023825 a4_x4
  +9.71759449267787367 a4_x5
  +8.04794548671517163 a4_x6
  +7.84716545501873153 a4_z1
  +24.37447779336789466 a4_z2
  +1000000.00000000000000000 short_1
  +1000000.00000000000000000 surp_1
  +1000000.00000000000000000 short_2
  +1000000.00000000000000000 surp_2
  +1000000.00000000000000000 short_3
  +1000000.00000000000000000 surp_3

s.t.

a1_local_1: 
+3.13708167976627150 a1_x3
+5.50741121981433590 a1_x1
+4.89342034643084567 a1_x2
<= 814.177497

a1_local_2: 
+43.04185544656240126 a1_x4
+32.32715425623443650 a1_x6
+29.73536927290966148 a1_x2
<= 3938.311492

a1_local_3: 
+5.77947783809688431 a1_x3
+2.71956655065512631 a1_x4
+2.89761715122762897 a1_x1
<= 743.742145

a1_local_4: 
+7.14297634163208528 a1_x3
+6.49856845489496227 a1_x6
+17.55695598125075563 a1_x1
<= 1709.515927

a1_local_5: 
+0.00127387010889610 a1_x5
+0.00184168951309116 a1_x1
+0.00172962637857123 a1_x3
<= 0.247111

a1_local_6: 
+0.00402025492604033 a1_x6
+0.00324242728323465 a1_x3
+0.00300736540553333 a1_x1
<= 0.469253

a1_local_7: 
+7.16095761703270206 a1_x4
+9.78371698586897764 a1_x3
+8.94107537012941833 a1_x6
<= 896.302772

a1_local_8: 
+0.24114937725460242 a1_x6
+0.29762037599096258 a1_x3
+0.23355832586357325 a1_x2
<= 28.391111

a1_act_1: 
+0.25200442742436469 a1_x1
-25.20044274243646854 a1_z1
<= 0.000000

a1_act_2: 
+0.00239563230947599 a1_x2
-0.23956323094759926 a1_z2
<= 0.000000

a2_local_1: 
+14.29608648930756765 a2_x3
+22.25766598692340992 a2_x1
+18.47667017534926259 a2_x4
<= 2487.776731

a2_local_2: 
+29.27122485315319622 a2_x3
+18.31845089079962108 a2_x4
+21.22680159140132261 a2_x1
<= 4477.506684

a2_local_3: 
+0.01504626224128419 a2_x2
+0.02096732550585067 a2_x5
+0.02788961240254842 a2_x6
<= 3.907120

a2_local_4: 
+1.33025466767426170 a2_x3
+1.17130007580763973 a2_x4
+0.91605006935527078 a2_x2
<= 205.663903

a2_local_5: 
+2.10486086719339349 a2_x3
+3.22287314559158755 a2_x5
+3.95039861858606356 a2_x6
<= 580.529393

a2_local_6: 
+0.08576875096465908 a2_x2
+0.19971746545752278 a2_x5
+0.10643764095798143 a2_x1
<= 26.321747

a2_local_7: 
+2.13336992785874102 a2_x6
+3.38296081343238253 a2_x2
+2.28945826125892449 a2_x5
<= 380.199656

a2_local_8: 
+0.00081291182663966 a2_x2
+0.00109046060700610 a2_x4
+0.00075549770203127 a2_x6
<= 0.174087

a2_act_1: 
+0.01261907309766582 a2_x1
-1.26190730976658205 a2_z1
<= 0.000000

a2_act_2: 
+11.89690780375847190 a2_x2
-1189.69078037584722551 a2_z2
<= 0.000000

a3_local_1: 
+0.40326220890881026 a3_x6
+0.55297383011299905 a3_x2
+0.40589431036431994 a3_x1
<= 69.769063

a3_local_2: 
+0.01289726534421019 a3_x3
+0.00884917046840896 a3_x1
+0.01028605815682110 a3_x4
<= 1.846675

a3_local_3: 
+8.45448726170557663 a3_x4
+6.83396862694361751 a3_x1
+10.00578653347724867 a3_x6
<= 1474.112576

a3_local_4: 
+9.00166190802961452 a3_x1
+9.06217834327888205 a3_x3
+6.37654736025127455 a3_x5
<= 896.508358

a3_local_5: 
+2.83642096782139230 a3_x5
+6.02144722895655704 a3_x4
+7.91479042975200464 a3_x6
<= 723.676656

a3_local_6: 
+6.85638030487689942 a3_x2
+11.33208060723021759 a3_x3
+11.64455072348494902 a3_x6
<= 1595.047361

a3_local_7: 
+460.39787730193131665 a3_x4
+266.86786834610717278 a3_x1
+550.99064629818076355 a3_x2
<= 68648.132160

a3_local_8: 
+15.71169926667178451 a3_x2
+7.39684388685584704 a3_x1
+11.57519734824150781 a3_x5
<= 1135.087812

a3_act_1: 
+2.34400329006114383 a3_x1
-234.40032900611439004 a3_z1
<= 0.000000

a3_act_2: 
+0.00547632037561417 a3_x2
-0.54763203756141676 a3_z2
<= 0.000000

a4_local_1: 
+105.30773240933129387 a4_x1
+188.23570440492937905 a4_x4
+141.35712350120354586 a4_x3
<= 17428.311756

a4_local_2: 
+24.48917008675063300 a4_x1
+17.68326928078688454 a4_x6
+18.23901181873924315 a4_x3
<= 2834.254280

a4_local_3: 
+0.52048023159280377 a4_x2
+0.32825225740575220 a4_x5
+0.71123856647376904 a4_x1
<= 88.905381

a4_local_4: 
+0.03184977498533073 a4_x5
+0.03291275779926275 a4_x4
+0.04839531785510874 a4_x3
<= 4.891322

a4_local_5: 
+1441.28513718923977649 a4_x1
+2612.29858198918964263 a4_x4
+3020.00889511308560031 a4_x2
<= 286428.734053

a4_local_6: 
+31.40458951990425263 a4_x4
+37.30124520051414549 a4_x2
+20.43734435125464088 a4_x6
<= 4542.851447

a4_local_7: 
+37.88186453393178965 a4_x2
+40.43147128024916270 a4_x1
+48.77609859596465469 a4_x3
<= 6118.187938

a4_local_8: 
+8.22416645121639611 a4_x1
+5.13160216643041966 a4_x2
+9.36500387273797053 a4_x5
<= 1480.620245

a4_act_1: 
+0.35260508522758999 a4_x1
-35.26050852275899672 a4_z1
<= 0.000000

a4_act_2: 
+0.02083361278539814 a4_x2
-2.08336127853981345 a4_z2
<= 0.000000

coupling_1: 
+57.57027050012959535 a1_x1
+222.41319872362075216 a2_x1
+1014.04418464660363952 a3_x1
+4764.43774577684143878 a4_x1
+390.19818572815569269 short_1
-390.19818572815569269 surp_1
= 151662.408385

coupling_2: 
+0.09579939279143629 a1_x2
+0.52891869106296840 a2_x2
+3.46017744940994643 a3_x2
+10.87631310852905919 a4_x2
+1.42824117948671980 short_2
-1.42824117948671980 surp_2
= 339.486974

coupling_3: 
+0.64167929036325289 a1_x3
+2.88728397916433632 a2_x3
+10.05666490528128953 a3_x3
+28.39045012332517715 a4_x3
+4.36652031684808772 short_3
-4.36652031684808772 surp_3
= 864.274148

bounds
  0.000000 <= a1_x1 <= 100.000000
  0.000000 <= a1_x2 <= 100.000000
  0.000000 <= a1_x3 <= 100.000000
  0.000000 <= a1_x4 <= 100.000000
  0.000000 <= a1_x5 <= 100.000000
  0.000000 <= a1_x6 <= 100.000000
  0.000000 <= a2_x1 <= 100.000000
  0.000000 <= a2_x2 <= 100.000000
  0.000000 <= a2_x3 <= 100.000000
  0.000000 <= a2_x4 <= 100.000000
  0.000000 <= a2_x5 <= 100.000000
  0.000000 <= a2_x6 <= 100.000000
  0.000000 <= a3_x1 <= 100.000000
  0.000000 <= a3_x2 <= 100.000000
  0.000000 <= a3_x3 <= 100.000000
  0.000000 <= a3_x4 <= 100.000000
  0.000000 <= a3_x5 <= 100.000000
  0.000000 <= a3_x6 <= 100.000000
  0.000000 <= a4_x1 <= 100.000000
  0.000000 <= a4_x2 <= 100.000000
  0.000000 <= a4_x3 <= 100.000000
  0.000000 <= a4_x4 <= 100.000000
  0.000000 <= a4_x5 <= 100.000000
  0.000000 <= a4_x6 <= 100.000000
  0.000000 <= short_1 <= +inf
  0.000000 <= surp_1 <= +inf
  0.000000 <= short_2 <= +inf
  0.000000 <= surp_2 <= +inf
  0.000000 <= short_3 <= +inf
  0.000000 <= surp_3 <= +inf
 0 <= a1_z1 <= 1
 0 <= a1_z2 <= 1
 0 <= a2_z1 <= 1
 0 <= a2_z2 <= 1
 0 <= a3_z1 <= 1
 0 <= a3_z2 <= 1
 0 <= a4_z1 <= 1
 0 <= a4_z2 <= 1

binary
  a1_z1
  a1_z2
  a2_z1
  a2_z2
  a3_z1
  a3_z2
  a4_z1
  a4_z2
end
