min
obj: 
  +2.37029411872895501 a1_x1
  +4.08711411622905185 a1_x2
  +7.66136637275760890 a1_x3
  +4.89991689432673461 a1_x4
  +9.18560754331382867 a1_x5
  +7.80552329567271030 a1_x6
  +17.43087311454965516 a1_z1
  +23.40237872614093462 a1_z2
  +7.76967499598976019 a2_x1
  +1.80336421538305247 a2_x2
  +9.57158160013941384 a2_x3
  +5.65827493894111466 a2_x4
  +2.44173723344263127 a2_x5
  +7.27299337053102857 a2_x6
  +31.32172731425238510 a2_z1
  +17.35876123031728824 a2_z2
  +2.34937597507828766 a3_x1
  +3.44404861330662637 a3_x2
  +8.97236298110027342 a3_x3
  +1.18282410761081147 a3_x4
  +8.94329086748358293 a3_x5
  +1.71905082189577563 a3_x6
  +16.00176469749968788 a3_z1
  +34.61198408971173990 a3_z2
  +6.56106695092732561 a4_x1
  +3.99053598556514322 a4_x2
  +4.10040873738996048 a4_x3
  +4.88744804784333908 a4_x4
  +2.91326732486744788 a4_x5
  +5.36841797601257653 a4_x6
  +43.70048480327027818 a4_z1
  +7.09598516541455737 a4_z2
  +1000000.00000000000000000 short_1
  +1000000.00000000000000000 surp_1
  +1000000.00000000000000000 short_2
  +1000000.00000000000000000 surp_2
  +1000000.00000000000000000 short_3
  +1000000.00000000000000000 surp_3

s.t.

a1_local_1: 
+1.58207785332520401 a1_x3
+1.13699304954462610 a1_x2
+0.63208014567564075 a1_x1
<= 234.408053

a1_local_2: 
+1.30747042081618181 a1_x6
+0.77748105960196789 a1_x3
+0.76483565829026945 a1_x2
<= 88.260681

a1_local_3: 
+1.01574970016890953 a1_x4
+1.17493897014379156 a1_x3
+0.85110803659667356 a1_x6
<= 93.622523

a1_local_4: 
+0.76327546880282471 a1_x5
+1.44138706096369762 a1_x3
+0.69377617371659317 a1_x6
<= 156.308875

a1_local_5: 
+2.81902319701920101 a1_x3
+2.13448024956148608 a1_x5
+1.13036801276039789 a1_x4
<= 368.781022

a1_local_6: 
+1.35025830844615591 a1_x3
+0.97429848056948476 a1_x1
+0.74059903482525158 a1_x6
<= 152.593943

a1_local_7: 
+0.92309589366518208 a1_x6
+1.08331106969771884 a1_x1
+1.04156312276328222 a1_x4
<= 140.284359

a1_local_8: 
+0.51533765988775582 a1_x3
+0.78497229301395333 a1_x2
+0.84097517278571188 a1_x4
<= 78.116086

a1_act_1: 
+0.10000000000000002 a1_x1
-10.00000000000000000 a1_z1
<= 0.000000

a1_act_2: 
+0.10000000000000001 a1_x2
-10.00000000000000000 a1_z2
<= 0.000000

a2_local_1: 
+1.21245114617398198 a2_x3
+1.41787945261892578 a2_x2
+0.70527857509531422 a2_x1
<= 211.260136

a2_local_2: 
+1.14699950930025629 a2_x6
+2.71215054411842083 a2_x2
+2.99707139986509086 a2_x1
<= 437.934029

a2_local_3: 
+0.80601443189449973 a2_x2
+1.33326952855476577 a2_x3
+0.75003589190550068 a2_x1
<= 161.226271

a2_local_4: 
+0.95670459642878769 a2_x1
+0.91733475592568958 a2_x4
+1.09011458852978049 a2_x5
<= 168.107444

a2_local_5: 
+0.83915717107068588 a2_x1
+1.26272454735601380 a2_x6
+1.13099364547175063 a2_x3
<= 100.048430

a2_local_6: 
+0.83274330347580949 a2_x1
+0.67881503806769872 a2_x6
+1.47315534264912551 a2_x2
<= 145.536249

a2_local_7: 
+0.96714825325243492 a2_x3
+0.86991204323730509 a2_x2
+1.14954150568899305 a2_x4
<= 122.822221

a2_local_8: 
+0.74679405316670266 a2_x4
+0.38465126379202963 a2_x3
+0.65942431697088300 a2_x1
<= 108.257258

a2_act_1: 
+0.08103809945015665 a2_x1
-8.10380994501566576 a2_z1
<= 0.000000

a2_act_2: 
+0.09999999999999999 a2_x2
-9.99999999999999822 a2_z2
<= 0.000000

a3_local_1: 
+0.91733006822027341 a3_x5
+0.61641529054006305 a3_x4
+1.62228292410440456 a3_x2
<= 141.663168

a3_local_2: 
+1.16216125120840341 a3_x4
+0.84047754887639725 a3_x5
+1.18979977673033877 a3_x3
<= 160.695973

a3_local_3: 
+1.27933410688494864 a3_x4
+0.67732240915929165 a3_x3
+1.47640176447317528 a3_x6
<= 145.524029

a3_local_4: 
+0.88217110480703198 a3_x4
+0.92949395153058512 a3_x5
+1.13356694018984250 a3_x2
<= 162.138368

a3_local_5: 
+1.59590810830689778 a3_x4
+0.62660249346116925 a3_x6
+1.37012093386959588 a3_x5
<= 147.845691

a3_local_6: 
+0.98295152504275163 a3_x1
+0.94198524843132236 a3_x5
+1.06158774955901847 a3_x3
<= 98.937617

a3_local_7: 
+0.96604189395861917 a3_x6
+0.75661321084049005 a3_x4
+1.32167927505408156 a3_x1
<= 114.772620

a3_local_8: 
+1.43055455384777286 a3_x4
+0.69902961569014821 a3_x2
+1.34317926854284453 a3_x1
<= 219.649230

a3_act_1: 
+0.09999999999999999 a3_x1
-10.00000000000000000 a3_z1
<= 0.000000

a3_act_2: 
+0.08872073204282940 a3_x2
-8.87207320428294111 a3_z2
<= 0.000000

a4_local_1: 
+0.91845120334564079 a4_x5
+1.15310035865435356 a4_x2
+0.86722720402843445 a4_x1
<= 196.619958

a4_local_2: 
+1.26375798396321559 a4_x4
+0.69306098668998717 a4_x2
+1.44287446444782996 a4_x6
<= 212.224900

a4_local_3: 
+1.18346942863511884 a4_x1
+0.84497324206615798 a4_x3
+0.89349973214392187 a4_x6
<= 144.747486

a4_local_4: 
+0.87093098926996493 a4_x3
+1.14819659917971650 a4_x4
+0.93811347763415986 a4_x1
<= 178.515875

a4_local_5: 
+0.83781821072257689 a4_x6
+0.86554597978936465 a4_x3
+0.45795776923687026 a4_x4
<= 103.385795

a4_local_6: 
+0.68329360238412751 a4_x5
+1.46349972619505020 a4_x4
+0.72706143046259097 a4_x2
<= 160.932424

a4_local_7: 
+1.17423824900846996 a4_x6
+0.85161593130218916 a4_x2
+0.91435662811412188 a4_x4
<= 198.992215

a4_local_8: 
+0.77979263868378701 a4_x6
+1.28239220325021441 a4_x2
+1.25930750453414797 a4_x1
<= 120.033972

a4_act_1: 
+0.10000000000000001 a4_x1
-10.00000000000000000 a4_z1
<= 0.000000

a4_act_2: 
+0.10000000000000001 a4_x2
-10.00000000000000178 a4_z2
<= 0.000000

coupling_1: 
+0.00616176445342149 a1_x1
+0.04641942020073111 a2_x1
+0.18827422151120718 a3_x1
+0.97290291351984060 a4_x1
+0.07221465415334478 short_1
-0.07221465415334478 surp_1
= 25.409829

coupling_2: 
+0.00720009510290538 a1_x2
+0.04867159137900735 a2_x2
+0.19376227554839187 a3_x2
+0.97110844067588264 a4_x2
+0.07501580787990066 short_2
-0.07501580787990066 surp_2
= 95.873630

coupling_3: 
+0.00492123340971325 a1_x3
+0.02451741441279881 a2_x3
+0.22952345678915537 a3_x3
+0.96212340374611927 a4_x3
+0.08124617787860573 short_3
-0.08124617787860573 surp_3
= 67.881056

bounds
  0.000000 <= a1_x1 <= 100.000000
  0.000000 <= a1_x2 <= 100.000000
  0.000000 <= a1_x3 <= 100.000000
  0.000000 <= a1_x4 <= 100.000000
  0.000000 <= a1_x5 <= 100.000000
  0.000000 <= a1_x6 <= 100.000000
  0.000000 <= a2_x1 <= 100.000000
  0.000000 <= a2_x2 <= 100.000000
  0.000000 <= a2_x3 <= 100.000000
  0.000000 <= a2_x4 <= 100.000000
  0.000000 <= a2_x5 <= 100.000000
  0.000000 <= a2_x6 <= 100.000000
  0.000000 <= a3_x1 <= 100.000000
  0.000000 <= a3_x2 <= 100.000000
  0.000000 <= a3_x3 <= 100.000000
  0.000000 <= a3_x4 <= 100.000000
  0.000000 <= a3_x5 <= 100.000000
  0.000000 <= a3_x6 <= 100.000000
  0.000000 <= a4_x1 <= 100.000000
  0.000000 <= a4_x2 <= 100.000000
  0.000000 <= a4_x3 <= 100.000000
  0.000000 <= a4_x4 <= 100.000000
  0.000000 <= a4_x5 <= 100.000000
  0.000000 <= a4_x6 <= 100.000000
  0.000000 <= short_1 <= +inf
  0.000000 <= surp_1 <= +inf
  0.000000 <= short_2 <= +inf
  0.000000 <= surp_2 <= +inf
  0.000000 <= short_3 <= +inf
  0.000000 <= surp_3 <= +inf
 0 <= a1_z1 <= 1
 0 <= a1_z2 <= 1
 0 <= a2_z1 <= 1
 0 <= a2_z2 <= 1
 0 <= a3_z1 <= 1
 0 <= a3_z2 <= 1
 0 <= a4_z1 <= 1
 0 <= a4_z2 <= 1

binary
  a1_z1
  a1_z2
  a2_z1
  a2_z2
  a3_z1
  a3_z2
  a4_z1
  a4_z2
end
