min
obj: 
  +1.57709742578195788 a1_x1
  +5.24362332399284625 a1_x2
  +8.06959664561268042 a1_x3
  +3.47810228856863679 a1_x4
  +9.41205830682384104 a1_x5
  +8.31656886029670339 a1_x6
  +34.00140095985545230 a1_z1
  +10.41050343041974102 a1_z2
  +6.47735542906473949 a2_x1
  +9.58339357562265626 a2_x2
  +2.02682747423036602 a2_x3
  +2.51463833389198177 a2_x4
  +5.97191591647550446 a2_x5
  +2.17528344053247569 a2_x6
  +46.82093948760606850 a2_z1
  +31.11983884228734354 a2_z2
  +4.28980261171450117 a3_x1
  +6.29719392465862082 a3_x2
  +7.08124523691182794 a3_x3
  +4.94719983508523597 a3_x4
  +8.06509947106787273 a3_x5
  +5.84368483176889342 a3_x6
  +45.40847242123220440 a3_z1
  +47.68543785744964225 a3_z2
  +7.67454901318721916 a4_x1
  +9.54472766156331787 a4_x2
  +6.46859462349116754 a4_x3
  +6.10471800911878315 a4_x4
  +9.00917261972195327 a4_x5
  +9.20424430287105189 a4_x6
  +10.38795682780166985 a4_z1
  +22.65518679594919149 a4_z2
  +1000000.00000000000000000 short_1
  +1000000.00000000000000000 surp_1
  +1000000.00000000000000000 short_2
  +1000000.00000000000000000 surp_2
  +1000000.00000000000000000 short_3
  +1000000.00000000000000000 surp_3

s.t.

a1_local_1: 
+29.85590734079701392 a1_x1
+30.52232173164811613 a1_x6
+18.61553523455794945 a1_x5
<= 4155.317583

a1_local_2: 
+0.00092162568380512 a1_x5
+0.00050828126561482 a1_x4
+0.00143487343538099 a1_x1
<= 0.089548

a1_local_3: 
+0.00774913374249034 a1_x2
+0.01106538699457356 a1_x3
+0.00680964830235229 a1_x5
<= 1.008049

a1_local_4: 
+21.48524608469217156 a1_x2
+17.17243892972334862 a1_x4
+7.87240483316701400 a1_x1
<= 2339.549199

a1_local_5: 
+63.60471702093712310 a1_x1
+40.51832235387619363 a1_x3
+72.65935748906404967 a1_x2
<= 6863.140414

a1_local_6: 
+0.92294774680391634 a1_x3
+0.73772102875188583 a1_x4
+0.63206480780390006 a1_x2
<= 96.249382

a1_local_7: 
+9.18676468432794913 a1_x1
+5.72996472209723429 a1_x4
+7.91476080893969680 a1_x3
<= 1265.479380

a1_local_8: 
+0.00236800427108373 a1_x3
+0.00152538455022229 a1_x2
+0.00209837200025962 a1_x5
<= 0.273806

a1_act_1: 
+6.30076698994516793 a1_x1
-630.07669899451684614 a1_z1
<= 0.000000

a1_act_2: 
+3.04718404360156780 a1_x2
-304.71840436015679643 a1_z2
<= 0.000000

a2_local_1: 
+0.48108672247814871 a2_x3
+0.82876994960674777 a2_x6
+0.82883129810389977 a2_x4
<= 118.827924

a2_local_2: 
+625.00756146238882138 a2_x6
+258.51423609557900818 a2_x4
+581.64170213978854918 a2_x2
<= 78729.881246

a2_local_3: 
+6.12392784004237090 a2_x4
+8.75415184947951452 a2_x5
+10.56605743950082221 a2_x2
<= 1150.168317

a2_local_4: 
+0.00222262267595888 a2_x6
+0.00252470015421345 a2_x5
+0.00179066056059935 a2_x1
<= 0.217452

a2_local_5: 
+1.60440200398505728 a2_x6
+1.62253354628421342 a2_x5
+1.53513819446870214 a2_x2
<= 187.515926

a2_local_6: 
+0.66390232301442187 a2_x1
+0.45927838757788886 a2_x6
+0.80630322973210589 a2_x3
<= 98.938074

a2_local_7: 
+6.96218302729471983 a2_x2
+7.70489917337132013 a2_x4
+10.75573520944450046 a2_x5
<= 1339.282596

a2_local_8: 
+0.00053848053722180 a2_x4
+0.00054939375667860 a2_x3
+0.00067418163919668 a2_x2
<= 0.056749

a2_act_1: 
+73.55455242971146390 a2_x1
-7355.45524297114661749 a2_z1
<= 0.000000

a2_act_2: 
+4.61932106060446124 a2_x2
-461.93210606044613087 a2_z2
<= 0.000000

a3_local_1: 
+0.00811261164180164 a3_x3
+0.00714942203482523 a3_x4
+0.00929983984055175 a3_x2
<= 1.364664

a3_local_2: 
+1.82164424115994938 a3_x3
+2.19442958932447718 a3_x4
+3.20960549275457963 a3_x6
<= 472.471659

a3_local_3: 
+658.58404595352556044 a3_x2
+1050.38966970282831426 a3_x3
+637.73720406552706663 a3_x5
<= 88322.720369

a3_local_4: 
+0.32808814762704036 a3_x2
+0.53762269137738539 a3_x5
+0.47365121202532390 a3_x3
<= 70.311296

a3_local_5: 
+557.85848908418711289 a3_x2
+274.50926550068442111 a3_x5
+596.66026793546848239 a3_x3
<= 89293.166771

a3_local_6: 
+238.41717166979481135 a3_x5
+204.60233883731035576 a3_x6
+229.99180299279572637 a3_x1
<= 35508.483699

a3_local_7: 
+10.23852390778733046 a3_x3
+11.83147846672599002 a3_x5
+10.04624516720216398 a3_x2
<= 1890.063301

a3_local_8: 
+11.78567448137958706 a3_x5
+17.99731228728251864 a3_x3
+12.02050999856684399 a3_x2
<= 2328.290131

a3_act_1: 
+1.33416542392707460 a3_x1
-133.41654239270746984 a3_z1
<= 0.000000

a3_act_2: 
+418.75174341166410841 a3_x2
-41875.17434116641379660 a3_z2
<= 0.000000

a4_local_1: 
+0.01687940618497242 a4_x6
+0.01882526583484149 a4_x1
+0.01676261423295015 a4_x3
<= 1.959887

a4_local_2: 
+1187.72985689641973295 a4_x2
+1980.97107109316038986 a4_x4
+1317.11498167475951959 a4_x6
<= 252013.793799

a4_local_3: 
+26.41487532395082027 a4_x3
+20.05165380042819123 a4_x2
+39.32372123317018264 a4_x1
<= 2589.724096

a4_local_4: 
+82.11880797787819120 a4_x3
+123.88240969272654013 a4_x5
+127.24535243832865206 a4_x2
<= 20493.178023

a4_local_5: 
+28.37290126028947412 a4_x3
+29.26379596818368611 a4_x2
+22.90940328498091816 a4_x1
<= 4442.293925

a4_local_6: 
+939.97167123276301481 a4_x5
+343.16329678339945985 a4_x1
+859.72745523288620006 a4_x6
<= 101918.288366

a4_local_7: 
+202.36234381039403729 a4_x6
+109.16312514615047746 a4_x3
+170.85296960674898514 a4_x2
<= 32213.120943

a4_local_8: 
+0.04875150836905835 a4_x2
+0.05780435992980087 a4_x6
+0.08512411222580246 a4_x5
<= 9.731078

a4_act_1: 
+160.28468589001914779 a4_x1
-16028.46858900191546127 a4_z1
<= 0.000000

a4_act_2: 
+0.06186442283902916 a4_x2
-6.18644228390291584 a4_z2
<= 0.000000

coupling_1: 
+0.55628339391204762 a1_x1
+3.83568893639785946 a2_x1
+15.64875058351657167 a3_x1
+78.24634596124396069 a4_x1
+5.57272218927272434 short_1
-5.57272218927272434 surp_1
= 7248.808486

coupling_2: 
+0.00041918384480700 a1_x2
+0.00161335583110104 a2_x2
+0.01210865048342909 a3_x2
+0.05184497008512365 a4_x2
+0.00461627173460457 short_2
-0.00461627173460457 surp_2
= 2.376967

coupling_3: 
+0.00103154452731717 a1_x3
+0.00316551585336428 a2_x3
+0.01179884605712389 a3_x3
+0.07104715231019806 a4_x3
+0.00830923616343402 short_3
-0.00830923616343402 surp_3
= 5.080866

bounds
  0.000000 <= a1_x1 <= 100.000000
  0.000000 <= a1_x2 <= 100.000000
  0.000000 <= a1_x3 <= 100.000000
  0.000000 <= a1_x4 <= 100.000000
  0.000000 <= a1_x5 <= 100.000000
  0.000000 <= a1_x6 <= 100.000000
  0.000000 <= a2_x1 <= 100.000000
  0.000000 <= a2_x2 <= 100.000000
  0.000000 <= a2_x3 <= 100.000000
  0.000000 <= a2_x4 <= 100.000000
  0.000000 <= a2_x5 <= 100.000000
  0.000000 <= a2_x6 <= 100.000000
  0.000000 <= a3_x1 <= 100.000000
  0.000000 <= a3_x2 <= 100.000000
  0.000000 <= a3_x3 <= 100.000000
  0.000000 <= a3_x4 <= 100.000000
  0.000000 <= a3_x5 <= 100.000000
  0.000000 <= a3_x6 <= 100.000000
  0.000000 <= a4_x1 <= 100.000000
  0.000000 <= a4_x2 <= 100.000000
  0.000000 <= a4_x3 <= 100.000000
  0.000000 <= a4_x4 <= 100.000000
  0.000000 <= a4_x5 <= 100.000000
  0.000000 <= a4_x6 <= 100.000000
  0.000000 <= short_1 <= +inf
  0.000000 <= surp_1 <= +inf
  0.000000 <= short_2 <= +inf
  0.000000 <= surp_2 <= +inf
  0.000000 <= short_3 <= +inf
  0.000000 <= surp_3 <= +inf
 0 <= a1_z1 <= 1
 0 <= a1_z2 <= 1
 0 <= a2_z1 <= 1
 0 <= a2_z2 <= 1
 0 <= a3_z1 <= 1
 0 <= a3_z2 <= 1
 0 <= a4_z1 <= 1
 0 <= a4_z2 <= 1

binary
  a1_z1
  a1_z2
  a2_z1
  a2_z2
  a3_z1
  a3_z2
  a4_z1
  a4_z2
end
