min
obj: 
  +4.10293210566149646 a1_x1
  +3.32901181929639423 a1_x2
  +9.10176472428019245 a1_x3
  +1.02767819950250816 a1_x4
  +7.50152284301075145 a1_x5
  +9.69522117714092246 a1_x6
  +46.46239370281180214 a1_z1
  +20.97693906303189948 a1_z2
  +8.73612443817434503 a2_x1
  +2.04228756855595339 a2_x2
  +7.91416373752481395 a2_x3
  +8.85104976446995906 a2_x4
  +5.35890260317347789 a2_x5
  +4.46510259611176785 a2_x6
  +43.59910462783197715 a2_z1
  +13.73633673727412230 a2_z2
  +8.77121756982191414 a3_x1
  +5.76281450528001393 a3_x2
  +8.52709380603204359 a3_x3
  +1.13892657158295396 a3_x4
  +2.91144295006929399 a3_x5
  +3.02757282316255294 a3_x6
  +21.64888772902043002 a3_z1
  +37.44350625095739105 a3_z2
  +3.73746776663401503 a4_x1
  +6.30470396079639350 a4_x2
  +7.23244248154489888 a4_x3
  +3.53129435828251648 a4_x4
  +2.19432544763669313 a4_x5
  +2.79667117057261105 a4_x6
  +25.76781967633817416 a4_z1
  +25.23373202259198678 a4_z2
  +1000000.00000000000000000 short_1
  +1000000.00000000000000000 surp_1
  +1000000.00000000000000000 short_2
  +1000000.00000000000000000 surp_2
  +1000000.00000000000000000 short_3
  +1000000.00000000000000000 surp_3

s.t.

a1_local_1: 
+0.00108286777237603 a1_x6
+0.00075423202546379 a1_x1
+0.00074678262613654 a1_x4
<= 0.116780

a1_local_2: 
+0.00063301305721456 a1_x6
+0.00076105004001530 a1_x5
+0.00101100958824354 a1_x4
<= 0.107264

a1_local_3: 
+0.00097322373212838 a1_x1
+0.00135404714824075 a1_x5
+0.00109520580111315 a1_x6
<= 0.156454

a1_local_4: 
+0.00113055417398452 a1_x4
+0.00061834428152886 a1_x5
+0.00138782542792574 a1_x3
<= 0.215183

a1_local_5: 
+0.00056190733572092 a1_x6
+0.00116511342800481 a1_x2
+0.00100954464404888 a1_x1
<= 0.106075

a1_local_6: 
+0.00119993055527378 a1_x5
+0.00096166051266273 a1_x1
+0.00146262584696454 a1_x6
<= 0.219533

a1_local_7: 
+0.00073614684931469 a1_x5
+0.00124697215487455 a1_x1
+0.00058785690884401 a1_x3
<= 0.132023

a1_local_8: 
+0.00077447165674464 a1_x1
+0.00127228788267107 a1_x3
+0.00127096659230780 a1_x4
<= 0.187084

a1_act_1: 
+1.00000000000000000 a1_x1
-100.00000000000000000 a1_z1
<= 0.000000

a1_act_2: 
+1.00000000000000000 a1_x2
-100.00000000000000000 a1_z2
<= 0.000000

a2_local_1: 
+0.07832226669981096 a2_x4
+0.14335329760817869 a2_x5
+0.12536190874589909 a2_x1
<= 10.442560

a2_local_2: 
+0.14666463514908071 a2_x4
+0.13030364155217714 a2_x5
+0.06290000022599054 a2_x2
<= 16.316970

a2_local_3: 
+0.12230245286696564 a2_x6
+0.14069058174133120 a2_x3
+0.10404497816277013 a2_x4
<= 23.816362

a2_local_4: 
+0.09699444276385275 a2_x3
+0.08660432838333190 a2_x2
+0.11424007329705983 a2_x5
<= 13.305282

a2_local_5: 
+0.13814633552002939 a2_x3
+0.14208602753984412 a2_x4
+0.07196566826941363 a2_x5
<= 24.475427

a2_local_6: 
+0.12337325986812915 a2_x1
+0.08070537393219775 a2_x4
+0.13831885219322948 a2_x5
<= 22.577552

a2_local_7: 
+0.12425913982224475 a2_x6
+0.14733873506606285 a2_x2
+0.13460273431150505 a2_x4
<= 18.463823

a2_local_8: 
+0.14791616535128882 a2_x5
+0.12283444715723922 a2_x1
+0.08755578142947339 a2_x3
<= 13.049908

a2_act_1: 
+1.00000000000000000 a2_x1
-100.00000000000000000 a2_z1
<= 0.000000

a2_act_2: 
+1.00000000000000000 a2_x2
-100.00000000000000000 a2_z2
<= 0.000000

a3_local_1: 
+5.37544991635378899 a3_x4
+14.24501980546414792 a3_x2
+8.21222176648267954 a3_x6
<= 1695.594516

a3_local_2: 
+12.18029273105356758 a3_x1
+10.78310063984336509 a3_x4
+7.47523466194687103 a3_x2
<= 1957.953763

a3_local_3: 
+7.05573695785992605 a3_x3
+7.71129832031671825 a3_x6
+9.01305642413901609 a3_x5
<= 1276.303660

a3_local_4: 
+5.41792591521109301 a3_x6
+9.35276926711007484 a3_x4
+12.04230071956616044 a3_x1
<= 1832.127147

a3_local_5: 
+7.12758975575547638 a3_x6
+13.77131635652548880 a3_x4
+6.20488862162674160 a3_x3
<= 908.076829

a3_local_6: 
+8.03535501057080026 a3_x2
+7.22787429627026867 a3_x6
+12.16374925620808156 a3_x5
<= 1398.945981

a3_local_7: 
+6.65863068827476567 a3_x3
+5.56162034602899791 a3_x4
+10.57853080395953072 a3_x5
<= 1575.847226

a3_local_8: 
+7.89378828173951685 a3_x5
+14.22313878698821199 a3_x1
+11.74895918451741572 a3_x6
<= 1514.715167

a3_act_1: 
+1.00000000000000000 a3_x1
-100.00000000000000000 a3_z1
<= 0.000000

a3_act_2: 
+1.00000000000000000 a3_x2
-100.00000000000000000 a3_z2
<= 0.000000

a4_local_1: 
+1386.22828192639917688 a4_x5
+1047.81625953765910708 a4_x2
+823.27604170798099403 a4_x1
<= 167056.471907

a4_local_2: 
+1362.73817190050817771 a4_x4
+1087.76553950924085257 a4_x6
+1422.19027531434949196 a4_x2
<= 270624.623696

a4_local_3: 
+1392.12785943274047895 a4_x3
+595.98220757298531680 a4_x6
+630.07787632798078903 a4_x4
<= 86779.026432

a4_local_4: 
+1085.36060893936223692 a4_x6
+1243.08170341392474256 a4_x1
+660.44243172767141914 a4_x2
<= 93460.732581

a4_local_5: 
+1237.06423442162758874 a4_x5
+849.24011403493659600 a4_x6
+1452.53398365633415779 a4_x1
<= 239979.202571

a4_local_6: 
+1266.11441027027353812 a4_x1
+928.76616409906239369 a4_x3
+1012.81727539839789642 a4_x6
<= 164332.280209

a4_local_7: 
+1224.78747332830857886 a4_x1
+622.20460593405630334 a4_x3
+1306.22343006341316141 a4_x6
<= 190606.681323

a4_local_8: 
+1189.32367253135362262 a4_x1
+1369.45148321313695305 a4_x3
+886.75437501986743882 a4_x4
<= 216236.439702

a4_act_1: 
+1.00000000000000000 a4_x1
-100.00000000000000000 a4_z1
<= 0.000000

a4_act_2: 
+1.00000000000000000 a4_x2
-100.00000000000000000 a4_z2
<= 0.000000

coupling_1: 
+0.68920831747768341 a1_x1
+117.31050943925173158 a2_x1
+4719.46004774203993293 a3_x1
+812817.44943984376732260 a4_x1
+895.21454073836207499 short_1
-895.21454073836207499 surp_1
= 33809397.814230

coupling_2: 
+0.58176854424510183 a1_x2
+97.45627891236522089 a2_x2
+6379.96845131747249980 a3_x2
+642007.48047769279219210 a4_x2
+895.21454073836207499 short_2
-895.21454073836207499 surp_2
= 30696045.046380

coupling_3: 
+0.80305047749586256 a1_x3
+100.41619357201700780 a2_x3
+4781.10561221960142575 a3_x3
+705586.41673758951947093 a4_x3
+895.21454073836207499 short_3
-895.21454073836207499 surp_3
= 27416588.584546

bounds
  0.000000 <= a1_x1 <= 100.000000
  0.000000 <= a1_x2 <= 100.000000
  0.000000 <= a1_x3 <= 100.000000
  0.000000 <= a1_x4 <= 100.000000
  0.000000 <= a1_x5 <= 100.000000
  0.000000 <= a1_x6 <= 100.000000
  0.000000 <= a2_x1 <= 100.000000
  0.000000 <= a2_x2 <= 100.000000
  0.000000 <= a2_x3 <= 100.000000
  0.000000 <= a2_x4 <= 100.000000
  0.000000 <= a2_x5 <= 100.000000
  0.000000 <= a2_x6 <= 100.000000
  0.000000 <= a3_x1 <= 100.000000
  0.000000 <= a3_x2 <= 100.000000
  0.000000 <= a3_x3 <= 100.000000
  0.000000 <= a3_x4 <= 100.000000
  0.000000 <= a3_x5 <= 100.000000
  0.000000 <= a3_x6 <= 100.000000
  0.000000 <= a4_x1 <= 100.000000
  0.000000 <= a4_x2 <= 100.000000
  0.000000 <= a4_x3 <= 100.000000
  0.000000 <= a4_x4 <= 100.000000
  0.000000 <= a4_x5 <= 100.000000
  0.000000 <= a4_x6 <= 100.000000
  0.000000 <= short_1 <= +inf
  0.000000 <= surp_1 <= +inf
  0.000000 <= short_2 <= +inf
  0.000000 <= surp_2 <= +inf
  0.000000 <= short_3 <= +inf
  0.000000 <= surp_3 <= +inf
 0 <= a1_z1 <= 1
 0 <= a1_z2 <= 1
 0 <= a2_z1 <= 1
 0 <= a2_z2 <= 1
 0 <= a3_z1 <= 1
 0 <= a3_z2 <= 1
 0 <= a4_z1 <= 1
 0 <= a4_z2 <= 1

binary
  a1_z1
  a1_z2
  a2_z1
  a2_z2
  a3_z1
  a3_z2
  a4_z1
  a4_z2
end
