min
obj: 
  +8.05560131874530505 a1_x1
  +1.97423451738110156 a1_x2
  +4.43855917145081946 a1_x3
  +2.09177435273224699 a1_x4
  +8.36067334918018190 a1_x5
  +3.13328512039077767 a1_x6
  +12.32473257168471292 a1_z1
  +43.38047102379790942 a1_z2
  +7.63381403352449350 a2_x1
  +9.96116936913966633 a2_x2
  +9.94077753687388643 a2_x3
  +8.29981383037531018 a2_x4
  +5.15933962158974069 a2_x5
  +2.23730116212215036 a2_x6
  +36.51341922859109701 a2_z1
  +11.46217618633665936 a2_z2
  +8.77356431574039775 a3_x1
  +3.66477499322525757 a3_x2
  +8.98940674965133013 a3_x3
  +1.83133745097963319 a3_x4
  +5.96614000496332153 a3_x5
  +2.35435503869091178 a3_x6
  +18.83602233642604062 a3_z1
  +16.87083221217522322 a3_z2
  +7.85154573325681415 a4_x1
  +9.06414056673653157 a4_x2
  +3.88034584638911362 a4_x3
  +5.56052955494331336 a4_x4
  +7.24881590451171665 a4_x5
  +9.98170521647477038 a4_x6
  +15.56555023854576802 a4_z1
  +24.43179263140065771 a4_z2
  +1000000.00000000000000000 short_1
  +1000000.00000000000000000 surp_1
  +1000000.00000000000000000 short_2
  +1000000.00000000000000000 surp_2
  +1000000.00000000000000000 short_3
  +1000000.00000000000000000 surp_3

s.t.

a1_local_1: 
+0.00136254506998332 a1_x2
+0.00057355998076486 a1_x5
+0.00072803813277836 a1_x3
<= 0.128024

a1_local_2: 
+0.00055215626186557 a1_x6
+0.00110145892966778 a1_x4
+0.00096053511171975 a1_x2
<= 0.111881

a1_local_3: 
+0.00086628693024507 a1_x5
+0.00116106546249357 a1_x3
+0.00051633537389936 a1_x4
<= 0.116974

a1_local_4: 
+0.00051986987792316 a1_x6
+0.00125815618416190 a1_x1
+0.00149573769878830 a1_x4
<= 0.102378

a1_local_5: 
+0.00128531509250222 a1_x3
+0.00116521601981967 a1_x4
+0.00087611404156159 a1_x1
<= 0.105065

a1_local_6: 
+0.00074751357227123 a1_x3
+0.00105249365815478 a1_x5
+0.00063218994433176 a1_x1
<= 0.100985

a1_local_7: 
+0.00077708703104757 a1_x3
+0.00147205154313215 a1_x6
+0.00059498797524679 a1_x5
<= 0.169632

a1_local_8: 
+0.00073383371916741 a1_x5
+0.00099916557191106 a1_x6
+0.00052675776775580 a1_x2
<= 0.150379

a1_act_1: 
+1.00000000000000000 a1_x1
-100.00000000000000000 a1_z1
<= 0.000000

a1_act_2: 
+1.00000000000000000 a1_x2
-100.00000000000000000 a1_z2
<= 0.000000

a2_local_1: 
+0.05773380630004032 a2_x1
+0.07372052183475823 a2_x6
+0.08537270498217969 a2_x5
<= 6.693409

a2_local_2: 
+0.14429540857268053 a2_x2
+0.06115222161656855 a2_x4
+0.13904283506189938 a2_x3
<= 23.150893

a2_local_3: 
+0.13207428214799935 a2_x6
+0.14511707036613578 a2_x3
+0.12723135271986030 a2_x1
<= 24.429961

a2_local_4: 
+0.13103403723041093 a2_x4
+0.13619895827796863 a2_x3
+0.12668770174814323 a2_x1
<= 15.713173

a2_local_5: 
+0.07401863617445856 a2_x3
+0.05866250717255153 a2_x5
+0.06157894903074528 a2_x2
<= 8.897037

a2_local_6: 
+0.07716420908748095 a2_x6
+0.06135820929567135 a2_x4
+0.13110118142973373 a2_x1
<= 12.278696

a2_local_7: 
+0.09315574663324705 a2_x2
+0.13352320823883432 a2_x1
+0.09683842022065668 a2_x6
<= 18.399617

a2_local_8: 
+0.14132096627137744 a2_x3
+0.11649312339050399 a2_x4
+0.08548435796692988 a2_x6
<= 18.046311

a2_act_1: 
+1.00000000000000000 a2_x1
-100.00000000000000000 a2_z1
<= 0.000000

a2_act_2: 
+1.00000000000000000 a2_x2
-100.00000000000000000 a2_z2
<= 0.000000

a3_local_1: 
+10.63341937217219701 a3_x5
+7.24896775648014913 a3_x6
+8.55253487522888811 a3_x2
<= 1482.379841

a3_local_2: 
+10.83355507892754588 a3_x4
+8.93610654735655707 a3_x6
+12.03462242607184152 a3_x1
<= 1456.782759

a3_local_3: 
+6.28065185766335876 a3_x4
+5.89159702769966298 a3_x5
+13.01737240597146794 a3_x3
<= 776.770502

a3_local_4: 
+9.48726634744056874 a3_x2
+6.35536643030907378 a3_x3
+13.23345105876002137 a3_x6
<= 1268.754949

a3_local_5: 
+9.06987197712189008 a3_x5
+10.41625589886665892 a3_x3
+8.26030163903755899 a3_x2
<= 964.600968

a3_local_6: 
+14.27117307550201986 a3_x1
+13.63207764382707232 a3_x5
+12.93398388169047664 a3_x3
<= 2809.358085

a3_local_7: 
+10.04725940395568529 a3_x5
+11.35245122287431485 a3_x6
+9.70748675266268535 a3_x3
<= 1583.988301

a3_local_8: 
+7.20068178089813671 a3_x5
+9.84249760761072778 a3_x6
+8.90090723113935312 a3_x3
<= 1075.111933

a3_act_1: 
+1.00000000000000000 a3_x1
-100.00000000000000000 a3_z1
<= 0.000000

a3_act_2: 
+1.00000000000000000 a3_x2
-100.00000000000000000 a3_z2
<= 0.000000

a4_local_1: 
+1238.35849750545571624 a4_x2
+685.19113522987606757 a4_x5
+1015.64425895502449748 a4_x4
<= 183258.859382

a4_local_2: 
+1049.06211613136861160 a4_x4
+1326.47107790253880921 a4_x1
+1386.71872664173201883 a4_x3
<= 155817.443223

a4_local_3: 
+1164.56875895962070899 a4_x3
+779.48066741835657467 a4_x1
+1016.36547911994830429 a4_x6
<= 102928.675423

a4_local_4: 
+1028.66498025739269906 a4_x2
+593.18389520992627695 a4_x3
+1079.62311105163507818 a4_x5
<= 98236.535464

a4_local_5: 
+1277.87993141343031311 a4_x4
+652.91778694716253995 a4_x5
+859.33657957690525109 a4_x6
<= 161908.810714

a4_local_6: 
+516.36119962206555556 a4_x2
+1446.47583916645680802 a4_x4
+532.89267494000807801 a4_x3
<= 142314.944090

a4_local_7: 
+1266.90837701219470546 a4_x2
+926.46305316549512554 a4_x6
+1089.36926323456668797 a4_x1
<= 136252.073202

a4_local_8: 
+1078.77662889113730671 a4_x5
+1152.38089166133499930 a4_x4
+897.88471038916554789 a4_x2
<= 110168.072367

a4_act_1: 
+1.00000000000000000 a4_x1
-100.00000000000000000 a4_z1
<= 0.000000

a4_act_2: 
+1.00000000000000000 a4_x2
-100.00000000000000000 a4_z2
<= 0.000000

coupling_1: 
+0.00001822480632326 a1_x1
+0.00327413373528971 a2_x1
+0.28506459857326361 a3_x1
+18.66892125459056473 a4_x1
+0.02351835457339103 short_1
-0.02351835457339103 surp_1
= 1297.740183

coupling_2: 
+0.00003144735470921 a1_x2
+0.00162829261586926 a2_x2
+0.31004914200705674 a3_x2
+18.80686181768651011 a4_x2
+0.02351835457339103 short_2
-0.02351835457339103 surp_2
= 1499.718457

coupling_3: 
+0.00002376122645452 a1_x3
+0.00171404602497504 a2_x3
+0.24339314367669013 a3_x3
+34.41326193370050390 a4_x3
+0.02351835457339103 short_3
-0.02351835457339103 surp_3
= 2125.427563

bounds
  0.000000 <= a1_x1 <= 100.000000
  0.000000 <= a1_x2 <= 100.000000
  0.000000 <= a1_x3 <= 100.000000
  0.000000 <= a1_x4 <= 100.000000
  0.000000 <= a1_x5 <= 100.000000
  0.000000 <= a1_x6 <= 100.000000
  0.000000 <= a2_x1 <= 100.000000
  0.000000 <= a2_x2 <= 100.000000
  0.000000 <= a2_x3 <= 100.000000
  0.000000 <= a2_x4 <= 100.000000
  0.000000 <= a2_x5 <= 100.000000
  0.000000 <= a2_x6 <= 100.000000
  0.000000 <= a3_x1 <= 100.000000
  0.000000 <= a3_x2 <= 100.000000
  0.000000 <= a3_x3 <= 100.000000
  0.000000 <= a3_x4 <= 100.000000
  0.000000 <= a3_x5 <= 100.000000
  0.000000 <= a3_x6 <= 100.000000
  0.000000 <= a4_x1 <= 100.000000
  0.000000 <= a4_x2 <= 100.000000
  0.000000 <= a4_x3 <= 100.000000
  0.000000 <= a4_x4 <= 100.000000
  0.000000 <= a4_x5 <= 100.000000
  0.000000 <= a4_x6 <= 100.000000
  0.000000 <= short_1 <= +inf
  0.000000 <= surp_1 <= +inf
  0.000000 <= short_2 <= +inf
  0.000000 <= surp_2 <= +inf
  0.000000 <= short_3 <= +inf
  0.000000 <= surp_3 <= +inf
 0 <= a1_z1 <= 1
 0 <= a1_z2 <= 1
 0 <= a2_z1 <= 1
 0 <= a2_z2 <= 1
 0 <= a3_z1 <= 1
 0 <= a3_z2 <= 1
 0 <= a4_z1 <= 1
 0 <= a4_z2 <= 1

binary
  a1_z1
  a1_z2
  a2_z1
  a2_z2
  a3_z1
  a3_z2
  a4_z1
  a4_z2
end
