min
obj: 
  +4.10293210566149646 a1_x1
  +3.32901181929639423 a1_x2
  +9.10176472428019245 a1_x3
  +1.02767819950250816 a1_x4
  +7.50152284301075145 a1_x5
  +9.69522117714092246 a1_x6
  +46.46239370281180214 a1_z1
  +20.97693906303189948 a1_z2
  +8.73612443817434503 a2_x1
  +2.04228756855595339 a2_x2
  +7.91416373752481395 a2_x3
  +8.85104976446995906 a2_x4
  +5.35890260317347789 a2_x5
  +4.46510259611176785 a2_x6
  +43.59910462783197715 a2_z1
  +13.73633673727412230 a2_z2
  +8.77121756982191414 a3_x1
  +5.76281450528001393 a3_x2
  +8.52709380603204359 a3_x3
  +1.13892657158295396 a3_x4
  +2.91144295006929399 a3_x5
  +3.02757282316255294 a3_x6
  +21.64888772902043002 a3_z1
  +37.44350625095739105 a3_z2
  +3.73746776663401503 a4_x1
  +6.30470396079639350 a4_x2
  +7.23244248154489888 a4_x3
  +3.53129435828251648 a4_x4
  +2.19432544763669313 a4_x5
  +2.79667117057261105 a4_x6
  +25.76781967633817416 a4_z1
  +25.23373202259198678 a4_z2
  +1000000.00000000000000000 short_1
  +1000000.00000000000000000 surp_1
  +1000000.00000000000000000 short_2
  +1000000.00000000000000000 surp_2
  +1000000.00000000000000000 short_3
  +1000000.00000000000000000 surp_3

s.t.

a1_local_1: 
+1.20417778670724007 a1_x6
+0.83872608849912600 a1_x1
+0.83044215815876055 a1_x4
<= 129.862983

a1_local_2: 
+0.79127728181851431 a1_x6
+0.95132572721491093 a1_x5
+1.26377949042312832 a1_x4
<= 134.081833

a1_local_3: 
+0.84779226898492177 a1_x1
+1.17953422858800017 a1_x5
+0.95405298954288509 a1_x6
<= 136.289437

a1_local_4: 
+1.22041850214126968 a1_x4
+0.66749459622215124 a1_x5
+1.49813946908296258 a1_x3
<= 232.286857

a1_local_5: 
+0.69446161690029007 a1_x6
+1.43996439207608362 a1_x2
+1.24769683766404160 a1_x1
<= 131.098503

a1_local_6: 
+1.01176254673477573 a1_x5
+0.81085699927352506 a1_x1
+1.23326307955155401 a1_x6
<= 185.106943

a1_local_7: 
+0.85980559423271752 a1_x5
+1.45643988779098432 a1_x1
+0.68660574897926130 a1_x3
<= 154.200116

a1_local_8: 
+0.78020740659332000 a1_x1
+1.28171046769009456 a1_x3
+1.28037939182862903 a1_x4
<= 188.469625

a1_act_1: 
+0.10000000000000001 a1_x1
-10.00000000000000000 a1_z1
<= 0.000000

a1_act_2: 
+0.10000000000000001 a1_x2
-10.00000000000000000 a1_z2
<= 0.000000

a2_local_1: 
+0.73916055019772753 a2_x4
+1.35288605396012729 a2_x5
+1.18309366348662803 a2_x1
<= 98.550882

a2_local_2: 
+1.52699417230705703 a2_x4
+1.35665220915943019 a2_x5
+0.65488134672390486 a2_x2
<= 169.883611

a2_local_3: 
+1.01086251634432256 a2_x6
+1.16284532444894673 a2_x3
+0.85995959993551463 a2_x4
<= 196.848606

a2_local_4: 
+0.97514189800707018 a2_x3
+0.87068399744261105 a2_x2
+1.14852231456787823 a2_x5
<= 133.765786

a2_local_5: 
+1.36615822705863166 a2_x3
+1.40511867175437066 a2_x4
+0.71168366067717481 a2_x5
<= 242.042653

a2_local_6: 
+1.16769420507330390 a2_x1
+0.76385431948245108 a2_x4
+1.30915015402092516 a2_x5
<= 213.690364

a2_local_7: 
+0.91834465565122481 a2_x6
+1.08891579413708350 a2_x2
+0.99478961360783191 a2_x4
<= 136.457995

a2_local_8: 
+1.29976669804842904 a2_x5
+1.07936900208979059 a2_x1
+0.76936884250187199 a2_x3
<= 114.671958

a2_act_1: 
+0.10000000000000001 a2_x1
-10.00000000000000000 a2_z1
<= 0.000000

a2_act_2: 
+0.10000000000000001 a2_x2
-10.00000000000000000 a2_z2
<= 0.000000

a3_local_1: 
+0.61429344521114027 a3_x4
+1.62788648942247360 a3_x2
+0.93847288697137221 a3_x6
<= 193.768450

a3_local_2: 
+1.27648715123422263 a3_x1
+1.13006228348955151 a3_x4
+0.78339997314748555 a3_x2
<= 205.192344

a3_local_3: 
+0.88477969202124318 a3_x3
+0.96698618353867571 a3_x6
+1.13022485599272837 a3_x5
<= 160.046720

a3_local_4: 
+0.67075172309388553 a3_x6
+1.15789440457293447 a3_x4
+1.49086460096954454 a3_x1
<= 226.821566

a3_local_5: 
+0.77105964192811860 a3_x6
+1.48977517261947079 a3_x4
+0.67124222391335786 a3_x3
<= 98.235367

a3_local_6: 
+0.85697083930190254 a3_x2
+0.77085299826763687 a3_x6
+1.29726420244499607 a3_x5
<= 149.197628

a3_local_7: 
+0.86810364730747847 a3_x3
+0.72508344933876967 a3_x4
+1.37915160098046230 a3_x5
<= 205.447454

a3_local_8: 
+0.74498068518282512 a3_x5
+1.34231668000169790 a3_x1
+1.10881459586575448 a3_x6
<= 142.952091

a3_act_1: 
+0.10000000000000001 a3_x1
-10.00000000000000000 a3_z1
<= 0.000000

a3_act_2: 
+0.10000000000000001 a3_x2
-10.00000000000000000 a3_z2
<= 0.000000

a4_local_1: 
+1.29761136017521106 a4_x5
+0.98083288263523827 a4_x2
+0.77064676735334225 a4_x1
<= 156.377112

a4_local_2: 
+1.09563505908660841 a4_x4
+0.87455836031251566 a4_x6
+1.14343426966115658 a4_x2
<= 217.580920

a4_local_3: 
+1.52835033008549037 a4_x3
+0.65430024799619302 a4_x6
+0.69173224552651791 a4_x4
<= 95.270526

a4_local_4: 
+1.19786185301933923 a4_x6
+1.37193126454161884 a4_x1
+0.72889949070015103 a4_x2
<= 103.148249

a4_local_5: 
+1.11381701990620430 a4_x5
+0.76463134789555998 a4_x6
+1.30781977844908925 a4_x1
<= 216.070365

a4_local_6: 
+1.16757095634734975 a4_x1
+0.85647899561360985 a4_x3
+0.93398829146063678 a4_x6
<= 151.542069

a4_local_7: 
+1.35858054227302971 a4_x1
+0.69017285802046835 a4_x3
+1.44891238242571263 a4_x6
<= 211.428133

a4_local_8: 
+1.07925748165865643 a4_x1
+1.24271532902441106 a4_x3
+0.80468951870501682 a4_x4
<= 196.224796

a4_act_1: 
+0.10000000000000001 a4_x1
-10.00000000000000000 a4_z1
<= 0.000000

a4_act_2: 
+0.10000000000000001 a4_x2
-10.00000000000000000 a4_z2
<= 0.000000

coupling_1: 
+0.00000084790977041 a1_x1
+0.00014432316703546 a2_x1
+0.00580619267654076 a3_x1
+0.99998192050806278 a4_x1
+0.00110135228559773 short_1
-0.00110135228559773 surp_1
= 41.594563

coupling_2: 
+0.00000090612446154 a1_x2
+0.00015179149702468 a2_x2
+0.00993701968722339 a3_x2
+0.99994867083302219 a4_x2
+0.00139432735184901 short_2
-0.00139432735184901 surp_2
= 47.810143

coupling_3: 
+0.00000113810402559 a1_x3
+0.00014231244154822 a2_x3
+0.00677590723937239 a3_x3
+0.99997542345765356 a4_x3
+0.00126872133338306 short_3
-0.00126872133338306 surp_3
= 38.855503

bounds
  0.000000 <= a1_x1 <= 100.000000
  0.000000 <= a1_x2 <= 100.000000
  0.000000 <= a1_x3 <= 100.000000
  0.000000 <= a1_x4 <= 100.000000
  0.000000 <= a1_x5 <= 100.000000
  0.000000 <= a1_x6 <= 100.000000
  0.000000 <= a2_x1 <= 100.000000
  0.000000 <= a2_x2 <= 100.000000
  0.000000 <= a2_x3 <= 100.000000
  0.000000 <= a2_x4 <= 100.000000
  0.000000 <= a2_x5 <= 100.000000
  0.000000 <= a2_x6 <= 100.000000
  0.000000 <= a3_x1 <= 100.000000
  0.000000 <= a3_x2 <= 100.000000
  0.000000 <= a3_x3 <= 100.000000
  0.000000 <= a3_x4 <= 100.000000
  0.000000 <= a3_x5 <= 100.000000
  0.000000 <= a3_x6 <= 100.000000
  0.000000 <= a4_x1 <= 100.000000
  0.000000 <= a4_x2 <= 100.000000
  0.000000 <= a4_x3 <= 100.000000
  0.000000 <= a4_x4 <= 100.000000
  0.000000 <= a4_x5 <= 100.000000
  0.000000 <= a4_x6 <= 100.000000
  0.000000 <= short_1 <= +inf
  0.000000 <= surp_1 <= +inf
  0.000000 <= short_2 <= +inf
  0.000000 <= surp_2 <= +inf
  0.000000 <= short_3 <= +inf
  0.000000 <= surp_3 <= +inf
 0 <= a1_z1 <= 1
 0 <= a1_z2 <= 1
 0 <= a2_z1 <= 1
 0 <= a2_z2 <= 1
 0 <= a3_z1 <= 1
 0 <= a3_z2 <= 1
 0 <= a4_z1 <= 1
 0 <= a4_z2 <= 1

binary
  a1_z1
  a1_z2
  a2_z1
  a2_z2
  a3_z1
  a3_z2
  a4_z1
  a4_z2
end
