min
obj: 
  +4.61217347674817457 a1_x1
  +8.37266539443051627 a1_x2
  +3.88741117842564377 a1_x3
  +3.57352147071314707 a1_x4
  +7.90632682258909369 a1_x5
  +6.50433465125659094 a1_x6
  +46.95512094955829951 a1_z1
  +19.80665349763778238 a1_z2
  +7.65671715801393571 a2_x1
  +8.20437447093011585 a2_x2
  +3.61886914738285226 a2_x3
  +5.28592570462095690 a2_x4
  +3.39477691808076010 a2_x5
  +2.52109627660840552 a2_x6
  +31.13088232979415793 a2_z1
  +23.01056128172705328 a2_z2
  +6.98746639113835144 a3_x1
  +2.08920162411281263 a3_x2
  +9.36108080061404380 a3_x3
  +4.85098195997041159 a3_x4
  +1.72431460157976346 a3_x5
  +7.00389344376385736 a3_x6
  +33.01267747284549614 a3_z1
  +8.00105962872783749 a3_z2
  +6.42161923356443864 a4_x1
  +2.38773349159600956 a4_x2
  +7.47586240964883597 a4_x3
  +7.41060969147519710 a4_x4
  +8.58602476997859654 a4_x5
  +3.43257573175068753 a4_x6
  +23.31726507162430551 a4_z1
  +25.04248719439813797 a4_z2
  +1000000.00000000000000000 short_1
  +1000000.00000000000000000 surp_1
  +1000000.00000000000000000 short_2
  +1000000.00000000000000000 surp_2
  +1000000.00000000000000000 short_3
  +1000000.00000000000000000 surp_3

s.t.

a1_local_1: 
+0.00129060756716661 a1_x1
+0.00114672485426712 a1_x6
+0.00125351365515821 a1_x2
<= 0.224653

a1_local_2: 
+0.00105548060697454 a1_x4
+0.00079273265620465 a1_x6
+0.00072917640940801 a1_x2
<= 0.096576

a1_local_3: 
+0.00147224913539814 a1_x2
+0.00141756205602848 a1_x1
+0.00066704198182762 a1_x5
<= 0.136685

a1_local_4: 
+0.00148889875755841 a1_x1
+0.00076569309833191 a1_x2
+0.00059271134669160 a1_x4
<= 0.089888

a1_local_5: 
+0.00092224108861291 a1_x2
+0.00059949888588089 a1_x6
+0.00066548486046322 a1_x3
<= 0.076681

a1_local_6: 
+0.00131445948205669 a1_x4
+0.00112253502978129 a1_x6
+0.00096610977319489 a1_x1
<= 0.186294

a1_local_7: 
+0.00098248048786009 a1_x1
+0.00050034323992626 a1_x5
+0.00130550235076628 a1_x6
<= 0.154603

a1_local_8: 
+0.00143309352717952 a1_x2
+0.00084067474227746 a1_x1
+0.00105538277224532 a1_x4
<= 0.176661

a1_act_1: 
+1.00000000000000000 a1_x1
-100.00000000000000000 a1_z1
<= 0.000000

a1_act_2: 
+1.00000000000000000 a1_x2
-100.00000000000000000 a1_z2
<= 0.000000

a2_local_1: 
+0.11582837975672350 a2_x4
+0.13746421547720875 a2_x2
+0.10971442002365857 a2_x6
<= 13.559119

a2_local_2: 
+0.05527057715601931 a2_x2
+0.11053155457796207 a2_x6
+0.07276850664544379 a2_x5
<= 11.599774

a2_local_3: 
+0.11900452445926263 a2_x2
+0.08801824570085602 a2_x1
+0.12540655944056134 a2_x3
<= 11.103011

a2_local_4: 
+0.09344804103206522 a2_x3
+0.10828443070418337 a2_x2
+0.13766114081842629 a2_x4
<= 20.647920

a2_local_5: 
+0.07735047621123337 a2_x2
+0.10778973453642704 a2_x5
+0.14337612664789753 a2_x6
<= 20.085894

a2_local_6: 
+0.14347392896000857 a2_x6
+0.13068007858374706 a2_x5
+0.11506487417127578 a2_x1
<= 17.902497

a2_local_7: 
+0.07108456719566238 a2_x5
+0.07853973645459215 a2_x4
+0.06817244625498732 a2_x3
<= 11.271656

a2_local_8: 
+0.08407339951522279 a2_x6
+0.06852694197178720 a2_x4
+0.08020641532324606 a2_x3
<= 6.988183

a2_act_1: 
+1.00000000000000000 a2_x1
-100.00000000000000000 a2_z1
<= 0.000000

a2_act_2: 
+1.00000000000000000 a2_x2
-100.00000000000000000 a2_z2
<= 0.000000

a3_local_1: 
+11.15795865316525592 a3_x2
+9.84267521936693157 a3_x1
+5.80240037963038890 a3_x6
<= 1604.580746

a3_local_2: 
+13.86851509835625862 a3_x3
+5.51632549331904976 a3_x5
+6.83504576011459086 a3_x6
<= 1498.979383

a3_local_3: 
+6.90421896280322223 a3_x4
+7.25483598696726339 a3_x5
+5.35111845800596697 a3_x3
<= 1234.588118

a3_local_4: 
+10.27352340438505429 a3_x1
+5.28726697357903141 a3_x5
+10.46220500399254050 a3_x6
<= 1204.089069

a3_local_5: 
+10.30513709618486651 a3_x3
+8.91830663978686466 a3_x5
+6.92121195160730274 a3_x1
<= 936.507295

a3_local_6: 
+11.37555740217466393 a3_x3
+11.91251551957041599 a3_x4
+6.03823825976917483 a3_x6
<= 903.034254

a3_local_7: 
+9.87979667663116423 a3_x2
+14.46526051506630139 a3_x3
+12.06964544643547299 a3_x1
<= 1943.717692

a3_local_8: 
+10.15258283533045613 a3_x1
+10.22083668979027138 a3_x3
+7.19183034641761143 a3_x5
<= 1011.132773

a3_act_1: 
+1.00000000000000000 a3_x1
-100.00000000000000000 a3_z1
<= 0.000000

a3_act_2: 
+1.00000000000000000 a3_x2
-100.00000000000000000 a3_z2
<= 0.000000

a4_local_1: 
+1465.77948520314134839 a4_x4
+1299.43669924599748811 a4_x2
+535.90349445838319298 a4_x6
<= 230699.886339

a4_local_2: 
+662.15781913343710130 a4_x5
+613.18597815332657319 a4_x6
+724.76740719273982450 a4_x2
<= 95204.455255

a4_local_3: 
+1350.63097210805653958 a4_x1
+1378.56707758577545064 a4_x3
+973.33837597851697865 a4_x6
<= 189585.671358

a4_local_4: 
+1126.54385552626854405 a4_x5
+1061.65970282092916932 a4_x1
+623.08147454909396856 a4_x6
<= 139086.378163

a4_local_5: 
+505.81920929920011076 a4_x5
+926.79728276381956675 a4_x1
+1103.60658400892793907 a4_x6
<= 167630.616531

a4_local_6: 
+1314.91844487952403142 a4_x6
+1084.38832214191188541 a4_x1
+1490.72226535042364048 a4_x5
<= 184486.069135

a4_local_7: 
+1207.49294413520260605 a4_x2
+1492.72568679985192830 a4_x6
+590.32924744218234991 a4_x1
<= 173754.460074

a4_local_8: 
+922.89612476474928826 a4_x2
+1043.81992342698617904 a4_x3
+986.05144937270108585 a4_x6
<= 107029.713429

a4_act_1: 
+1.00000000000000000 a4_x1
-100.00000000000000000 a4_z1
<= 0.000000

a4_act_2: 
+1.00000000000000000 a4_x2
-100.00000000000000000 a4_z2
<= 0.000000

coupling_1: 
+0.00001946470499892 a1_x1
+0.00207638375792437 a2_x1
+0.19052818156414736 a3_x1
+20.32488578660663237 a4_x1
+0.01756636929398566 short_1
-0.01756636929398566 surp_1
= 837.701339

coupling_2: 
+0.00001210611352923 a1_x2
+0.00139442955246921 a2_x2
+0.14409684887786936 a3_x2
+21.18817525379251521 a4_x2
+0.01756636929398566 short_2
-0.01756636929398566 surp_2
= 849.901272

coupling_3: 
+0.00001054975184125 a1_x3
+0.00162719120557572 a2_x3
+0.12785879766581476 a3_x3
+14.02063672259399496 a4_x3
+0.01756636929398566 short_3
-0.01756636929398566 surp_3
= 333.361068

bounds
  0.000000 <= a1_x1 <= 100.000000
  0.000000 <= a1_x2 <= 100.000000
  0.000000 <= a1_x3 <= 100.000000
  0.000000 <= a1_x4 <= 100.000000
  0.000000 <= a1_x5 <= 100.000000
  0.000000 <= a1_x6 <= 100.000000
  0.000000 <= a2_x1 <= 100.000000
  0.000000 <= a2_x2 <= 100.000000
  0.000000 <= a2_x3 <= 100.000000
  0.000000 <= a2_x4 <= 100.000000
  0.000000 <= a2_x5 <= 100.000000
  0.000000 <= a2_x6 <= 100.000000
  0.000000 <= a3_x1 <= 100.000000
  0.000000 <= a3_x2 <= 100.000000
  0.000000 <= a3_x3 <= 100.000000
  0.000000 <= a3_x4 <= 100.000000
  0.000000 <= a3_x5 <= 100.000000
  0.000000 <= a3_x6 <= 100.000000
  0.000000 <= a4_x1 <= 100.000000
  0.000000 <= a4_x2 <= 100.000000
  0.000000 <= a4_x3 <= 100.000000
  0.000000 <= a4_x4 <= 100.000000
  0.000000 <= a4_x5 <= 100.000000
  0.000000 <= a4_x6 <= 100.000000
  0.000000 <= short_1 <= +inf
  0.000000 <= surp_1 <= +inf
  0.000000 <= short_2 <= +inf
  0.000000 <= surp_2 <= +inf
  0.000000 <= short_3 <= +inf
  0.000000 <= surp_3 <= +inf
 0 <= a1_z1 <= 1
 0 <= a1_z2 <= 1
 0 <= a2_z1 <= 1
 0 <= a2_z2 <= 1
 0 <= a3_z1 <= 1
 0 <= a3_z2 <= 1
 0 <= a4_z1 <= 1
 0 <= a4_z2 <= 1

binary
  a1_z1
  a1_z2
  a2_z1
  a2_z2
  a3_z1
  a3_z2
  a4_z1
  a4_z2
end
