min
obj: 
  +5.24362332399284625 a1_x1
  +8.06959664561268042 a1_x2
  +3.47810228856863679 a1_x3
  +9.41205830682384104 a1_x4
  +8.31656886029670339 a1_x5
  +6.80028019197109046 a1_x6
  +10.41050343041974102 a1_z1
  +29.39644014342060530 a1_z2
  +8.28066141375753872 a2_x1
  +6.06494311381576523 a2_x2
  +8.65417661359723311 a2_x3
  +4.32929045080204133 a2_x4
  +7.27024404204758401 a2_x5
  +4.53185167774403475 a2_x6
  +14.32924585982750010 a2_z1
  +33.49545064378996528 a2_z2
  +3.46672163395224064 a3_x1
  +8.73068689063360637 a3_x2
  +5.78731633243780319 a3_x3
  +5.65993509091970015 a3_x4
  +4.88699203046912878 a3_x5
  +4.33566741350590856 a3_x6
  +5.90058593924896702 a3_z1
  +40.30367968473242257 a3_z2
  +4.52735162287015491 a4_x1
  +9.79326185053260900 a4_x2
  +5.17425215108361947 a4_x3
  +5.44899982766291835 a4_x4
  +4.65504731238401082 a4_x5
  +5.18157972709797487 a4_x6
  +20.49298729783527051 a4_z1
  +8.57422142752452210 a4_z2
  +1000000.00000000000000000 short_1
  +1000000.00000000000000000 surp_1
  +1000000.00000000000000000 short_2
  +1000000.00000000000000000 surp_2
  +1000000.00000000000000000 short_3
  +1000000.00000000000000000 surp_3

s.t.

a1_local_1: 
+0.00138998373502692 a1_x4
+0.00084774976891834 a1_x6
+0.00106507772142018 a1_x1
<= 0.216700

a1_local_2: 
+0.00090677427658082 a1_x5
+0.00050009063877708 a1_x4
+0.00141175136958071 a1_x1
<= 0.088105

a1_local_3: 
+0.00103154892605694 a1_x3
+0.00071461148554972 a1_x6
+0.00102043052825587 a1_x5
<= 0.097160

a1_local_4: 
+0.00073758039142452 a1_x3
+0.00141568021998488 a1_x5
+0.00147561653755393 a1_x4
<= 0.207486

a1_local_5: 
+0.00103821733489330 a1_x5
+0.00136731318264746 a1_x2
+0.00145452326061867 a1_x1
<= 0.238480

a1_local_6: 
+0.00081728509743205 a1_x3
+0.00059437931473846 a1_x2
+0.00085854696178543 a1_x5
<= 0.138999

a1_local_7: 
+0.00063596028887264 a1_x1
+0.00145137540836666 a1_x5
+0.00072443286057084 a1_x6
<= 0.175799

a1_local_8: 
+0.00115793742883915 a1_x1
+0.00148774925694686 a1_x5
+0.00103440513357411 a1_x3
<= 0.215380

a1_act_1: 
+1.00000000000000000 a1_x1
-100.00000000000000000 a1_z1
<= 0.000000

a1_act_2: 
+1.00000000000000000 a1_x2
-100.00000000000000000 a1_z2
<= 0.000000

a2_local_1: 
+0.07217565496937826 a2_x2
+0.13281894177090633 a2_x5
+0.12037767090634657 a2_x6
<= 16.592773

a2_local_2: 
+0.14293542108356902 a2_x5
+0.10804408631619410 a2_x3
+0.07018026521339431 a2_x4
<= 11.204559

a2_local_3: 
+0.12623165888456978 a2_x3
+0.11390282969860495 a2_x1
+0.10251051976972199 a2_x2
<= 17.002009

a2_local_4: 
+0.05996592601638913 a2_x1
+0.13491977774742631 a2_x3
+0.10933634072653220 a2_x4
<= 21.230466

a2_local_5: 
+0.07255442940312762 a2_x4
+0.10371652131402742 a2_x5
+0.12518342615845546 a2_x2
<= 13.626843

a2_local_6: 
+0.07147550592470638 a2_x6
+0.08449188036861277 a2_x1
+0.09597520339541754 a2_x3
<= 9.379425

a2_local_7: 
+0.11203237939918331 a2_x4
+0.07267618450219640 a2_x6
+0.14060819270032465 a2_x2
<= 21.756823

a2_local_8: 
+0.08417426215564888 a2_x6
+0.10273239164531943 a2_x5
+0.07643498352257508 a2_x4
<= 14.420155

a2_act_1: 
+1.00000000000000000 a2_x1
-100.00000000000000000 a2_z1
<= 0.000000

a2_act_2: 
+1.00000000000000000 a2_x2
-100.00000000000000000 a2_z2
<= 0.000000

a3_local_1: 
+12.28286923017609311 a3_x4
+8.41386567703372279 a3_x1
+6.70229131528714106 a3_x5
<= 1646.784680

a3_local_2: 
+5.55157755263719555 a3_x2
+5.12328615254112663 a3_x4
+13.11101592866400622 a3_x3
<= 1294.677821

a3_local_3: 
+14.43563405328564642 a3_x4
+11.07520422124232518 a3_x6
+13.02601569899957923 a3_x5
<= 1597.765117

a3_local_4: 
+14.48565285721103102 a3_x4
+6.50358584982745391 a3_x2
+9.80061533154146680 a3_x6
<= 1794.336052

a3_local_5: 
+11.39006606352766404 a3_x3
+5.89149435026325285 a3_x4
+5.84637593077802542 a3_x2
<= 826.284555

a3_local_6: 
+14.23305972920674733 a3_x4
+13.84696329414216720 a3_x1
+10.03303341559302808 a3_x6
<= 1950.905239

a3_local_7: 
+13.86149992046508572 a3_x4
+8.41591883318207223 a3_x5
+6.90920328387630178 a3_x2
<= 1954.765621

a3_local_8: 
+6.77781108266761390 a3_x2
+11.10648178627135962 a3_x5
+9.78492657355477391 a3_x3
<= 1452.526360

a3_act_1: 
+1.00000000000000000 a3_x1
-100.00000000000000000 a3_z1
<= 0.000000

a3_act_2: 
+1.00000000000000000 a3_x2
-100.00000000000000000 a3_z2
<= 0.000000

a4_local_1: 
+1414.08686010214933049 a4_x5
+740.29898216289302582 a4_x6
+730.23484852039973703 a4_x2
<= 101682.115117

a4_local_2: 
+1306.87854306914641711 a4_x5
+699.13069661309975800 a4_x4
+1325.51598892348192749 a4_x1
<= 173654.494913

a4_local_3: 
+870.42591759120830375 a4_x6
+865.30039461971534820 a4_x2
+1286.30438782783858187 a4_x3
<= 128364.943274

a4_local_4: 
+1128.89214744363425780 a4_x2
+1020.86828022301824603 a4_x6
+1436.99277136170826452 a4_x4
<= 214002.418305

a4_local_5: 
+1218.60041157519958688 a4_x2
+691.60351682621774216 a4_x1
+969.49886807471227712 a4_x3
<= 131616.674286

a4_local_6: 
+1212.56538908029347112 a4_x3
+1225.69582299523904112 a4_x5
+1196.23255488372137734 a4_x2
<= 182824.437358

a4_local_7: 
+528.65619798879413338 a4_x5
+1283.55797084713390177 a4_x2
+557.95548015480233062 a4_x4
<= 115498.720287

a4_local_8: 
+1154.50365593334549885 a4_x1
+1363.71899989055850710 a4_x5
+780.33933452139979181 a4_x4
<= 199022.778010

a4_act_1: 
+1.00000000000000000 a4_x1
-100.00000000000000000 a4_z1
<= 0.000000

a4_act_2: 
+1.00000000000000000 a4_x2
-100.00000000000000000 a4_z2
<= 0.000000

coupling_1: 
+0.00000251413799103 a1_x1
+0.00018245570523458 a2_x1
+0.02722247061071118 a3_x1
+3.25468978222323813 a4_x1
+0.00242511097575557 short_1
-0.00242511097575557 surp_1
= 91.783649

coupling_2: 
+0.00000214010228468 a1_x2
+0.00018472426467445 a2_x2
+0.02786704726979476 a3_x2
+2.86235330750818529 a4_x2
+0.00242511097575557 short_2
-0.00242511097575557 surp_2
= 194.360552

coupling_3: 
+0.00000284249290816 a1_x3
+0.00020058554532335 a2_x3
+0.02239301763894738 a3_x3
+1.78898655549174235 a4_x3
+0.00242511097575557 short_3
-0.00242511097575557 surp_3
= 92.414389

bounds
  0.000000 <= a1_x1 <= 100.000000
  0.000000 <= a1_x2 <= 100.000000
  0.000000 <= a1_x3 <= 100.000000
  0.000000 <= a1_x4 <= 100.000000
  0.000000 <= a1_x5 <= 100.000000
  0.000000 <= a1_x6 <= 100.000000
  0.000000 <= a2_x1 <= 100.000000
  0.000000 <= a2_x2 <= 100.000000
  0.000000 <= a2_x3 <= 100.000000
  0.000000 <= a2_x4 <= 100.000000
  0.000000 <= a2_x5 <= 100.000000
  0.000000 <= a2_x6 <= 100.000000
  0.000000 <= a3_x1 <= 100.000000
  0.000000 <= a3_x2 <= 100.000000
  0.000000 <= a3_x3 <= 100.000000
  0.000000 <= a3_x4 <= 100.000000
  0.000000 <= a3_x5 <= 100.000000
  0.000000 <= a3_x6 <= 100.000000
  0.000000 <= a4_x1 <= 100.000000
  0.000000 <= a4_x2 <= 100.000000
  0.000000 <= a4_x3 <= 100.000000
  0.000000 <= a4_x4 <= 100.000000
  0.000000 <= a4_x5 <= 100.000000
  0.000000 <= a4_x6 <= 100.000000
  0.000000 <= short_1 <= +inf
  0.000000 <= surp_1 <= +inf
  0.000000 <= short_2 <= +inf
  0.000000 <= surp_2 <= +inf
  0.000000 <= short_3 <= +inf
  0.000000 <= surp_3 <= +inf
 0 <= a1_z1 <= 1
 0 <= a1_z2 <= 1
 0 <= a2_z1 <= 1
 0 <= a2_z2 <= 1
 0 <= a3_z1 <= 1
 0 <= a3_z2 <= 1
 0 <= a4_z1 <= 1
 0 <= a4_z2 <= 1

binary
  a1_z1
  a1_z2
  a2_z1
  a2_z2
  a3_z1
  a3_z2
  a4_z1
  a4_z2
end
