min
obj: 
  +4.08711411622905185 a1_x1
  +7.66136637275760890 a1_x2
  +4.89991689432673461 a1_x3
  +9.18560754331382867 a1_x4
  +7.80552329567271030 a1_x5
  +3.48617462290993085 a1_x6
  +23.40237872614093462 a1_z1
  +18.26756086639244359 a1_z2
  +9.86731097874472596 a2_x1
  +9.26152928173022261 a2_x2
  +3.50078905131847584 a2_x3
  +7.16373731684462012 a2_x4
  +7.92452849914212010 a2_x5
  +2.45821067970353369 a2_x6
  +33.65890549127213660 a2_z1
  +35.25440952037810405 a2_z2
  +2.67328543975586186 a3_x1
  +9.89718173180398963 a3_x2
  +5.22112132820410846 a3_x3
  +8.01142911451852413 a3_x4
  +2.58297506253818687 a3_x5
  +9.90251287309686745 a3_x6
  +27.09261525514139990 a3_z1
  +47.99613585574002173 a3_z2
  +8.20462741556096375 a4_x1
  +7.12140565612760490 a4_x2
  +6.26647229654029836 a4_x3
  +7.50796663445631296 a4_x4
  +5.57360575198759278 a4_x5
  +1.80810837019631565 a4_x6
  +27.56107960188447947 a4_z1
  +34.98595155711783633 a4_z2
  +1000000.00000000000000000 short_1
  +1000000.00000000000000000 surp_1
  +1000000.00000000000000000 short_2
  +1000000.00000000000000000 surp_2
  +1000000.00000000000000000 short_3
  +1000000.00000000000000000 surp_3

s.t.

a1_local_1: 
+0.00094617666374969 a1_x6
+0.00052600100211459 a1_x4
+0.00149871297484202 a1_x2
<= 0.205911

a1_local_2: 
+0.00135366897560579 a1_x6
+0.00080495281021142 a1_x3
+0.00079186059247005 a1_x2
<= 0.091379

a1_local_3: 
+0.00098919809361694 a1_x6
+0.00129468130619846 a1_x4
+0.00149758500575121 a1_x1
<= 0.201904

a1_local_4: 
+0.00144747655789337 a1_x4
+0.00057702725861034 a1_x5
+0.00074904898324300 a1_x2
<= 0.184666

a1_local_5: 
+0.00107460802830714 a1_x5
+0.00115481777413384 a1_x1
+0.00083713393313826 a1_x4
<= 0.207514

a1_local_6: 
+0.00092431027187922 a1_x2
+0.00115491810482121 a1_x6
+0.00064879091030806 a1_x1
<= 0.133946

a1_local_7: 
+0.00125797237980321 a1_x2
+0.00124721860775723 a1_x1
+0.00073086106951688 a1_x3
<= 0.144192

a1_local_8: 
+0.00108058798330412 a1_x2
+0.00125238739465301 a1_x4
+0.00149001634561019 a1_x3
<= 0.218966

a1_act_1: 
+1.00000000000000000 a1_x1
-100.00000000000000000 a1_z1
<= 0.000000

a1_act_2: 
+1.00000000000000000 a1_x2
-100.00000000000000000 a1_z2
<= 0.000000

a2_local_1: 
+0.13718789300770001 a2_x6
+0.14549032231069314 a2_x2
+0.14476096257456575 a2_x4
<= 20.539155

a2_local_2: 
+0.10849272736500531 a2_x2
+0.07746391384514953 a2_x3
+0.08305102246434637 a2_x6
<= 18.568158

a2_local_3: 
+0.06705770899386503 a2_x4
+0.13333699700166540 a2_x6
+0.11131681391479296 a2_x2
<= 9.466946

a2_local_4: 
+0.12473534754064459 a2_x6
+0.13783923000771867 a2_x2
+0.13468490507264272 a2_x4
<= 21.639141

a2_local_5: 
+0.07726461008061061 a2_x2
+0.12780732723856145 a2_x3
+0.07189850260910320 a2_x1
<= 15.455164

a2_local_6: 
+0.10052343018951140 a2_x4
+0.11563082659554345 a2_x6
+0.11087244326875570 a2_x2
<= 20.505261

a2_local_7: 
+0.13895653152092005 a2_x5
+0.13426953772475719 a2_x2
+0.09549660601288382 a2_x3
<= 24.881234

a2_local_8: 
+0.05082431989777088 a2_x5
+0.10320230749310455 a2_x4
+0.11623159205615451 a2_x6
<= 11.799043

a2_act_1: 
+1.00000000000000000 a2_x1
-100.00000000000000000 a2_z1
<= 0.000000

a2_act_2: 
+1.00000000000000000 a2_x2
-100.00000000000000000 a2_z2
<= 0.000000

a3_local_1: 
+6.33283697608023211 a3_x3
+8.66867050585020493 a3_x5
+14.21251887918560186 a3_x6
<= 1830.546271

a3_local_2: 
+12.61238675039034973 a3_x4
+10.10780229397685304 a3_x1
+8.18114874526645153 a3_x2
<= 2011.093881

a3_local_3: 
+9.07415186583893529 a3_x3
+10.67646692946045306 a3_x5
+8.84161720522752503 a3_x2
<= 1137.879100

a3_local_4: 
+11.58044090882483168 a3_x2
+9.19863139643443972 a3_x6
+7.27577474935812418 a3_x4
<= 1908.594753

a3_local_5: 
+8.72163325949453849 a3_x2
+11.72101756331965916 a3_x3
+12.01013327393742003 a3_x1
<= 1832.603027

a3_local_6: 
+12.44470758299417312 a3_x1
+10.08410841756331955 a3_x5
+14.64498143502035532 a3_x4
<= 1659.338231

a3_local_7: 
+6.62880440927359871 a3_x2
+14.44921708458854148 a3_x1
+8.09725881891631261 a3_x3
<= 1124.814485

a3_local_8: 
+8.26916588717772072 a3_x4
+8.71275383477451371 a3_x5
+10.62566323196528550 a3_x2
<= 1519.828811

a3_act_1: 
+1.00000000000000000 a3_x1
-100.00000000000000000 a3_z1
<= 0.000000

a3_act_2: 
+1.00000000000000000 a3_x2
-100.00000000000000000 a3_z2
<= 0.000000

a4_local_1: 
+1418.00838728887651996 a4_x3
+661.40910047170928010 a4_x2
+728.84301421422992462 a4_x6
<= 178184.158504

a4_local_2: 
+1186.37835085954793612 a4_x6
+1073.94764956990366045 a4_x1
+664.28148799993505236 a4_x5
<= 131303.743057

a4_local_3: 
+501.20137467573920276 a4_x4
+1003.62716520071717241 a4_x5
+1094.62420638014100405 a4_x6
<= 130842.359821

a4_local_4: 
+1024.67540410281185359 a4_x6
+1298.32875659888259179 a4_x2
+824.67085275985959925 a4_x4
<= 172227.723691

a4_local_5: 
+542.90918198984354603 a4_x3
+590.12186490742919887 a4_x6
+748.05862973737191624 a4_x1
<= 130657.708058

a4_local_6: 
+826.82086774620495362 a4_x5
+1474.10646434502541524 a4_x6
+1081.17020679159145402 a4_x2
<= 198196.504518

a4_local_7: 
+1139.25643580332780402 a4_x4
+511.99038198756528573 a4_x3
+806.96261578263829506 a4_x2
<= 156518.599123

a4_local_8: 
+1310.61792079009433110 a4_x3
+613.95194443455204691 a4_x6
+1090.82145837701227720 a4_x2
<= 200788.609315

a4_act_1: 
+1.00000000000000000 a4_x1
-100.00000000000000000 a4_z1
<= 0.000000

a4_act_2: 
+1.00000000000000000 a4_x2
-100.00000000000000000 a4_z2
<= 0.000000

coupling_1: 
+0.00000630127562825 a1_x1
+0.00087096639265443 a2_x1
+0.10182912807062991 a3_x1
+10.55866482314496047 a4_x1
+0.00819463119237340 short_1
-0.00819463119237340 surp_1
= 631.311800

coupling_2: 
+0.00001156498949894 a1_x2
+0.00092392417416896 a2_x2
+0.12180604522637940 a3_x2
+9.95194488172292857 a4_x2
+0.00819463119237340 short_2
-0.00819463119237340 surp_2
= 660.380822

coupling_3: 
+0.00000949389697688 a1_x3
+0.00088715663265122 a2_x3
+0.06601380582868815 a3_x3
+8.30519843570922234 a4_x3
+0.00819463119237340 short_3
-0.00819463119237340 surp_3
= 558.036196

bounds
  0.000000 <= a1_x1 <= 100.000000
  0.000000 <= a1_x2 <= 100.000000
  0.000000 <= a1_x3 <= 100.000000
  0.000000 <= a1_x4 <= 100.000000
  0.000000 <= a1_x5 <= 100.000000
  0.000000 <= a1_x6 <= 100.000000
  0.000000 <= a2_x1 <= 100.000000
  0.000000 <= a2_x2 <= 100.000000
  0.000000 <= a2_x3 <= 100.000000
  0.000000 <= a2_x4 <= 100.000000
  0.000000 <= a2_x5 <= 100.000000
  0.000000 <= a2_x6 <= 100.000000
  0.000000 <= a3_x1 <= 100.000000
  0.000000 <= a3_x2 <= 100.000000
  0.000000 <= a3_x3 <= 100.000000
  0.000000 <= a3_x4 <= 100.000000
  0.000000 <= a3_x5 <= 100.000000
  0.000000 <= a3_x6 <= 100.000000
  0.000000 <= a4_x1 <= 100.000000
  0.000000 <= a4_x2 <= 100.000000
  0.000000 <= a4_x3 <= 100.000000
  0.000000 <= a4_x4 <= 100.000000
  0.000000 <= a4_x5 <= 100.000000
  0.000000 <= a4_x6 <= 100.000000
  0.000000 <= short_1 <= +inf
  0.000000 <= surp_1 <= +inf
  0.000000 <= short_2 <= +inf
  0.000000 <= surp_2 <= +inf
  0.000000 <= short_3 <= +inf
  0.000000 <= surp_3 <= +inf
 0 <= a1_z1 <= 1
 0 <= a1_z2 <= 1
 0 <= a2_z1 <= 1
 0 <= a2_z2 <= 1
 0 <= a3_z1 <= 1
 0 <= a3_z2 <= 1
 0 <= a4_z1 <= 1
 0 <= a4_z2 <= 1

binary
  a1_z1
  a1_z2
  a2_z1
  a2_z2
  a3_z1
  a3_z2
  a4_z1
  a4_z2
end
