min
obj: 
  +4.10293210566149646 a1_x1
  +3.32901181929639423 a1_x2
  +9.10176472428019245 a1_x3
  +1.02767819950250816 a1_x4
  +7.50152284301075145 a1_x5
  +9.69522117714092246 a1_x6
  +46.46239370281180214 a1_z1
  +20.97693906303189948 a1_z2
  +8.73612443817434503 a2_x1
  +2.04228756855595339 a2_x2
  +7.91416373752481395 a2_x3
  +8.85104976446995906 a2_x4
  +5.35890260317347789 a2_x5
  +4.46510259611176785 a2_x6
  +43.59910462783197715 a2_z1
  +13.73633673727412230 a2_z2
  +8.77121756982191414 a3_x1
  +5.76281450528001393 a3_x2
  +8.52709380603204359 a3_x3
  +1.13892657158295396 a3_x4
  +2.91144295006929399 a3_x5
  +3.02757282316255294 a3_x6
  +21.64888772902043002 a3_z1
  +37.44350625095739105 a3_z2
  +3.73746776663401503 a4_x1
  +6.30470396079639350 a4_x2
  +7.23244248154489888 a4_x3
  +3.53129435828251648 a4_x4
  +2.19432544763669313 a4_x5
  +2.79667117057261105 a4_x6
  +25.76781967633817416 a4_z1
  +25.23373202259198678 a4_z2
  +1000000.00000000000000000 short_1
  +1000000.00000000000000000 surp_1
  +1000000.00000000000000000 short_2
  +1000000.00000000000000000 surp_2
  +1000000.00000000000000000 short_3
  +1000000.00000000000000000 surp_3

s.t.

a1_local_1: 
+0.71415339693519386 a1_x6
+0.49741748420529769 a1_x1
+0.49250459089514659 a1_x4
<= 77.016942

a1_local_2: 
+0.44737937552888835 a1_x6
+0.53786898669433547 a1_x5
+0.71452686968636148 a1_x4
<= 75.808377

a1_local_3: 
+0.48782783752968240 a1_x1
+0.67871535643191860 a1_x5
+0.54897127964457981 a1_x6
<= 78.422255

a1_local_4: 
+0.59696960297194601 a1_x4
+0.32650601690610193 a1_x5
+0.73281724464673281 a1_x3
<= 113.623477

a1_local_5: 
+0.34244761139432639 a1_x6
+0.71006424913781596 a1_x2
+0.61525474036911765 a1_x1
<= 64.646293

a1_local_6: 
+0.56540781634392889 a1_x5
+0.45313486529623132 a1_x1
+0.68918995572349762 a1_x6
<= 103.444146

a1_local_7: 
+0.47103547738668566 a1_x5
+0.79789531776988298 a1_x1
+0.37614975863875638 a1_x3
<= 84.476916

a1_local_8: 
+0.39553628862544649 a1_x1
+0.64977978573174155 a1_x3
+0.64910497951781210 a1_x4
<= 95.547127

a1_act_1: 
+0.00999950003749688 a1_x1
-0.99995000374968757 a1_z1
<= 0.000000

a1_act_2: 
+0.00999950003749688 a1_x2
-0.99995000374968757 a1_z2
<= 0.000000

a2_local_1: 
+0.38036586297949787 a2_x4
+0.69618389575825801 a2_x5
+0.60881014574883419 a2_x1
<= 50.713463

a2_local_2: 
+0.71188067622312234 a2_x4
+0.63246769998923369 a2_x5
+0.30530396540241456 a2_x2
<= 79.199294

a2_local_3: 
+0.57287765613485175 a2_x6
+0.65900960135193287 a2_x3
+0.48735770890322949 a2_x4
<= 111.558364

a2_local_4: 
+0.56038049128266665 a2_x3
+0.50035213053199046 a2_x2
+0.66001625014986953 a2_x5
<= 76.870594

a2_local_5: 
+0.65523060180262305 a2_x3
+0.67391663327311346 a2_x4
+0.34133448384129672 a2_x5
<= 116.087398

a2_local_6: 
+0.61029206666835589 a2_x1
+0.39922629507374396 a2_x4
+0.68422361745511162 a2_x5
<= 111.684663

a2_local_7: 
+0.52856166473926569 a2_x6
+0.62673544335250764 a2_x2
+0.57256025937344945 a2_x4
<= 78.539647

a2_local_8: 
+0.70014038226001130 a2_x5
+0.58141959388360576 a2_x1
+0.41443298731764588 a2_x3
<= 61.769907

a2_act_1: 
+0.00999950003749688 a2_x1
-0.99995000374968757 a2_z1
<= 0.000000

a2_act_2: 
+0.00999950003749688 a2_x2
-0.99995000374968757 a2_z2
<= 0.000000

a3_local_1: 
+0.31073696813617063 a3_x4
+0.82345744714744407 a3_x2
+0.47472135971636575 a3_x6
<= 98.016707

a3_local_2: 
+0.68035295515910232 a3_x1
+0.60231018646962076 a3_x4
+0.41754316624896065 a3_x2
<= 109.365157

a3_local_3: 
+0.51122793403997036 a3_x3
+0.55872705184535776 a3_x6
+0.65304676784547255 a3_x5
<= 92.475398

a3_local_4: 
+0.33481949451612902 a3_x6
+0.57798676603309973 a3_x4
+0.74419567613804560 a3_x1
<= 113.222642

a3_local_5: 
+0.42675409405673342 a3_x6
+0.82453758382377484 a3_x4
+0.37150870254661383 a3_x3
<= 54.369782

a3_local_6: 
+0.49382611132272169 a3_x2
+0.44420104054656456 a3_x6
+0.74754344847187870 a3_x5
<= 85.974553

a3_local_7: 
+0.48670053330768620 a3_x3
+0.40651655200425718 a3_x4
+0.77321852268591174 a3_x5
<= 115.183695

a3_local_8: 
+0.39338963232188406 a3_x5
+0.70881497427790463 a3_x1
+0.58551338961723698 a3_x6
<= 75.486347

a3_act_1: 
+0.00999950003749688 a3_x1
-0.99995000374968757 a3_z1
<= 0.000000

a3_act_2: 
+0.00999950003749688 a3_x2
-0.99995000374968757 a3_z2
<= 0.000000

a4_local_1: 
+0.72092581497932895 a4_x5
+0.54493029806463456 a4_x2
+0.42815527504350454 a4_x1
<= 86.879863

a4_local_2: 
+0.60563662410296837 a4_x4
+0.48343156649465174 a4_x6
+0.63205869985444163 a4_x2
<= 120.272688

a4_local_3: 
+0.84876174958217065 a4_x3
+0.36336238643023222 a4_x6
+0.38415005996867868 a4_x4
<= 52.908013

a4_local_4: 
+0.61061676789435215 a4_x6
+0.69934962234254383 a4_x1
+0.37156058522883767 a4_x2
<= 52.580396

a4_local_5: 
+0.59235179150408668 a4_x5
+0.40664735829253296 a4_x6
+0.69552662141402122 a4_x1
<= 114.910856

a4_local_6: 
+0.67759465028893873 a4_x1
+0.49705380418864575 a4_x3
+0.54203598186965996 a4_x6
<= 87.946771

a4_local_7: 
+0.64610659315214303 a4_x1
+0.32822878004391909 a4_x3
+0.68906613487836688 a4_x6
<= 100.549880

a4_local_8: 
+0.58907579279263733 a4_x1
+0.67829366958435333 a4_x3
+0.43921225864895674 a4_x4
<= 107.102595

a4_act_1: 
+0.00999950003749688 a4_x1
-0.99995000374968757 a4_z1
<= 0.000000

a4_act_2: 
+0.00999950003749688 a4_x2
-0.99995000374968757 a4_z2
<= 0.000000

coupling_1: 
+0.00000084790977041 a1_x1
+0.00014432316703546 a2_x1
+0.00580619267654076 a3_x1
+0.99998192050806278 a4_x1
+0.00110135228559773 short_1
-0.00110135228559773 surp_1
= 41.594563

coupling_2: 
+0.00000090612446154 a1_x2
+0.00015179149702468 a2_x2
+0.00993701968722339 a3_x2
+0.99994867083302219 a4_x2
+0.00139432735184901 short_2
-0.00139432735184901 surp_2
= 47.810143

coupling_3: 
+0.00000113810402559 a1_x3
+0.00014231244154822 a2_x3
+0.00677590723937239 a3_x3
+0.99997542345765356 a4_x3
+0.00126872133338306 short_3
-0.00126872133338306 surp_3
= 38.855503

bounds
  0.000000 <= a1_x1 <= 100.000000
  0.000000 <= a1_x2 <= 100.000000
  0.000000 <= a1_x3 <= 100.000000
  0.000000 <= a1_x4 <= 100.000000
  0.000000 <= a1_x5 <= 100.000000
  0.000000 <= a1_x6 <= 100.000000
  0.000000 <= a2_x1 <= 100.000000
  0.000000 <= a2_x2 <= 100.000000
  0.000000 <= a2_x3 <= 100.000000
  0.000000 <= a2_x4 <= 100.000000
  0.000000 <= a2_x5 <= 100.000000
  0.000000 <= a2_x6 <= 100.000000
  0.000000 <= a3_x1 <= 100.000000
  0.000000 <= a3_x2 <= 100.000000
  0.000000 <= a3_x3 <= 100.000000
  0.000000 <= a3_x4 <= 100.000000
  0.000000 <= a3_x5 <= 100.000000
  0.000000 <= a3_x6 <= 100.000000
  0.000000 <= a4_x1 <= 100.000000
  0.000000 <= a4_x2 <= 100.000000
  0.000000 <= a4_x3 <= 100.000000
  0.000000 <= a4_x4 <= 100.000000
  0.000000 <= a4_x5 <= 100.000000
  0.000000 <= a4_x6 <= 100.000000
  0.000000 <= short_1 <= +inf
  0.000000 <= surp_1 <= +inf
  0.000000 <= short_2 <= +inf
  0.000000 <= surp_2 <= +inf
  0.000000 <= short_3 <= +inf
  0.000000 <= surp_3 <= +inf
 0 <= a1_z1 <= 1
 0 <= a1_z2 <= 1
 0 <= a2_z1 <= 1
 0 <= a2_z2 <= 1
 0 <= a3_z1 <= 1
 0 <= a3_z2 <= 1
 0 <= a4_z1 <= 1
 0 <= a4_z2 <= 1

binary
  a1_z1
  a1_z2
  a2_z1
  a2_z2
  a3_z1
  a3_z2
  a4_z1
  a4_z2
end
