min
obj: 
  +7.78207569299738466 a1_x1
  +2.62040292120299334 a1_x2
  +1.02293933329670939 a1_x3
  +7.19109322240713489 a1_x4
  +4.26327457704359070 a1_x5
  +6.02462654690972954 a1_x6
  +42.77102711119731282 a1_z1
  +28.11411837117618262 a1_z2
  +1.09429072695693774 a2_x1
  +2.39250112218893918 a2_x2
  +1.83547081268154932 a2_x3
  +3.26801901615166557 a2_x4
  +8.57451293041723162 a2_x5
  +5.28554157085463672 a2_x6
  +40.37542851028292290 a2_z1
  +37.67992106218490278 a2_z2
  +8.27637474833418807 a3_x1
  +6.90983361892269166 a3_x2
  +7.22469297213641504 a3_x3
  +2.76350562177570946 a3_x4
  +4.58041526640907559 a3_x5
  +5.53917660184281146 a3_x6
  +12.64013062893968176 a3_z1
  +24.71990871554554658 a3_z2
  +3.79335491985486684 a4_x1
  +7.87721431876430422 a4_x2
  +7.82223412443215427 a4_x3
  +1.26243572521241743 a4_x4
  +2.93412910760232926 a4_x5
  +4.86803560394161750 a4_x6
  +47.52172151037576953 a4_z1
  +34.58728502900768120 a4_z2
  +1000000.00000000000000000 short_1
  +1000000.00000000000000000 surp_1
  +1000000.00000000000000000 short_2
  +1000000.00000000000000000 surp_2
  +1000000.00000000000000000 short_3
  +1000000.00000000000000000 surp_3

s.t.

a1_local_1: 
+0.00886792124297214 a1_x4
+0.01362537162126616 a1_x6
+0.00633078164551647 a1_x3
<= 1.440820

a1_local_2: 
+0.00716407519357604 a1_x6
+0.01383362107618001 a1_x2
+0.00969831525200842 a1_x4
<= 2.039788

a1_local_3: 
+0.01445010400467990 a1_x2
+0.01449015622890241 a1_x5
+0.01064842499003934 a1_x4
<= 2.620695

a1_local_4: 
+0.01014207368181130 a1_x2
+0.00551634138173959 a1_x1
+0.00863558395082140 a1_x3
<= 1.403611

a1_local_5: 
+0.01496890642389372 a1_x3
+0.00571943876921185 a1_x2
+0.00977844737552489 a1_x6
<= 1.330434

a1_local_6: 
+0.01109395551930159 a1_x4
+0.01289646087718935 a1_x5
+0.00895699051123347 a1_x2
<= 1.209273

a1_local_7: 
+0.00807638149627385 a1_x1
+0.01469898979139514 a1_x5
+0.00786209166091289 a1_x3
<= 2.020565

a1_local_8: 
+0.01051676230060952 a1_x1
+0.01199774942846622 a1_x5
+0.01221587881614705 a1_x4
<= 1.108970

a1_act_1: 
+1.00000000000000000 a1_x1
-100.00000000000000000 a1_z1
<= 0.000000

a1_act_2: 
+1.00000000000000000 a1_x2
-100.00000000000000000 a1_z2
<= 0.000000

a2_local_1: 
+0.17125215768709062 a2_x2
+0.19775327389823391 a2_x3
+0.15865874568316388 a2_x4
<= 36.780167

a2_local_2: 
+0.13516466956775397 a2_x1
+0.23536455053351349 a2_x4
+0.11724893835949013 a2_x5
<= 30.090146

a2_local_3: 
+0.18701674036787302 a2_x5
+0.18604714376703479 a2_x2
+0.28507183284513432 a2_x6
<= 22.144428

a2_local_4: 
+0.11091031288984149 a2_x5
+0.15378435012825487 a2_x4
+0.23103952695268140 a2_x6
<= 22.491705

a2_local_5: 
+0.18227175437014917 a2_x1
+0.23179674955958429 a2_x3
+0.15679463874693714 a2_x2
<= 38.445816

a2_local_6: 
+0.14022546621692095 a2_x5
+0.12024136573207493 a2_x6
+0.10969057629122030 a2_x1
<= 11.145847

a2_local_7: 
+0.31863094578972151 a2_x5
+0.26686403271324960 a2_x6
+0.26792380827117596 a2_x3
<= 48.722736

a2_local_8: 
+0.11069179125522448 a2_x5
+0.12392552684329783 a2_x2
+0.10936647926759209 a2_x4
<= 12.290648

a2_act_1: 
+1.00000000000000000 a2_x1
-100.00000000000000000 a2_z1
<= 0.000000

a2_act_2: 
+1.00000000000000000 a2_x2
-100.00000000000000000 a2_z2
<= 0.000000

a3_local_1: 
+6.94236323148070156 a3_x1
+6.87094336512852344 a3_x5
+4.12931753903848087 a3_x3
<= 1005.102128

a3_local_2: 
+3.34313930358151179 a3_x1
+3.28654874247896389 a3_x3
+2.91328919573978640 a3_x5
<= 560.630575

a3_local_3: 
+6.20509383991650054 a3_x5
+5.32074447047056776 a3_x2
+2.67266599253697912 a3_x4
<= 678.240686

a3_local_4: 
+6.94772816535782134 a3_x6
+4.96556604032955740 a3_x3
+3.67213378278989033 a3_x4
<= 962.846987

a3_local_5: 
+5.63269304953598482 a3_x2
+6.58922806750399204 a3_x4
+6.03598744495082506 a3_x1
<= 992.536973

a3_local_6: 
+2.86606087937600540 a3_x6
+2.37536200817010101 a3_x4
+6.79927849598101197 a3_x5
<= 629.018323

a3_local_7: 
+2.56334695573038029 a3_x6
+6.13666246663692672 a3_x5
+2.88845861277809313 a3_x3
<= 614.473135

a3_local_8: 
+5.30018672946483527 a3_x4
+5.39374162123451750 a3_x6
+2.48191095715459076 a3_x2
<= 803.948217

a3_act_1: 
+1.00000000000000000 a3_x1
-100.00000000000000000 a3_z1
<= 0.000000

a3_act_2: 
+1.00000000000000000 a3_x2
-100.00000000000000000 a3_z2
<= 0.000000

a4_local_1: 
+58.80213440681427528 a4_x2
+130.74359603982782119 a4_x3
+98.40107019323089332 a4_x4
<= 15867.078555

a4_local_2: 
+112.83919379255944193 a4_x4
+80.95213099642286636 a4_x6
+136.44171156052757965 a4_x1
<= 12559.940474

a4_local_3: 
+95.53831852455725482 a4_x3
+57.23423289786050105 a4_x2
+86.07371982655043041 a4_x5
<= 15460.166833

a4_local_4: 
+88.72660932083300622 a4_x2
+107.54849126130321224 a4_x1
+74.86557251036613536 a4_x5
<= 10475.564140

a4_local_5: 
+101.34994350261854379 a4_x6
+136.73089241876854771 a4_x2
+57.82045584365470603 a4_x3
<= 18957.141131

a4_local_6: 
+71.17823178148785246 a4_x5
+141.94314221294365552 a4_x6
+91.85165971158768627 a4_x2
<= 12291.872906

a4_local_7: 
+132.91593620549306820 a4_x6
+136.92673384369632572 a4_x5
+106.19080401981864270 a4_x3
<= 17634.621196

a4_local_8: 
+110.76923667583899658 a4_x5
+143.07669664222930805 a4_x6
+131.43295814786623055 a4_x4
<= 12491.453315

a4_act_1: 
+1.00000000000000000 a4_x1
-100.00000000000000000 a4_z1
<= 0.000000

a4_act_2: 
+1.00000000000000000 a4_x2
-100.00000000000000000 a4_z2
<= 0.000000

coupling_1: 
+0.03312111343495862 a1_x1
+0.71627497483725355 a2_x1
+27.64698834690955564 a3_x1
+616.58780434071036325 a4_x1
+4.49430643596756596 short_1
-4.49430643596756596 surp_1
= 41842.504900

coupling_2: 
+0.07836674360250009 a1_x2
+3.78323886649685637 a2_x2
+49.50872223600270416 a3_x2
+1842.11333180818360233 a4_x2
+15.58429432236314938 short_2
-15.58429432236314938 surp_2
= 132646.855147

coupling_3: 
+0.36010721919974237 a1_x3
+7.86630477738071754 a2_x3
+176.45403041332073713 a3_x3
+2224.27325535364525422 a4_x3
+29.29607711201232689 short_3
-29.29607711201232689 surp_3
= 123385.270877

bounds
  0.000000 <= a1_x1 <= 100.000000
  0.000000 <= a1_x2 <= 100.000000
  0.000000 <= a1_x3 <= 100.000000
  0.000000 <= a1_x4 <= 100.000000
  0.000000 <= a1_x5 <= 100.000000
  0.000000 <= a1_x6 <= 100.000000
  0.000000 <= a2_x1 <= 100.000000
  0.000000 <= a2_x2 <= 100.000000
  0.000000 <= a2_x3 <= 100.000000
  0.000000 <= a2_x4 <= 100.000000
  0.000000 <= a2_x5 <= 100.000000
  0.000000 <= a2_x6 <= 100.000000
  0.000000 <= a3_x1 <= 100.000000
  0.000000 <= a3_x2 <= 100.000000
  0.000000 <= a3_x3 <= 100.000000
  0.000000 <= a3_x4 <= 100.000000
  0.000000 <= a3_x5 <= 100.000000
  0.000000 <= a3_x6 <= 100.000000
  0.000000 <= a4_x1 <= 100.000000
  0.000000 <= a4_x2 <= 100.000000
  0.000000 <= a4_x3 <= 100.000000
  0.000000 <= a4_x4 <= 100.000000
  0.000000 <= a4_x5 <= 100.000000
  0.000000 <= a4_x6 <= 100.000000
  0.000000 <= short_1 <= +inf
  0.000000 <= surp_1 <= +inf
  0.000000 <= short_2 <= +inf
  0.000000 <= surp_2 <= +inf
  0.000000 <= short_3 <= +inf
  0.000000 <= surp_3 <= +inf
 0 <= a1_z1 <= 1
 0 <= a1_z2 <= 1
 0 <= a2_z1 <= 1
 0 <= a2_z2 <= 1
 0 <= a3_z1 <= 1
 0 <= a3_z2 <= 1
 0 <= a4_z1 <= 1
 0 <= a4_z2 <= 1

binary
  a1_z1
  a1_z2
  a2_z1
  a2_z2
  a3_z1
  a3_z2
  a4_z1
  a4_z2
end
