min
obj: 
  +2.37029411872895501 a1_x1
  +4.08711411622905185 a1_x2
  +7.66136637275760890 a1_x3
  +4.89991689432673461 a1_x4
  +9.18560754331382867 a1_x5
  +7.80552329567271030 a1_x6
  +17.43087311454965516 a1_z1
  +23.40237872614093462 a1_z2
  +7.13711580461956085 a2_x1
  +9.86731097874472596 a2_x2
  +9.26152928173022261 a2_x3
  +3.50078905131847584 a2_x4
  +7.16373731684462012 a2_x5
  +7.92452849914212010 a2_x6
  +12.29105339851766843 a2_z1
  +33.65890549127213660 a2_z2
  +4.07314116822603278 a3_x1
  +2.67328543975586186 a3_x2
  +9.89718173180398963 a3_x3
  +5.22112132820410846 a3_x4
  +8.01142911451852413 a3_x5
  +2.58297506253818687 a3_x6
  +49.51256436548434436 a3_z1
  +27.09261525514139990 a3_z2
  +6.63650565601125653 a4_x1
  +8.20462741556096375 a4_x2
  +7.12140565612760490 a4_x3
  +6.26647229654029836 a4_x4
  +7.50796663445631296 a4_x5
  +5.57360575198759278 a4_x6
  +9.04054185098157959 a4_z1
  +27.56107960188447947 a4_z2
  +1000000.00000000000000000 short_1
  +1000000.00000000000000000 surp_1
  +1000000.00000000000000000 short_2
  +1000000.00000000000000000 surp_2
  +1000000.00000000000000000 short_3
  +1000000.00000000000000000 surp_3

s.t.

a1_local_1: 
+0.01316564903937671 a1_x3
+0.00946176663749695 a1_x2
+0.00526001002114592 a1_x1
<= 1.950684

a1_local_2: 
+0.01118437474681652 a1_x2
+0.01353668975605790 a1_x1
+0.00804952810211425 a1_x5
<= 1.365696

a1_local_3: 
+0.00505255080316059 a1_x4
+0.00989198093616936 a1_x1
+0.01294681306198465 a1_x2
<= 1.949700

a1_local_4: 
+0.00837185102752286 a1_x2
+0.01447476557893368 a1_x5
+0.00577027258610340 a1_x1
<= 1.143587

a1_local_5: 
+0.00623024576618533 a1_x6
+0.01074608028307142 a1_x2
+0.01154817774133839 a1_x5
<= 1.240398

a1_local_6: 
+0.01358269646203064 a1_x1
+0.00924310271879218 a1_x6
+0.01154918104821212 a1_x5
<= 1.235837

a1_local_7: 
+0.01219067942332943 a1_x5
+0.01257972379803208 a1_x4
+0.01247218607757229 a1_x1
<= 1.461192

a1_local_8: 
+0.01422683553264379 a1_x6
+0.01080587983304124 a1_x5
+0.01252387394653014 a1_x2
<= 2.613963

a1_act_1: 
+1.00000000000000000 a1_x1
-100.00000000000000000 a1_z1
<= 0.000000

a1_act_2: 
+1.00000000000000000 a1_x2
-100.00000000000000000 a1_z2
<= 0.000000

a2_local_1: 
+0.28306760413865661 a2_x6
+0.29556235574817136 a2_x1
+0.31344939745007699 a2_x3
<= 60.576100

a2_local_2: 
+0.25788567369950610 a2_x5
+0.23374049545133882 a2_x4
+0.16689094321363124 a2_x2
<= 28.461379

a2_local_3: 
+0.29044283215932087 a2_x1
+0.14447145449044582 a2_x6
+0.28726585180506514 a2_x3
<= 39.378118

a2_local_4: 
+0.11365075220775571 a2_x6
+0.26873415981474785 a2_x2
+0.29696561877591282 a2_x1
<= 43.392810

a2_local_5: 
+0.26133121334726356 a2_x1
+0.16646155626945464 a2_x6
+0.27535253944301363 a2_x2
<= 27.253491

a2_local_6: 
+0.24834065219641593 a2_x2
+0.21657116516128166 a2_x3
+0.24911906405450010 a2_x5
<= 38.806848

a2_local_7: 
+0.15000670660766716 a2_x1
+0.29937277191517903 a2_x4
+0.28927494988876151 a2_x3
<= 35.602141

a2_local_8: 
+0.12529297302243531 a2_x1
+0.10949767788503528 a2_x5
+0.22234263135448182 a2_x3
<= 25.824664

a2_act_1: 
+1.00000000000000000 a2_x1
-100.00000000000000000 a2_z1
<= 0.000000

a2_act_2: 
+1.00000000000000000 a2_x2
-100.00000000000000000 a2_z2
<= 0.000000

a3_local_1: 
+3.61166722825170217 a3_x2
+2.93944253932641120 a3_x1
+4.02364042222227347 a3_x5
<= 706.922849

a3_local_2: 
+5.68176911603460066 a3_x6
+5.85415135058175906 a3_x5
+4.69162622600885815 a3_x3
<= 693.315360

a3_local_3: 
+3.86082710243379790 a3_x5
+4.21184819749845563 a3_x1
+4.95557696822197347 a3_x4
<= 591.045800

a3_local_4: 
+3.45558704280527351 a3_x5
+5.37516452107139475 a3_x2
+4.26962647742100021 a3_x6
<= 512.265379

a3_local_5: 
+6.94183975106084983 a3_x5
+4.04822355481356677 a3_x1
+5.44041442404837827 a3_x6
<= 953.633686

a3_local_6: 
+4.08040806044106130 a3_x2
+5.77632157548020064 a3_x3
+4.68062850279025255 a3_x1
<= 996.970942

a3_local_7: 
+5.81152894679319854 a3_x4
+3.07681845262874809 a3_x3
+6.70673246742731433 a3_x6
<= 661.060391

a3_local_8: 
+3.72986625907773961 a3_x5
+3.83820680452158047 a3_x6
+4.04410209095062889 a3_x4
<= 609.670002

a3_act_1: 
+1.00000000000000000 a3_x1
-100.00000000000000000 a3_z1
<= 0.000000

a3_act_2: 
+1.00000000000000000 a3_x2
-100.00000000000000000 a3_z2
<= 0.000000

a4_local_1: 
+98.08918601625762790 a4_x2
+141.80083872888764063 a4_x3
+66.14091004717093369 a4_x1
<= 11982.249706

a4_local_2: 
+92.96532918626969888 a4_x2
+118.63783508595480498 a4_x1
+107.39476495699035752 a4_x6
<= 11666.156056

a4_local_3: 
+77.22199737767606109 a4_x5
+50.12013746757391885 a4_x3
+100.36271652007171440 a4_x2
<= 12247.098202

a4_local_4: 
+133.12279907713647731 a4_x2
+102.46754041028118820 a4_x3
+129.83287565988825918 a4_x4
<= 15708.387130

a4_local_5: 
+75.80590395564870221 a4_x1
+54.29091819898435034 a4_x3
+59.01218649074292699 a4_x2
<= 7549.675122

a4_local_6: 
+54.65774481203234814 a4_x2
+82.68208677462050105 a4_x6
+147.41064643450255289 a4_x3
<= 15162.054108

a4_local_7: 
+142.26332100497305078 a4_x4
+113.92564358033277472 a4_x2
+51.19903819875653284 a4_x5
<= 12995.905099

a4_local_8: 
+133.70298958141114554 a4_x5
+131.06179207900942174 a4_x2
+61.39519444345520327 a4_x4
<= 17492.891793

a4_act_1: 
+1.00000000000000000 a4_x1
-100.00000000000000000 a4_z1
<= 0.000000

a4_act_2: 
+1.00000000000000000 a4_x2
-100.00000000000000000 a4_z2
<= 0.000000

coupling_1: 
+0.11807324756231483 a1_x1
+1.38267539672324324 a2_x1
+41.17432509089099568 a3_x1
+1037.12344042688755508 a4_x1
+8.34618174219157893 short_1
-8.34618174219157893 surp_1
= 72680.309268

coupling_2: 
+0.12615979137435288 a1_x2
+2.17142774750165080 a2_x2
+61.67529406826140814 a3_x2
+1085.63461312499339328 a4_x2
+8.93933333631377636 short_2
-8.93933333631377636 surp_2
= 75355.074174

coupling_3: 
+0.42147647553004741 a1_x3
+6.75680119177604421 a2_x3
+183.14274366798778715 a3_x3
+4973.78647470344367321 a4_x3
+38.93161755335704299 short_3
-38.93161755335704299 surp_3
= 377055.817236

bounds
  0.000000 <= a1_x1 <= 100.000000
  0.000000 <= a1_x2 <= 100.000000
  0.000000 <= a1_x3 <= 100.000000
  0.000000 <= a1_x4 <= 100.000000
  0.000000 <= a1_x5 <= 100.000000
  0.000000 <= a1_x6 <= 100.000000
  0.000000 <= a2_x1 <= 100.000000
  0.000000 <= a2_x2 <= 100.000000
  0.000000 <= a2_x3 <= 100.000000
  0.000000 <= a2_x4 <= 100.000000
  0.000000 <= a2_x5 <= 100.000000
  0.000000 <= a2_x6 <= 100.000000
  0.000000 <= a3_x1 <= 100.000000
  0.000000 <= a3_x2 <= 100.000000
  0.000000 <= a3_x3 <= 100.000000
  0.000000 <= a3_x4 <= 100.000000
  0.000000 <= a3_x5 <= 100.000000
  0.000000 <= a3_x6 <= 100.000000
  0.000000 <= a4_x1 <= 100.000000
  0.000000 <= a4_x2 <= 100.000000
  0.000000 <= a4_x3 <= 100.000000
  0.000000 <= a4_x4 <= 100.000000
  0.000000 <= a4_x5 <= 100.000000
  0.000000 <= a4_x6 <= 100.000000
  0.000000 <= short_1 <= +inf
  0.000000 <= surp_1 <= +inf
  0.000000 <= short_2 <= +inf
  0.000000 <= surp_2 <= +inf
  0.000000 <= short_3 <= +inf
  0.000000 <= surp_3 <= +inf
 0 <= a1_z1 <= 1
 0 <= a1_z2 <= 1
 0 <= a2_z1 <= 1
 0 <= a2_z2 <= 1
 0 <= a3_z1 <= 1
 0 <= a3_z2 <= 1
 0 <= a4_z1 <= 1
 0 <= a4_z2 <= 1

binary
  a1_z1
  a1_z2
  a2_z1
  a2_z2
  a3_z1
  a3_z2
  a4_z1
  a4_z2
end
