min
obj: 
  +1.57709742578195788 a1_x1
  +5.24362332399284625 a1_x2
  +8.06959664561268042 a1_x3
  +3.47810228856863679 a1_x4
  +9.41205830682384104 a1_x5
  +8.31656886029670339 a1_x6
  +34.00140095985545230 a1_z1
  +10.41050343041974102 a1_z2
  +7.41825931722322895 a2_x1
  +8.28066141375753872 a2_x2
  +6.06494311381576523 a2_x3
  +8.65417661359723311 a2_x4
  +4.32929045080204133 a2_x5
  +7.27024404204758401 a2_x6
  +22.65925838872017550 a2_z1
  +14.32924585982750010 a2_z2
  +6.57062993093993875 a3_x1
  +3.46672163395224064 a3_x2
  +8.73068689063360637 a3_x3
  +5.78731633243780319 a3_x4
  +5.65993509091970015 a3_x5
  +4.88699203046912878 a3_x6
  +21.67833706752954370 a3_z1
  +5.90058593924896702 a3_z2
  +6.06162452349797132 a4_x1
  +4.52735162287015491 a4_x2
  +9.79326185053260900 a4_x3
  +5.17425215108361947 a4_x4
  +5.44899982766291835 a4_x5
  +4.65504731238401082 a4_x6
  +25.90789863548987526 a4_z1
  +20.49298729783527051 a4_z2
  +1000000.00000000000000000 short_1
  +1000000.00000000000000000 surp_1
  +1000000.00000000000000000 short_2
  +1000000.00000000000000000 surp_2
  +1000000.00000000000000000 short_3
  +1000000.00000000000000000 surp_3

s.t.

a1_local_1: 
+0.01359635284728313 a1_x1
+0.01389983735026916 a1_x6
+0.00847749768918343 a1_x5
<= 1.892328

a1_local_2: 
+0.00683097299520006 a1_x5
+0.00906774276580820 a1_x2
+0.00500090638777078 a1_x4
<= 1.389199

a1_local_3: 
+0.00957337336886638 a1_x4
+0.01031548926056935 a1_x2
+0.00714611485549725 a1_x6
<= 1.373842

a1_local_4: 
+0.00884541300878277 a1_x3
+0.00737580391424521 a1_x4
+0.01415680219984876 a1_x1
<= 2.096832

a1_local_5: 
+0.00698803017391050 a1_x4
+0.01038217334893301 a1_x6
+0.01367313182647463 a1_x3
<= 2.116563

a1_local_6: 
+0.01090281426050855 a1_x2
+0.00817285097432050 a1_x4
+0.00594379314738457 a1_x3
<= 1.109410

a1_local_7: 
+0.00772550371581265 a1_x2
+0.00635960288872637 a1_x4
+0.01451375408366661 a1_x3
<= 1.114707

a1_local_8: 
+0.00894892949829252 a1_x6
+0.01157937428839154 a1_x4
+0.01487749256946857 a1_x3
<= 1.819015

a1_act_1: 
+1.00000000000000000 a1_x1
-100.00000000000000000 a1_z1
<= 0.000000

a1_act_2: 
+1.00000000000000000 a1_x2
-100.00000000000000000 a1_z2
<= 0.000000

a2_local_1: 
+0.16519974473781238 a2_x1
+0.15549773484180060 a2_x3
+0.28614973564456536 a2_x6
<= 35.288814

a2_local_2: 
+0.13585586133385183 a2_x2
+0.30794502961675574 a2_x3
+0.23277392761240767 a2_x5
<= 25.758628

a2_local_3: 
+0.27193773508355984 a2_x6
+0.27195786488118850 a2_x5
+0.24539620759546835 a2_x1
<= 40.257203

a2_local_4: 
+0.31234796823400807 a2_x6
+0.12919267122959416 a2_x4
+0.29067584955044695 a2_x2
<= 39.345314

a2_local_5: 
+0.18613750055171757 a2_x1
+0.15631377962156742 a2_x2
+0.22345047144837188 a2_x3
<= 33.995626

a2_local_6: 
+0.28723513179138049 a2_x4
+0.15398930945176681 a2_x6
+0.18203223809216323 a2_x1
<= 30.159441

a2_local_7: 
+0.15802026462503507 a2_x5
+0.24136644458441386 a2_x1
+0.15657609303068945 a2_x6
<= 36.828798

a2_local_8: 
+0.15712925396721730 a2_x1
+0.18134795039596788 a2_x2
+0.22133022835061780 a2_x6
<= 22.713623

a2_act_1: 
+1.00000000000000000 a2_x1
-100.00000000000000000 a2_z1
<= 0.000000

a2_act_2: 
+1.00000000000000000 a2_x2
-100.00000000000000000 a2_z2
<= 0.000000

a3_local_1: 
+4.95261442624964232 a3_x2
+5.70120286635113249 a3_x4
+3.90537049740375419 a3_x6
<= 535.911549

a3_local_2: 
+5.68597870902403724 a3_x2
+2.57681403772561612 a3_x4
+2.37801877970378639 a3_x6
<= 664.455513

a3_local_3: 
+4.37271978810529927 a3_x6
+6.70042778278510198 a3_x3
+5.14065442432994768 a3_x2
<= 1006.942977

a3_local_4: 
+6.48878362511175055 a3_x3
+6.72364445496217478 a3_x2
+3.01869714590011728 a3_x5
<= 798.611311

a3_local_5: 
+5.84671860738342097 a3_x4
+5.28680034545818511 a3_x2
+2.73458943894746831 a3_x6
<= 462.993784

a3_local_6: 
+4.51684236864717725 a3_x3
+6.60640111072297387 a3_x5
+6.42719102055362868 a3_x1
<= 879.840728

a3_local_7: 
+4.03401638037631738 a3_x2
+6.43393832479551442 a3_x3
+3.90632348806893814 a3_x5
<= 541.002022

a3_local_8: 
+3.82912730987816463 a3_x2
+3.14598122376469291 a3_x5
+5.15517218398808463 a3_x3
<= 596.078432

a3_act_1: 
+1.00000000000000000 a3_x1
-100.00000000000000000 a3_z1
<= 0.000000

a3_act_2: 
+1.00000000000000000 a3_x2
-100.00000000000000000 a3_z2
<= 0.000000

a4_local_1: 
+54.95806431946336090 a4_x4
+141.40868601021492168 a4_x5
+74.02989821628929690 a4_x1
<= 10602.088713

a4_local_2: 
+66.40409988162964794 a4_x6
+130.68785430691463034 a4_x4
+69.91306966130997580 a4_x1
<= 16826.827368

a4_local_3: 
+110.70484916385777296 a4_x1
+87.04259175912083890 a4_x3
+86.53003946197152629 a4_x4
<= 17469.469619

a4_local_4: 
+114.24015401583041296 a4_x3
+112.88921474436341441 a4_x6
+102.08682802230183029 a4_x5
<= 22215.413767

a4_local_5: 
+149.73328683873205591 a4_x4
+121.86004115751995869 a4_x5
+69.16035168262177990 a4_x6
<= 16621.949066

a4_local_6: 
+89.23374843544264934 a4_x5
+121.25653890802934143 a4_x3
+122.56958229952390127 a4_x2
<= 19267.281048

a4_local_7: 
+68.38614729163889194 a4_x6
+52.86561979887941476 a4_x3
+128.35579708471337312 a4_x4
<= 8066.871975

a4_local_8: 
+86.55849373576316452 a4_x6
+115.45036559333455273 a4_x4
+136.37189998905586208 a4_x1
<= 13945.880255

a4_act_1: 
+1.00000000000000000 a4_x1
-100.00000000000000000 a4_z1
<= 0.000000

a4_act_2: 
+1.00000000000000000 a4_x2
-100.00000000000000000 a4_z2
<= 0.000000

coupling_1: 
+0.00007876160398998 a1_x1
+0.00139792775963400 a2_x1
+0.02185679100845983 a3_x1
+0.70257035804723400 a4_x1
+0.00625884076028894 short_1
-0.00625884076028894 surp_1
= 51.194166

coupling_2: 
+0.09513782549281435 a1_x2
+1.76919608611607759 a2_x2
+57.50112095108028853 a3_x2
+1272.45352438328654898 a4_x2
+10.78078307114064138 short_2
-10.78078307114064138 surp_2
= 89555.917931

coupling_3: 
+0.20060486540454797 a1_x3
+4.82489408296334155 a2_x3
+83.04539822506475844 a3_x3
+2466.29480283476596014 a4_x3
+24.25344558593762301 short_3
-24.25344558593762301 surp_3
= 168031.090037

bounds
  0.000000 <= a1_x1 <= 100.000000
  0.000000 <= a1_x2 <= 100.000000
  0.000000 <= a1_x3 <= 100.000000
  0.000000 <= a1_x4 <= 100.000000
  0.000000 <= a1_x5 <= 100.000000
  0.000000 <= a1_x6 <= 100.000000
  0.000000 <= a2_x1 <= 100.000000
  0.000000 <= a2_x2 <= 100.000000
  0.000000 <= a2_x3 <= 100.000000
  0.000000 <= a2_x4 <= 100.000000
  0.000000 <= a2_x5 <= 100.000000
  0.000000 <= a2_x6 <= 100.000000
  0.000000 <= a3_x1 <= 100.000000
  0.000000 <= a3_x2 <= 100.000000
  0.000000 <= a3_x3 <= 100.000000
  0.000000 <= a3_x4 <= 100.000000
  0.000000 <= a3_x5 <= 100.000000
  0.000000 <= a3_x6 <= 100.000000
  0.000000 <= a4_x1 <= 100.000000
  0.000000 <= a4_x2 <= 100.000000
  0.000000 <= a4_x3 <= 100.000000
  0.000000 <= a4_x4 <= 100.000000
  0.000000 <= a4_x5 <= 100.000000
  0.000000 <= a4_x6 <= 100.000000
  0.000000 <= short_1 <= +inf
  0.000000 <= surp_1 <= +inf
  0.000000 <= short_2 <= +inf
  0.000000 <= surp_2 <= +inf
  0.000000 <= short_3 <= +inf
  0.000000 <= surp_3 <= +inf
 0 <= a1_z1 <= 1
 0 <= a1_z2 <= 1
 0 <= a2_z1 <= 1
 0 <= a2_z2 <= 1
 0 <= a3_z1 <= 1
 0 <= a3_z2 <= 1
 0 <= a4_z1 <= 1
 0 <= a4_z2 <= 1

binary
  a1_z1
  a1_z2
  a2_z1
  a2_z2
  a3_z1
  a3_z2
  a4_z1
  a4_z2
end
