min
obj: 
  +4.68205187695116365 a1_x1
  +5.71291625483064269 a1_x2
  +9.00563589084773142 a1_x3
  +9.01724711762336106 a1_x4
  +9.40638568868457803 a1_x5
  +5.77535620951187667 a1_x6
  +36.44079832510822570 a1_z1
  +20.35589591192510284 a1_z2
  +7.59221324303607314 a2_x1
  +9.57055811069523088 a2_x2
  +1.26049992587512483 a2_x3
  +5.39403189015226747 a2_x4
  +5.18163926236740036 a2_x5
  +3.59512023493198285 a2_x6
  +41.62149658815251030 a2_z1
  +8.22405720557796727 a2_z2
  +7.86202629574308798 a3_x1
  +4.44432428569451421 a3_x2
  +6.87835612826100196 a3_x3
  +6.09227189830646143 a3_x4
  +7.96998209317280093 a3_x5
  +3.38862436120579025 a3_x6
  +44.38425278971256915 a3_z1
  +46.43685776379189178 a3_z2
  +5.32725959516227121 a4_x1
  +2.14266889482626155 a4_x2
  +3.71753864038075932 a4_x3
  +7.47528281002840789 a4_x4
  +1.46230104481487744 a4_x5
  +9.33481878718765401 a4_x6
  +27.54992178484519982 a4_z1
  +29.02492698326168252 a4_z2
  +1000000.00000000000000000 short_1
  +1000000.00000000000000000 surp_1
  +1000000.00000000000000000 short_2
  +1000000.00000000000000000 surp_2
  +1000000.00000000000000000 short_3
  +1000000.00000000000000000 surp_3

s.t.

a1_local_1: 
+0.71433844523206802 a1_x4
+0.58447109877792236 a1_x2
+0.38485597352355055 a1_x6
<= 73.865137

a1_local_2: 
+0.63507832848342716 a1_x5
+0.70513762142893033 a1_x4
+0.31536716940139270 a1_x1
<= 87.462344

a1_local_3: 
+0.73282679124353733 a1_x6
+0.57933278676796429 a1_x2
+0.35684508713356994 a1_x1
<= 88.193064

a1_local_4: 
+0.69073629674759385 a1_x5
+0.45689189619863818 a1_x2
+0.56047583671683199 a1_x6
<= 61.887982

a1_local_5: 
+0.67415338813499170 a1_x6
+0.65482511177276703 a1_x2
+0.34164496521666199 a1_x1
<= 89.007604

a1_local_6: 
+0.72264038807664055 a1_x5
+0.49351272606175889 a1_x4
+0.48397939908175219 a1_x2
<= 68.392650

a1_local_7: 
+0.69642447315368705 a1_x1
+0.40880718903925833 a1_x4
+0.58980474343839362 a1_x3
<= 109.980568

a1_local_8: 
+0.49110413697685434 a1_x5
+0.62941656160882153 a1_x6
+0.60220554515609359 a1_x4
<= 65.254216

a1_act_1: 
+0.00999950003749688 a1_x1
-0.99995000374968757 a1_z1
<= 0.000000

a1_act_2: 
+0.00999950003749688 a1_x2
-0.99995000374968757 a1_z2
<= 0.000000

a2_local_1: 
+0.38951833761824839 a2_x3
+0.52478819809236765 a2_x4
+0.75688361839987128 a2_x5
<= 95.281270

a2_local_2: 
+0.40261040061091313 a2_x3
+0.57762852498900430 a2_x2
+0.71010573328128213 a2_x5
<= 106.762473

a2_local_3: 
+0.65985280170855598 a2_x4
+0.69155764060677405 a2_x6
+0.29384061971715392 a2_x5
<= 112.072365

a2_local_4: 
+0.46823612257877839 a2_x1
+0.54938211080138299 a2_x4
+0.69205074224641061 a2_x5
<= 118.719360

a2_local_5: 
+0.46815634139722812 a2_x2
+0.72579877151780448 a2_x5
+0.50402954603158712 a2_x1
<= 56.046425

a2_local_6: 
+0.71717789227412976 a2_x5
+0.53788526000785097 a2_x4
+0.44309741355544291 a2_x3
<= 113.851027

a2_local_7: 
+0.54884622668452887 a2_x3
+0.62289241071838297 a2_x5
+0.55747005670582539 a2_x6
<= 55.597240

a2_local_8: 
+0.68152136429795562 a2_x2
+0.42810071574506542 a2_x6
+0.59351361162488603 a2_x4
<= 106.984344

a2_act_1: 
+0.00999950003749688 a2_x1
-0.99995000374968757 a2_z1
<= 0.000000

a2_act_2: 
+0.00999950003749688 a2_x2
-0.99995000374968757 a2_z2
<= 0.000000

a3_local_1: 
+0.47165918475742163 a3_x2
+0.69047543130792344 a3_x6
+0.54843531267971934 a3_x5
<= 116.904255

a3_local_2: 
+0.45912010802469039 a3_x4
+0.71509657562696161 a3_x5
+0.52711062779457396 a3_x3
<= 82.575270

a3_local_3: 
+0.57103836926224250 a3_x4
+0.63428405376980923 a3_x5
+0.52115153263101566 a3_x1
<= 97.519879

a3_local_4: 
+0.67410012765829042 a3_x3
+0.31894913582251783 a3_x4
+0.66622853935353576 a3_x5
<= 67.676638

a3_local_5: 
+0.51714418357569147 a3_x5
+0.44727244801312249 a3_x3
+0.72973231437437402 a3_x2
<= 85.451339

a3_local_6: 
+0.43747467947771446 a3_x1
+0.59762406601363383 a3_x3
+0.67190875908653158 a3_x5
<= 91.632926

a3_local_7: 
+0.34973093666598259 a3_x6
+0.71086290622709902 a3_x4
+0.61021488058641860 a3_x1
<= 114.645373

a3_local_8: 
+0.62124283604109276 a3_x4
+0.52052328412134752 a3_x3
+0.58575835406347121 a3_x5
<= 56.205868

a3_act_1: 
+0.00999950003749688 a3_x1
-0.99995000374968757 a3_z1
<= 0.000000

a3_act_2: 
+0.00999950003749688 a3_x2
-0.99995000374968757 a3_z2
<= 0.000000

a4_local_1: 
+0.40619392836994894 a4_x1
+0.63037479663045715 a4_x4
+0.66153919636594372 a4_x6
<= 58.102039

a4_local_2: 
+0.67935752393686388 a4_x3
+0.54322306387818686 a4_x5
+0.49333767091229608 a4_x2
<= 77.834655

a4_local_3: 
+0.61601167301985960 a4_x5
+0.42250416838824240 a4_x1
+0.66484573127743962 a4_x3
<= 96.155774

a4_local_4: 
+0.70787620322294342 a4_x3
+0.59306796611274459 a4_x1
+0.38364263120977904 a4_x5
<= 87.315150

a4_local_5: 
+0.52441771081369926 a4_x6
+0.53802423647095943 a4_x4
+0.65993634962378034 a4_x2
<= 90.344570

a4_local_6: 
+0.73208625377010117 a4_x1
+0.53810842559023664 a4_x4
+0.41771885204004833 a4_x5
<= 69.510720

a4_local_7: 
+0.71213741234336159 a4_x2
+0.59501038812936236 a4_x5
+0.37258951133794216 a4_x4
<= 66.015852

a4_local_8: 
+0.58309573455085473 a4_x5
+0.44485242451755302 a4_x6
+0.67978355728088458 a4_x2
<= 98.894411

a4_act_1: 
+0.00999950003749688 a4_x1
-0.99995000374968757 a4_z1
<= 0.000000

a4_act_2: 
+0.00999950003749688 a4_x2
-0.99995000374968757 a4_z2
<= 0.000000

coupling_1: 
+0.00009259559960158 a1_x1
+0.00264777799235892 a2_x1
+0.02537105102064829 a3_x1
+0.99958591419230325 a4_x1
+0.00941516373206581 short_1
-0.00941516373206581 surp_1
= 25.166050

coupling_2: 
+0.00009258621315574 a1_x2
+0.00198898835697287 a2_x2
+0.04047697617185116 a3_x2
+0.99913198916872548 a4_x2
+0.00681608292343162 short_2
-0.00681608292343162 surp_2
= 80.167864

coupling_3: 
+0.00009937855274627 a1_x3
+0.00202454250612846 a2_x3
+0.05233059470408367 a3_x3
+0.99838530512152779 a4_x3
+0.01555928544077709 short_3
-0.01555928544077709 surp_3
= 40.774556

bounds
  0.000000 <= a1_x1 <= 100.000000
  0.000000 <= a1_x2 <= 100.000000
  0.000000 <= a1_x3 <= 100.000000
  0.000000 <= a1_x4 <= 100.000000
  0.000000 <= a1_x5 <= 100.000000
  0.000000 <= a1_x6 <= 100.000000
  0.000000 <= a2_x1 <= 100.000000
  0.000000 <= a2_x2 <= 100.000000
  0.000000 <= a2_x3 <= 100.000000
  0.000000 <= a2_x4 <= 100.000000
  0.000000 <= a2_x5 <= 100.000000
  0.000000 <= a2_x6 <= 100.000000
  0.000000 <= a3_x1 <= 100.000000
  0.000000 <= a3_x2 <= 100.000000
  0.000000 <= a3_x3 <= 100.000000
  0.000000 <= a3_x4 <= 100.000000
  0.000000 <= a3_x5 <= 100.000000
  0.000000 <= a3_x6 <= 100.000000
  0.000000 <= a4_x1 <= 100.000000
  0.000000 <= a4_x2 <= 100.000000
  0.000000 <= a4_x3 <= 100.000000
  0.000000 <= a4_x4 <= 100.000000
  0.000000 <= a4_x5 <= 100.000000
  0.000000 <= a4_x6 <= 100.000000
  0.000000 <= short_1 <= +inf
  0.000000 <= surp_1 <= +inf
  0.000000 <= short_2 <= +inf
  0.000000 <= surp_2 <= +inf
  0.000000 <= short_3 <= +inf
  0.000000 <= surp_3 <= +inf
 0 <= a1_z1 <= 1
 0 <= a1_z2 <= 1
 0 <= a2_z1 <= 1
 0 <= a2_z2 <= 1
 0 <= a3_z1 <= 1
 0 <= a3_z2 <= 1
 0 <= a4_z1 <= 1
 0 <= a4_z2 <= 1

binary
  a1_z1
  a1_z2
  a2_z1
  a2_z2
  a3_z1
  a3_z2
  a4_z1
  a4_z2
end
