min
obj: 
  +1.58690782181034451 a1_x1
  +1.85914319529187777 a1_x2
  +3.32311090405199927 a1_x3
  +9.20870591814637862 a1_x4
  +9.62032466035919853 a1_x5
  +2.65221673698665317 a1_x6
  +45.97121590191820673 a1_z1
  +15.23159126469524693 a1_z2
  +9.69669699253390860 a2_x1
  +9.50992409015265672 a2_x2
  +7.57539983332453648 a2_x3
  +7.25458697589536605 a2_x4
  +4.07761765395989872 a2_x5
  +7.08231795774132511 a2_x6
  +41.74035632470042145 a2_z1
  +13.29578844905750223 a2_z2
  +8.20725746769122999 a3_x1
  +8.76504266892960793 a3_x2
  +7.77977201232387294 a3_x3
  +6.04838547653606717 a3_x4
  +6.48681552366104786 a3_x5
  +7.59141867997845843 a3_x6
  +13.33539359650109901 a3_z1
  +17.07642873173313092 a3_z2
  +4.07491661896622936 a4_x1
  +3.95786841150633606 a4_x2
  +4.77265222387028487 a4_x3
  +6.62265288598760282 a4_x4
  +9.50730455200969438 a4_x5
  +5.10859874083684673 a4_x6
  +30.99543174940450641 a4_z1
  +14.10084107909216655 a4_z2
  +1000000.00000000000000000 short_1
  +1000000.00000000000000000 surp_1
  +1000000.00000000000000000 short_2
  +1000000.00000000000000000 surp_2
  +1000000.00000000000000000 short_3
  +1000000.00000000000000000 surp_3

s.t.

a1_local_1: 
+0.00690268133491354 a1_x4
+0.00894643314449356 a1_x1
+0.00635358487436520 a1_x3
<= 0.984346

a1_local_2: 
+0.01444907088723310 a1_x3
+0.01277112042209171 a1_x5
+0.00868113116442125 a1_x2
<= 1.781076

a1_local_3: 
+0.00762325458417165 a1_x1
+0.01106717930055985 a1_x2
+0.00657222972948278 a1_x5
<= 1.584145

a1_local_4: 
+0.00937654169818772 a1_x3
+0.01313948938872420 a1_x5
+0.01313032178279503 a1_x6
<= 2.344619

a1_local_5: 
+0.01053883802527871 a1_x4
+0.01198812467565149 a1_x5
+0.01170243943855739 a1_x6
<= 1.845652

a1_local_6: 
+0.01294852795625637 a1_x4
+0.01361360813836612 a1_x6
+0.01498239128979580 a1_x1
<= 2.699920

a1_local_7: 
+0.00929125447328294 a1_x5
+0.00807406164132659 a1_x2
+0.00815004070853969 a1_x4
<= 0.927029

a1_local_8: 
+0.01209891343047261 a1_x2
+0.00977057575728271 a1_x6
+0.01356848239594952 a1_x3
<= 1.298950

a1_act_1: 
+1.00000000000000000 a1_x1
-100.00000000000000000 a1_z1
<= 0.000000

a1_act_2: 
+1.00000000000000000 a1_x2
-100.00000000000000000 a1_z2
<= 0.000000

a2_local_1: 
+0.13365419029945028 a2_x5
+0.23737388165685852 a2_x3
+0.28976664644406114 a2_x6
<= 21.553319

a2_local_2: 
+0.28000331070837847 a2_x5
+0.24134323456578641 a2_x1
+0.22265403318157642 a2_x4
<= 45.912125

a2_local_3: 
+0.28912304805729550 a2_x6
+0.17321560989995410 a2_x1
+0.23445624434686604 a2_x3
<= 37.962747

a2_local_4: 
+0.13135316310508499 a2_x4
+0.31041178322239127 a2_x2
+0.25333592377402947 a2_x5
<= 31.809586

a2_local_5: 
+0.23559003935060344 a2_x5
+0.29600719351001215 a2_x3
+0.26335303962612805 a2_x1
<= 43.454864

a2_local_6: 
+0.27300710559321728 a2_x6
+0.11364057087252194 a2_x2
+0.31985355484817302 a2_x1
<= 35.685825

a2_local_7: 
+0.25572075898544272 a2_x2
+0.22612710883421266 a2_x1
+0.24543479729224604 a2_x3
<= 23.405172

a2_local_8: 
+0.19362475047231015 a2_x6
+0.16147518977143038 a2_x3
+0.16082162821731882 a2_x5
<= 24.647911

a2_act_1: 
+1.00000000000000000 a2_x1
-100.00000000000000000 a2_z1
<= 0.000000

a2_act_2: 
+1.00000000000000000 a2_x2
-100.00000000000000000 a2_z2
<= 0.000000

a3_local_1: 
+5.97843125894153182 a3_x2
+5.12817493796218749 a3_x3
+3.14065321765048777 a3_x1
<= 476.528025

a3_local_2: 
+3.91786776366289535 a3_x6
+6.39916920323226890 a3_x2
+2.48165070496683793 a3_x3
<= 624.121955

a3_local_3: 
+4.44366596060428609 a3_x4
+3.44537753209068276 a3_x2
+3.04799843206157606 a3_x3
<= 378.574376

a3_local_4: 
+3.95278896917627742 a3_x4
+4.40671150659970756 a3_x1
+3.14881562088348499 a3_x3
<= 647.730979

a3_local_5: 
+2.84435669305748418 a3_x3
+2.86001795644677070 a3_x4
+3.47146165842011234 a3_x6
<= 307.819006

a3_local_6: 
+5.48009561483220065 a3_x3
+3.70044262186889439 a3_x4
+4.74882718279558347 a3_x5
<= 888.907885

a3_local_7: 
+3.51832681348239662 a3_x5
+4.48866688143244374 a3_x6
+5.00548225533340929 a3_x2
<= 652.786468

a3_local_8: 
+5.72616584957933483 a3_x4
+6.51385229417880129 a3_x6
+5.69834758081610016 a3_x5
<= 603.391821

a3_act_1: 
+1.00000000000000000 a3_x1
-100.00000000000000000 a3_z1
<= 0.000000

a3_act_2: 
+1.00000000000000000 a3_x2
-100.00000000000000000 a3_z2
<= 0.000000

a4_local_1: 
+141.40647442705221692 a4_x4
+67.45984459005038048 a4_x6
+135.46757298857303908 a4_x5
<= 13856.010936

a4_local_2: 
+61.51356290711942165 a4_x5
+92.14301242436570760 a4_x4
+84.72641343194426611 a4_x2
<= 7538.816059

a4_local_3: 
+121.70123597254325887 a4_x4
+147.49173049235579924 a4_x2
+66.46893601915810734 a4_x1
<= 14831.914174

a4_local_4: 
+111.40687811464198376 a4_x6
+126.31070872433252816 a4_x1
+62.34350342977629111 a4_x5
<= 20111.782838

a4_local_5: 
+91.77213885219295264 a4_x3
+50.03204168375408045 a4_x6
+137.23199515990120290 a4_x1
<= 16380.159401

a4_local_6: 
+100.09553427829484917 a4_x5
+71.49482573660684182 a4_x2
+73.48775055255478605 a4_x1
<= 13087.970601

a4_local_7: 
+122.97370265999001049 a4_x2
+58.90230885163019536 a4_x4
+59.78649832561622190 a4_x1
<= 15149.087935

a4_local_8: 
+147.40553525210521002 a4_x6
+75.31012195796471076 a4_x5
+102.18419378822585486 a4_x4
<= 12571.551588

a4_act_1: 
+1.00000000000000000 a4_x1
-100.00000000000000000 a4_z1
<= 0.000000

a4_act_2: 
+1.00000000000000000 a4_x2
-100.00000000000000000 a4_z2
<= 0.000000

coupling_1: 
+7.64782156267017843 a1_x1
+76.14593609630396998 a2_x1
+2135.18940440259029856 a3_x1
+54319.64284856455196859 a4_x1
+549.18467169771736280 short_1
-549.18467169771736280 surp_1
= 3277459.039690

coupling_2: 
+1.88330132467776967 a1_x2
+37.64861387009553795 a2_x2
+960.04895684015787083 a3_x2
+19906.50055916798737599 a4_x2
+199.56948812186320197 short_2
-199.56948812186320197 surp_2
= 926067.035208

coupling_3: 
+0.79448117997772072 a1_x3
+10.67721986745286422 a2_x3
+378.51722754694526429 a3_x3
+7265.35011179146385984 a4_x3
+54.51544295031281706 short_3
-54.51544295031281706 surp_3
= 336662.247867

bounds
  0.000000 <= a1_x1 <= 100.000000
  0.000000 <= a1_x2 <= 100.000000
  0.000000 <= a1_x3 <= 100.000000
  0.000000 <= a1_x4 <= 100.000000
  0.000000 <= a1_x5 <= 100.000000
  0.000000 <= a1_x6 <= 100.000000
  0.000000 <= a2_x1 <= 100.000000
  0.000000 <= a2_x2 <= 100.000000
  0.000000 <= a2_x3 <= 100.000000
  0.000000 <= a2_x4 <= 100.000000
  0.000000 <= a2_x5 <= 100.000000
  0.000000 <= a2_x6 <= 100.000000
  0.000000 <= a3_x1 <= 100.000000
  0.000000 <= a3_x2 <= 100.000000
  0.000000 <= a3_x3 <= 100.000000
  0.000000 <= a3_x4 <= 100.000000
  0.000000 <= a3_x5 <= 100.000000
  0.000000 <= a3_x6 <= 100.000000
  0.000000 <= a4_x1 <= 100.000000
  0.000000 <= a4_x2 <= 100.000000
  0.000000 <= a4_x3 <= 100.000000
  0.000000 <= a4_x4 <= 100.000000
  0.000000 <= a4_x5 <= 100.000000
  0.000000 <= a4_x6 <= 100.000000
  0.000000 <= short_1 <= +inf
  0.000000 <= surp_1 <= +inf
  0.000000 <= short_2 <= +inf
  0.000000 <= surp_2 <= +inf
  0.000000 <= short_3 <= +inf
  0.000000 <= surp_3 <= +inf
 0 <= a1_z1 <= 1
 0 <= a1_z2 <= 1
 0 <= a2_z1 <= 1
 0 <= a2_z2 <= 1
 0 <= a3_z1 <= 1
 0 <= a3_z2 <= 1
 0 <= a4_z1 <= 1
 0 <= a4_z2 <= 1

binary
  a1_z1
  a1_z2
  a2_z1
  a2_z2
  a3_z1
  a3_z2
  a4_z1
  a4_z2
end
