min
obj: 
  +1.58690782181034451 a1_x1
  +1.85914319529187777 a1_x2
  +3.32311090405199927 a1_x3
  +9.20870591814637862 a1_x4
  +9.62032466035919853 a1_x5
  +2.65221673698665317 a1_x6
  +45.97121590191820673 a1_z1
  +15.23159126469524693 a1_z2
  +9.69669699253390860 a2_x1
  +9.50992409015265672 a2_x2
  +7.57539983332453648 a2_x3
  +7.25458697589536605 a2_x4
  +4.07761765395989872 a2_x5
  +7.08231795774132511 a2_x6
  +41.74035632470042145 a2_z1
  +13.29578844905750223 a2_z2
  +8.20725746769122999 a3_x1
  +8.76504266892960793 a3_x2
  +7.77977201232387294 a3_x3
  +6.04838547653606717 a3_x4
  +6.48681552366104786 a3_x5
  +7.59141867997845843 a3_x6
  +13.33539359650109901 a3_z1
  +17.07642873173313092 a3_z2
  +4.07491661896622936 a4_x1
  +3.95786841150633606 a4_x2
  +4.77265222387028487 a4_x3
  +6.62265288598760282 a4_x4
  +9.50730455200969438 a4_x5
  +5.10859874083684673 a4_x6
  +30.99543174940450641 a4_z1
  +14.10084107909216655 a4_z2
  +1000000.00000000000000000 short_1
  +1000000.00000000000000000 surp_1
  +1000000.00000000000000000 short_2
  +1000000.00000000000000000 surp_2
  +1000000.00000000000000000 short_3
  +1000000.00000000000000000 surp_3

s.t.

a1_local_1: 
+0.53246830785528043 a1_x4
+0.69012198110526712 a1_x1
+0.49011136726776261 a1_x3
<= 75.931814

a1_local_2: 
+0.68323481545607490 a1_x3
+0.60389170852950547 a1_x5
+0.41049359473445873 a1_x2
<= 84.219465

a1_local_3: 
+0.50958828296615233 a1_x1
+0.73980277515074666 a1_x2
+0.43933089550231103 a1_x5
<= 105.894599

a1_local_4: 
+0.45062289360061841 a1_x3
+0.63146466142478863 a1_x5
+0.63102407967896323 a1_x6
<= 112.678985

a1_local_5: 
+0.53247556794846995 a1_x4
+0.60570088277220469 a1_x5
+0.59126661511278178 a1_x6
<= 93.251726

a1_local_6: 
+0.53883637614146040 a1_x4
+0.56651283452979539 a1_x6
+0.62347298903782133 a1_x1
<= 112.353690

a1_local_7: 
+0.62936826550831781 a1_x5
+0.54691841509895278 a1_x2
+0.55206506282928380 a1_x4
<= 62.794794

a1_local_8: 
+0.58622759388607071 a1_x2
+0.47341285231839841 a1_x6
+0.65743249039449403 a1_x3
<= 62.937929

a1_act_1: 
+0.00999950003749688 a1_x1
-0.99995000374968757 a1_z1
<= 0.000000

a1_act_2: 
+0.00999950003749688 a1_x2
-0.99995000374968757 a1_z2
<= 0.000000

a2_local_1: 
+0.33605806935615096 a2_x5
+0.59684928849931784 a2_x3
+0.72858486179612203 a2_x6
<= 54.193338

a2_local_2: 
+0.64885288438045774 a2_x5
+0.55926572252859474 a2_x1
+0.51595715523261165 a2_x4
<= 106.392367

a2_local_3: 
+0.70420377354837282 a2_x6
+0.42189333209041840 a2_x1
+0.57105434212330108 a2_x3
<= 92.464126

a2_local_4: 
+0.31152223204326313 a2_x4
+0.73618456743677285 a2_x2
+0.60082125595780544 a2_x5
<= 75.440843

a2_local_5: 
+0.51109331040276573 a2_x5
+0.64216338199646661 a2_x3
+0.57132286746147509 a2_x1
<= 94.271771

a2_local_6: 
+0.62672817374121104 a2_x6
+0.26087873167654946 a2_x2
+0.73427112403923489 a2_x1
<= 81.922087

a2_local_7: 
+0.60823032939991040 a2_x2
+0.53784200562423667 a2_x1
+0.58376522968071232 a2_x3
<= 55.669065

a2_local_8: 
+0.64747528664165765 a2_x6
+0.53996813179999203 a2_x3
+0.53778264180682689 a2_x5
<= 82.421865

a2_act_1: 
+0.00999950003749688 a2_x1
-0.99995000374968757 a2_z1
<= 0.000000

a2_act_2: 
+0.00999950003749688 a2_x2
-0.99995000374968757 a2_z2
<= 0.000000

a3_local_1: 
+0.70503740847773999 a3_x2
+0.60476653688604620 a3_x3
+0.37037776459967331 a3_x1
<= 56.197031

a3_local_2: 
+0.49574343623345007 a3_x6
+0.80971240511796705 a3_x2
+0.31401316282845310 a3_x3
<= 78.972641

a3_local_3: 
+0.69477170374508623 a3_x4
+0.53868829008248909 a3_x2
+0.47655766262138111 a3_x3
<= 59.190490

a3_local_4: 
+0.58951766107536552 a3_x4
+0.65721552065197220 a3_x1
+0.46961333743238964 a3_x3
<= 96.602388

a3_local_5: 
+0.53447684292787667 a3_x3
+0.53741971666554778 a3_x4
+0.65231476490492857 a3_x6
<= 57.841596

a3_local_6: 
+0.67314669660253024 a3_x3
+0.45454329667832338 a3_x4
+0.58332145194386864 a3_x5
<= 109.188862

a3_local_7: 
+0.46365429726410090 a3_x5
+0.59152824592302922 a3_x6
+0.65963552580478624 a3_x2
<= 86.025906

a3_local_8: 
+0.55179200407085471 a3_x4
+0.62769603711190192 a3_x6
+0.54911134502711179 a3_x5
<= 58.144802

a3_act_1: 
+0.00999950003749688 a3_x1
-0.99995000374968757 a3_z1
<= 0.000000

a3_act_2: 
+0.00999950003749688 a3_x2
-0.99995000374968757 a3_z2
<= 0.000000

a4_local_1: 
+0.68273213045907311 a4_x4
+0.32570646856175339 a4_x6
+0.65405820411936333 a4_x5
<= 66.898944

a4_local_2: 
+0.44104166329832900 a4_x5
+0.66064954687021393 a4_x4
+0.60747380804049833 a4_x2
<= 54.052014

a4_local_3: 
+0.60116332172399312 a4_x4
+0.72855972185531837 a4_x2
+0.32833426915854536 a4_x1
<= 73.264686

a4_local_4: 
+0.62033979026957808 a4_x6
+0.70332783652929676 a4_x1
+0.34714334066969316 a4_x5
<= 111.987153

a4_local_5: 
+0.53199719226271047 a4_x3
+0.29003253091656628 a4_x6
+0.79552505833237175 a4_x1
<= 94.954732

a4_local_6: 
+0.69856826325990240 a4_x5
+0.49896348130808560 a4_x2
+0.51287213405190935 a4_x1
<= 91.341147

a4_local_7: 
+0.82597002230669148 a4_x2
+0.39562557118909619 a4_x4
+0.40156435308924621 a4_x1
<= 101.750962

a4_local_8: 
+0.75775525407884980 a4_x6
+0.38714041844742531 a4_x5
+0.52528970227889493 a4_x4
<= 64.625519

a4_act_1: 
+0.00999950003749688 a4_x1
-0.99995000374968757 a4_z1
<= 0.000000

a4_act_2: 
+0.00999950003749688 a4_x2
-0.99995000374968757 a4_z2
<= 0.000000

coupling_1: 
+0.00014066978836753 a1_x1
+0.00140058611827429 a2_x1
+0.03927348973568878 a3_x1
+0.99912538506450088 a4_x1
+0.01010139827522823 short_1
-0.01010139827522823 surp_1
= 60.283764

coupling_2: 
+0.00009448787618771 a1_x2
+0.00188888390794556 a2_x2
+0.04816700640486810 a3_x2
+0.99873713012282894 a4_x2
+0.01001268189928619 short_2
-0.01001268189928619 surp_2
= 46.462086

coupling_3: 
+0.00010919772920580 a1_x3
+0.00146753402489610 a2_x3
+0.05202542584402143 a3_x3
+0.99858845506570926 a4_x3
+0.00749289313182905 short_3
-0.00749289313182905 surp_3
= 46.272654

bounds
  0.000000 <= a1_x1 <= 100.000000
  0.000000 <= a1_x2 <= 100.000000
  0.000000 <= a1_x3 <= 100.000000
  0.000000 <= a1_x4 <= 100.000000
  0.000000 <= a1_x5 <= 100.000000
  0.000000 <= a1_x6 <= 100.000000
  0.000000 <= a2_x1 <= 100.000000
  0.000000 <= a2_x2 <= 100.000000
  0.000000 <= a2_x3 <= 100.000000
  0.000000 <= a2_x4 <= 100.000000
  0.000000 <= a2_x5 <= 100.000000
  0.000000 <= a2_x6 <= 100.000000
  0.000000 <= a3_x1 <= 100.000000
  0.000000 <= a3_x2 <= 100.000000
  0.000000 <= a3_x3 <= 100.000000
  0.000000 <= a3_x4 <= 100.000000
  0.000000 <= a3_x5 <= 100.000000
  0.000000 <= a3_x6 <= 100.000000
  0.000000 <= a4_x1 <= 100.000000
  0.000000 <= a4_x2 <= 100.000000
  0.000000 <= a4_x3 <= 100.000000
  0.000000 <= a4_x4 <= 100.000000
  0.000000 <= a4_x5 <= 100.000000
  0.000000 <= a4_x6 <= 100.000000
  0.000000 <= short_1 <= +inf
  0.000000 <= surp_1 <= +inf
  0.000000 <= short_2 <= +inf
  0.000000 <= surp_2 <= +inf
  0.000000 <= short_3 <= +inf
  0.000000 <= surp_3 <= +inf
 0 <= a1_z1 <= 1
 0 <= a1_z2 <= 1
 0 <= a2_z1 <= 1
 0 <= a2_z2 <= 1
 0 <= a3_z1 <= 1
 0 <= a3_z2 <= 1
 0 <= a4_z1 <= 1
 0 <= a4_z2 <= 1

binary
  a1_z1
  a1_z2
  a2_z1
  a2_z2
  a3_z1
  a3_z2
  a4_z1
  a4_z2
end
