min
obj: 
  +9.92789069156587445 a1_x1
  +4.10293210566149646 a1_x2
  +3.32901181929639423 a1_x3
  +9.10176472428019245 a1_x4
  +1.02767819950250816 a1_x5
  +7.50152284301075145 a1_x6
  +48.47610588570461232 a1_z1
  +46.46239370281180214 a1_z2
  +6.93758052846583873 a2_x1
  +8.73612443817434503 a2_x2
  +2.04228756855595339 a2_x3
  +7.91416373752481395 a2_x4
  +8.85104976446995906 a2_x5
  +5.35890260317347789 a2_x6
  +22.32551298055883748 a2_z1
  +43.59910462783197715 a2_z2
  +2.44474458582316245 a3_x1
  +8.77121756982191414 a3_x2
  +5.76281450528001393 a3_x3
  +8.52709380603204359 a3_x4
  +1.13892657158295396 a3_x5
  +2.91144295006929399 a3_x6
  +15.13786411581276603 a3_z1
  +21.64888772902043002 a3_z2
  +4.31354625098332889 a4_x1
  +3.73746776663401503 a4_x2
  +6.30470396079639350 a4_x3
  +7.23244248154489888 a4_x4
  +3.53129435828251648 a4_x5
  +2.19432544763669313 a4_x6
  +13.98335585286305616 a4_z1
  +25.76781967633817416 a4_z2
  +1000000.00000000000000000 short_1
  +1000000.00000000000000000 surp_1
  +1000000.00000000000000000 short_2
  +1000000.00000000000000000 surp_2
  +1000000.00000000000000000 short_3
  +1000000.00000000000000000 surp_3

s.t.

a1_local_1: 
+0.64487030906653120 a1_x4
+0.62715795005958974 a1_x6
+0.43682398075367784 a1_x1
<= 68.134169

a1_local_2: 
+0.59341904434827586 a1_x4
+0.51470656828939620 a1_x3
+0.61881417757234047 a1_x5
<= 87.107505

a1_local_3: 
+0.42156404829575267 a1_x4
+0.52924120877758873 a1_x3
+0.73633382111385659 a1_x2
<= 90.781971

a1_local_4: 
+0.57098764821340886 a1_x4
+0.72026599000039815 a1_x5
+0.39394163176347169 a1_x2
<= 110.402227

a1_local_5: 
+0.71095354765033913 a1_x2
+0.30548502185222132 a1_x1
+0.63342241396034049 a1_x6
<= 83.122943

a1_local_6: 
+0.35918304043566246 a1_x3
+0.72825087008787792 a1_x5
+0.58364219662361805 a1_x4
<= 114.477125

a1_local_7: 
+0.41594824736734476 a1_x6
+0.46230644877178778 a1_x4
+0.78310906196777763 a1_x3
<= 55.679404

a1_local_8: 
+0.68853074985386409 a1_x1
+0.37708187307670138 a1_x3
+0.61946320915986774 a1_x4
<= 102.517762

a1_act_1: 
+0.00999950003749688 a1_x1
-0.99995000374968757 a1_z1
<= 0.000000

a1_act_2: 
+0.00999950003749688 a1_x2
-0.99995000374968757 a1_z2
<= 0.000000

a2_local_1: 
+0.44463472549717409 a2_x3
+0.42946099803663429 a2_x1
+0.78604275459254147 a2_x6
<= 99.848636

a2_local_2: 
+0.38623470398633430 a2_x4
+0.68956230628680104 a2_x1
+0.61263902845396390 a2_x5
<= 59.365411

a2_local_3: 
+0.26798414590432956 a2_x2
+0.63206844480409485 a2_x5
+0.72709970336045382 a2_x1
<= 83.990333

a2_local_4: 
+0.61132284953184846 a2_x2
+0.59031462912152288 a2_x1
+0.52707970202368792 a2_x4
<= 96.282683

a2_local_5: 
+0.46083535089669581 a2_x4
+0.61866351357893934 a2_x5
+0.63630671560976060 a2_x2
<= 66.549694

a2_local_6: 
+0.58578923820273943 a2_x1
+0.67823695214596613 a2_x2
+0.44367285825211900 a2_x3
<= 111.559779

a2_local_7: 
+0.49589496813760747 a2_x1
+0.55984219973679850 a2_x2
+0.66382595005744072 a2_x4
<= 109.778790

a2_local_8: 
+0.31401648478168342 a2_x6
+0.73040356462989209 a2_x3
+0.60655113557003726 a2_x5
<= 74.330541

a2_act_1: 
+0.00999950003749688 a2_x1
-0.99995000374968757 a2_z1
<= 0.000000

a2_act_2: 
+0.00999950003749688 a2_x2
-0.99995000374968757 a2_z2
<= 0.000000

a3_local_1: 
+0.67563906867660972 a3_x4
+0.26028406235977947 a3_x6
+0.68975651918578773 a3_x3
<= 69.658564

a3_local_2: 
+0.60465004494781682 a3_x6
+0.59636928788082255 a3_x4
+0.52796022162386802 a3_x3
<= 68.987907

a3_local_3: 
+0.67841394787247555 a3_x2
+0.49594632786713544 a3_x1
+0.54202560382991671 a3_x4
<= 79.043390

a3_local_4: 
+0.42270316114413720 a3_x5
+0.45427196029214911 a3_x3
+0.78419323106685990 a3_x2
<= 96.628839

a3_local_5: 
+0.32061076179745063 a3_x1
+0.43538706840208602 a3_x2
+0.84121747490639764 a3_x5
<= 55.614325

a3_local_6: 
+0.65576841122668783 a3_x6
+0.56129592973246700 a3_x4
+0.50489075066096301 a3_x2
<= 101.001271

a3_local_7: 
+0.78080195138319797 a3_x2
+0.47951594796831615 a3_x3
+0.40051562810986185 a3_x5
<= 86.885050

a3_local_8: 
+0.34060344929533887 a3_x5
+0.45625349258386411 a3_x2
+0.82208396215541357 a3_x3
<= 92.272891

a3_act_1: 
+0.00999950003749688 a3_x1
-0.99995000374968757 a3_z1
<= 0.000000

a3_act_2: 
+0.00999950003749688 a3_x2
-0.99995000374968757 a3_z2
<= 0.000000

a4_local_1: 
+0.36699818472717499 a4_x1
+0.74207918488137992 a4_x4
+0.56091961614187191 a4_x6
<= 71.694710

a4_local_2: 
+0.61634848862001845 a4_x6
+0.61544738491702700 a4_x3
+0.49126271685790707 a4_x4
<= 115.251273

a4_local_3: 
+0.43676241026318630 a4_x1
+0.82698009021235541 a4_x2
+0.35403746605897052 a4_x5
<= 56.950894

a4_local_4: 
+0.61978555737435792 a4_x4
+0.51614602404951659 a4_x5
+0.59115069544747401 a4_x1
<= 62.896360

a4_local_5: 
+0.35193122180860054 a4_x4
+0.77168593554715237 a4_x6
+0.52975959830381714 a4_x2
<= 112.597205

a4_local_6: 
+0.65918409742660733 a4_x6
+0.60633725015088269 a4_x2
+0.44478249153865645 a4_x3
<= 86.392049

a4_local_7: 
+0.71214253670041727 a4_x6
+0.62590084556639336 a4_x3
+0.31796405290719371 a4_x4
<= 103.084703

a4_local_8: 
+0.55491793394775091 a4_x2
+0.54548558684238690 a4_x4
+0.62810155319850658 a4_x3
<= 78.595428

a4_act_1: 
+0.00999950003749688 a4_x1
-0.99995000374968757 a4_z1
<= 0.000000

a4_act_2: 
+0.00999950003749688 a4_x2
-0.99995000374968757 a4_z2
<= 0.000000

coupling_1: 
+0.00024845053411702 a1_x1
+0.00312437953837139 a2_x1
+0.11457332824529838 a3_x1
+0.99305260641036219 a4_x1
+0.01883679751462274 short_1
-0.01883679751462274 surp_1
= 49.414444

coupling_2: 
+0.00009050281140713 a1_x2
+0.00326629189538001 a2_x2
+0.04606775332606650 a3_x2
+0.99873880261145376 a4_x2
+0.01392640312901246 short_2
-0.01392640312901246 surp_2
= 49.614787

coupling_3: 
+0.00013834924500797 a1_x3
+0.00141917093854662 a2_x3
+0.04512216371961553 a3_x3
+0.99882816707159872 a4_x3
+0.01233389271447381 short_3
-0.01233389271447381 surp_3
= 70.553843

bounds
  0.000000 <= a1_x1 <= 100.000000
  0.000000 <= a1_x2 <= 100.000000
  0.000000 <= a1_x3 <= 100.000000
  0.000000 <= a1_x4 <= 100.000000
  0.000000 <= a1_x5 <= 100.000000
  0.000000 <= a1_x6 <= 100.000000
  0.000000 <= a2_x1 <= 100.000000
  0.000000 <= a2_x2 <= 100.000000
  0.000000 <= a2_x3 <= 100.000000
  0.000000 <= a2_x4 <= 100.000000
  0.000000 <= a2_x5 <= 100.000000
  0.000000 <= a2_x6 <= 100.000000
  0.000000 <= a3_x1 <= 100.000000
  0.000000 <= a3_x2 <= 100.000000
  0.000000 <= a3_x3 <= 100.000000
  0.000000 <= a3_x4 <= 100.000000
  0.000000 <= a3_x5 <= 100.000000
  0.000000 <= a3_x6 <= 100.000000
  0.000000 <= a4_x1 <= 100.000000
  0.000000 <= a4_x2 <= 100.000000
  0.000000 <= a4_x3 <= 100.000000
  0.000000 <= a4_x4 <= 100.000000
  0.000000 <= a4_x5 <= 100.000000
  0.000000 <= a4_x6 <= 100.000000
  0.000000 <= short_1 <= +inf
  0.000000 <= surp_1 <= +inf
  0.000000 <= short_2 <= +inf
  0.000000 <= surp_2 <= +inf
  0.000000 <= short_3 <= +inf
  0.000000 <= surp_3 <= +inf
 0 <= a1_z1 <= 1
 0 <= a1_z2 <= 1
 0 <= a2_z1 <= 1
 0 <= a2_z2 <= 1
 0 <= a3_z1 <= 1
 0 <= a3_z2 <= 1
 0 <= a4_z1 <= 1
 0 <= a4_z2 <= 1

binary
  a1_z1
  a1_z2
  a2_z1
  a2_z2
  a3_z1
  a3_z2
  a4_z1
  a4_z2
end
