min
obj: 
  +1.58690782181034451 a1_x1
  +1.85914319529187777 a1_x2
  +3.32311090405199927 a1_x3
  +9.20870591814637862 a1_x4
  +9.62032466035919853 a1_x5
  +2.65221673698665317 a1_x6
  +45.97121590191820673 a1_z1
  +15.23159126469524693 a1_z2
  +9.69669699253390860 a2_x1
  +9.50992409015265672 a2_x2
  +7.57539983332453648 a2_x3
  +7.25458697589536605 a2_x4
  +4.07761765395989872 a2_x5
  +7.08231795774132511 a2_x6
  +41.74035632470042145 a2_z1
  +13.29578844905750223 a2_z2
  +8.20725746769122999 a3_x1
  +8.76504266892960793 a3_x2
  +7.77977201232387294 a3_x3
  +6.04838547653606717 a3_x4
  +6.48681552366104786 a3_x5
  +7.59141867997845843 a3_x6
  +13.33539359650109901 a3_z1
  +17.07642873173313092 a3_z2
  +4.07491661896622936 a4_x1
  +3.95786841150633606 a4_x2
  +4.77265222387028487 a4_x3
  +6.62265288598760282 a4_x4
  +9.50730455200969438 a4_x5
  +5.10859874083684673 a4_x6
  +30.99543174940450641 a4_z1
  +14.10084107909216655 a4_z2
  +1000000.00000000000000000 short_1
  +1000000.00000000000000000 surp_1
  +1000000.00000000000000000 short_2
  +1000000.00000000000000000 surp_2
  +1000000.00000000000000000 short_3
  +1000000.00000000000000000 surp_3

s.t.

a1_local_1: 
+0.06902681334913542 a1_x4
+0.08946433144493565 a1_x1
+0.06353584874365197 a1_x3
<= 9.843461

a1_local_2: 
+0.14449070887233104 a1_x3
+0.12771120422091706 a1_x5
+0.08681131164421248 a1_x2
<= 17.810758

a1_local_3: 
+0.07623254584171649 a1_x1
+0.11067179300559848 a1_x2
+0.06572229729482777 a1_x5
<= 15.841445

a1_local_4: 
+0.09376541698187718 a1_x3
+0.13139489388724201 a1_x5
+0.13130321782795032 a1_x6
<= 23.446195

a1_local_5: 
+0.10538838025278714 a1_x4
+0.11988124675651493 a1_x5
+0.11702439438557387 a1_x6
<= 18.456524

a1_local_6: 
+0.12948527956256367 a1_x4
+0.13613608138366118 a1_x6
+0.14982391289795802 a1_x1
<= 26.999196

a1_local_7: 
+0.09291254473282938 a1_x5
+0.08074061641326594 a1_x2
+0.08150040708539695 a1_x4
<= 9.270286

a1_local_8: 
+0.12098913430472608 a1_x2
+0.09770575757282707 a1_x6
+0.13568482395949522 a1_x3
<= 12.989504

a1_act_1: 
+1.00000000000000000 a1_x1
-100.00000000000000000 a1_z1
<= 0.000000

a1_act_2: 
+1.00000000000000000 a1_x2
-100.00000000000000000 a1_z2
<= 0.000000

a2_local_1: 
+0.28794922404925860 a2_x5
+0.51140652514905904 a2_x3
+0.62428331511328938 a2_x6
<= 46.435218

a2_local_2: 
+0.60324884591390660 a2_x5
+0.51995823675303232 a2_x1
+0.47969357296189841 a2_x4
<= 98.914675

a2_local_3: 
+0.62289672442239286 a2_x6
+0.37318171882349138 a2_x1
+0.50512066611548001 a2_x3
<= 81.788260

a2_local_4: 
+0.28299181123901129 a2_x4
+0.66876191396897688 a2_x2
+0.54579570241004216 a2_x5
<= 68.531676

a2_local_5: 
+0.50756335340291669 a2_x5
+0.63772816619695083 a2_x3
+0.56737692429587161 a2_x1
<= 93.620667

a2_local_6: 
+0.58817597891522488 a2_x6
+0.24483118808278814 a2_x2
+0.68910359429491985 a2_x1
<= 76.882779

a2_local_7: 
+0.55093367411952043 a2_x2
+0.48717608762904308 a2_x1
+0.52877324142735838 a2_x3
<= 50.424915

a2_local_8: 
+0.41715187926631236 a2_x6
+0.34788775042305126 a2_x3
+0.34647969473880214 a2_x5
<= 53.102314

a2_act_1: 
+1.00000000000000000 a2_x1
-100.00000000000000000 a2_z1
<= 0.000000

a2_act_2: 
+1.00000000000000000 a2_x2
-100.00000000000000000 a2_z2
<= 0.000000

a3_local_1: 
+2.77494197740246040 a3_x2
+2.38028795288582007 a3_x3
+1.45776209052965489 a3_x1
<= 221.184716

a3_local_2: 
+1.81851312633891671 a3_x6
+2.97023123181216864 a3_x2
+1.15188022011013569 a3_x3
<= 289.691750

a3_local_3: 
+2.06256703030460598 a3_x4
+1.59920258805324700 a3_x2
+1.41475554871262710 a3_x3
<= 175.718660

a3_local_4: 
+1.83472211409563779 a3_x4
+2.04541429219861515 a3_x1
+1.46155074249982753 a3_x3
<= 300.650088

a3_local_5: 
+1.32023342653073916 a3_x3
+1.32750274105753707 a3_x4
+1.61130976700376949 a3_x6
<= 142.876926

a3_local_6: 
+2.54363506129355033 a3_x3
+1.71759331530914583 a3_x4
+2.20421032244208126 a3_x5
<= 412.594491

a3_local_7: 
+1.63306264504603238 a3_x5
+2.08345460746643285 a3_x6
+2.32333905432024634 a3_x2
<= 302.996638

a3_local_8: 
+2.65785074668222787 a3_x4
+3.02346240724633075 a3_x6
+2.64493865011604079 a3_x5
<= 280.069674

a3_act_1: 
+1.00000000000000000 a3_x1
-100.00000000000000000 a3_z1
<= 0.000000

a3_act_2: 
+1.00000000000000000 a3_x2
-100.00000000000000000 a3_z2
<= 0.000000

a4_local_1: 
+14.14064744270522311 a4_x4
+6.74598445900503751 a4_x6
+13.54675729885730462 a4_x5
<= 1385.601094

a4_local_2: 
+6.15135629071194234 a4_x5
+9.21430124243657112 a4_x4
+8.47264134319442697 a4_x2
<= 753.881606

a4_local_3: 
+12.17012359725432447 a4_x4
+14.74917304923557992 a4_x2
+6.64689360191581091 a4_x1
<= 1483.191417

a4_local_4: 
+11.14068781146419873 a4_x6
+12.63107087243325211 a4_x1
+6.23435034297762947 a4_x5
<= 2011.178284

a4_local_5: 
+9.17721388521929526 a4_x3
+5.00320416837540805 a4_x6
+13.72319951599012100 a4_x1
<= 1638.015940

a4_local_6: 
+10.00955342782948421 a4_x5
+7.14948257366068418 a4_x2
+7.34877505525547825 a4_x1
<= 1308.797060

a4_local_7: 
+12.29737026599900140 a4_x2
+5.89023088516301918 a4_x4
+5.97864983256162219 a4_x1
<= 1514.908793

a4_local_8: 
+14.74055352521052242 a4_x6
+7.53101219579647019 a4_x5
+10.21841937882258478 a4_x4
<= 1257.155159

a4_act_1: 
+1.00000000000000000 a4_x1
-100.00000000000000000 a4_z1
<= 0.000000

a4_act_2: 
+1.00000000000000000 a4_x2
-100.00000000000000000 a4_z2
<= 0.000000

coupling_1: 
+76.47821562670178253 a1_x1
+164.05144623082833277 a2_x1
+991.06712971233844200 a3_x1
+5431.96428485645446926 a4_x1
+549.18467169771736280 short_1
-549.18467169771736280 surp_1
= 386276.604641

coupling_2: 
+18.83301324677769628 a1_x2
+81.11147975334935722 a2_x2
+445.61525177908748674 a3_x2
+1990.65005591679869212 a4_x2
+199.56948812186320197 short_2
-199.56948812186320197 surp_2
= 112345.314378

coupling_3: 
+7.94481179977720764 a1_x3
+23.00337287553808352 a2_x3
+175.69213367119687064 a3_x3
+726.53501117914629504 a4_x3
+54.51544295031281706 short_3
-54.51544295031281706 surp_3
= 41038.666274

bounds
  0.000000 <= a1_x1 <= 100.000000
  0.000000 <= a1_x2 <= 100.000000
  0.000000 <= a1_x3 <= 100.000000
  0.000000 <= a1_x4 <= 100.000000
  0.000000 <= a1_x5 <= 100.000000
  0.000000 <= a1_x6 <= 100.000000
  0.000000 <= a2_x1 <= 100.000000
  0.000000 <= a2_x2 <= 100.000000
  0.000000 <= a2_x3 <= 100.000000
  0.000000 <= a2_x4 <= 100.000000
  0.000000 <= a2_x5 <= 100.000000
  0.000000 <= a2_x6 <= 100.000000
  0.000000 <= a3_x1 <= 100.000000
  0.000000 <= a3_x2 <= 100.000000
  0.000000 <= a3_x3 <= 100.000000
  0.000000 <= a3_x4 <= 100.000000
  0.000000 <= a3_x5 <= 100.000000
  0.000000 <= a3_x6 <= 100.000000
  0.000000 <= a4_x1 <= 100.000000
  0.000000 <= a4_x2 <= 100.000000
  0.000000 <= a4_x3 <= 100.000000
  0.000000 <= a4_x4 <= 100.000000
  0.000000 <= a4_x5 <= 100.000000
  0.000000 <= a4_x6 <= 100.000000
  0.000000 <= short_1 <= +inf
  0.000000 <= surp_1 <= +inf
  0.000000 <= short_2 <= +inf
  0.000000 <= surp_2 <= +inf
  0.000000 <= short_3 <= +inf
  0.000000 <= surp_3 <= +inf
 0 <= a1_z1 <= 1
 0 <= a1_z2 <= 1
 0 <= a2_z1 <= 1
 0 <= a2_z2 <= 1
 0 <= a3_z1 <= 1
 0 <= a3_z2 <= 1
 0 <= a4_z1 <= 1
 0 <= a4_z2 <= 1

binary
  a1_z1
  a1_z2
  a2_z1
  a2_z2
  a3_z1
  a3_z2
  a4_z1
  a4_z2
end
