min
obj: 
  +9.92789069156587445 a1_x1
  +4.10293210566149646 a1_x2
  +3.32901181929639423 a1_x3
  +9.10176472428019245 a1_x4
  +1.02767819950250816 a1_x5
  +7.50152284301075145 a1_x6
  +48.47610588570461232 a1_z1
  +46.46239370281180214 a1_z2
  +6.93758052846583873 a2_x1
  +8.73612443817434503 a2_x2
  +2.04228756855595339 a2_x3
  +7.91416373752481395 a2_x4
  +8.85104976446995906 a2_x5
  +5.35890260317347789 a2_x6
  +22.32551298055883748 a2_z1
  +43.59910462783197715 a2_z2
  +2.44474458582316245 a3_x1
  +8.77121756982191414 a3_x2
  +5.76281450528001393 a3_x3
  +8.52709380603204359 a3_x4
  +1.13892657158295396 a3_x5
  +2.91144295006929399 a3_x6
  +15.13786411581276603 a3_z1
  +21.64888772902043002 a3_z2
  +4.31354625098332889 a4_x1
  +3.73746776663401503 a4_x2
  +6.30470396079639350 a4_x3
  +7.23244248154489888 a4_x4
  +3.53129435828251648 a4_x5
  +2.19432544763669313 a4_x6
  +13.98335585286305616 a4_z1
  +25.76781967633817416 a4_z2
  +1000000.00000000000000000 short_1
  +1000000.00000000000000000 surp_1
  +1000000.00000000000000000 short_2
  +1000000.00000000000000000 surp_2
  +1000000.00000000000000000 short_3
  +1000000.00000000000000000 surp_3

s.t.

a1_local_1: 
+0.64487030906653131 a1_x4
+0.62715795005958974 a1_x6
+0.43682398075367795 a1_x1
<= 68.134169

a1_local_2: 
+0.59341904434827575 a1_x4
+0.51470656828939620 a1_x3
+0.61881417757234058 a1_x5
<= 87.107505

a1_local_3: 
+0.42156404829575272 a1_x4
+0.52924120877758885 a1_x3
+0.73633382111385670 a1_x2
<= 90.781971

a1_local_4: 
+0.57098764821340897 a1_x4
+0.72026599000039826 a1_x5
+0.39394163176347174 a1_x2
<= 110.402227

a1_local_5: 
+0.71095354765033913 a1_x2
+0.30548502185222126 a1_x1
+0.63342241396034038 a1_x6
<= 83.122943

a1_local_6: 
+0.35918304043566252 a1_x3
+0.72825087008787803 a1_x5
+0.58364219662361816 a1_x4
<= 114.477125

a1_local_7: 
+0.41594824736734476 a1_x6
+0.46230644877178773 a1_x4
+0.78310906196777752 a1_x3
<= 55.679404

a1_local_8: 
+0.68853074985386409 a1_x1
+0.37708187307670143 a1_x3
+0.61946320915986786 a1_x4
<= 102.517762

a1_act_1: 
+0.00999950003749688 a1_x1
-0.99995000374968757 a1_z1
<= 0.000000

a1_act_2: 
+0.00999950003749688 a1_x2
-0.99995000374968757 a1_z2
<= 0.000000

a2_local_1: 
+0.37638435500179446 a2_x3
+0.36353975853708448 a2_x1
+0.66538706543969173 a2_x6
<= 84.522109

a2_local_2: 
+0.38130267566412690 a2_x4
+0.68075693279386518 a2_x1
+0.60481592760766745 a2_x5
<= 58.607344

a2_local_3: 
+0.24068378150122088 a2_x2
+0.56767769955076086 a2_x5
+0.65302783320504876 a2_x1
<= 75.433981

a2_local_4: 
+0.46623041508531538 a2_x2
+0.45020832245519266 a2_x1
+0.40198168356660757 a2_x4
<= 73.430782

a2_local_5: 
+0.47763629274461006 a2_x4
+0.64121848835429274 a2_x5
+0.65950491884133822 a2_x2
<= 68.975935

a2_local_6: 
+0.49459263848049295 a2_x1
+0.57264794537031583 a2_x2
+0.37460116245623287 a2_x3
<= 94.191976

a2_local_7: 
+0.51088020975890436 a2_x1
+0.57675983587326018 a2_x2
+0.68388582744126880 a2_x4
<= 113.096149

a2_local_8: 
+0.29516976511677206 a2_x6
+0.68656602140536360 a2_x3
+0.57014699830804050 a2_x5
<= 69.869352

a2_act_1: 
+0.00999950003749688 a2_x1
-0.99995000374968757 a2_z1
<= 0.000000

a2_act_2: 
+0.00999950003749688 a2_x2
-0.99995000374968757 a2_z2
<= 0.000000

a3_local_1: 
+0.67563906867660961 a3_x4
+0.26028406235977941 a3_x6
+0.68975651918578773 a3_x3
<= 69.658564

a3_local_2: 
+0.60465004494781671 a3_x6
+0.59636928788082266 a3_x4
+0.52796022162386802 a3_x3
<= 68.987907

a3_local_3: 
+0.67841394787247566 a3_x2
+0.49594632786713544 a3_x1
+0.54202560382991682 a3_x4
<= 79.043390

a3_local_4: 
+0.42270316114413714 a3_x5
+0.45427196029214906 a3_x3
+0.78419323106685990 a3_x2
<= 96.628839

a3_local_5: 
+0.32061076179745068 a3_x1
+0.43538706840208607 a3_x2
+0.84121747490639776 a3_x5
<= 55.614325

a3_local_6: 
+0.65576841122668794 a3_x6
+0.56129592973246711 a3_x4
+0.50489075066096312 a3_x2
<= 101.001271

a3_local_7: 
+0.78080195138319797 a3_x2
+0.47951594796831620 a3_x3
+0.40051562810986185 a3_x5
<= 86.885050

a3_local_8: 
+0.34060344929533881 a3_x5
+0.45625349258386411 a3_x2
+0.82208396215541357 a3_x3
<= 92.272891

a3_act_1: 
+0.00999950003749688 a3_x1
-0.99995000374968757 a3_z1
<= 0.000000

a3_act_2: 
+0.00999950003749688 a3_x2
-0.99995000374968757 a3_z2
<= 0.000000

a4_local_1: 
+0.36699818472717499 a4_x1
+0.74207918488138003 a4_x4
+0.56091961614187191 a4_x6
<= 71.694710

a4_local_2: 
+0.61634848862001823 a4_x6
+0.61544738491702677 a4_x3
+0.49126271685790696 a4_x4
<= 115.251273

a4_local_3: 
+0.43676241026318630 a4_x1
+0.82698009021235530 a4_x2
+0.35403746605897052 a4_x5
<= 56.950894

a4_local_4: 
+0.61978555737435792 a4_x4
+0.51614602404951671 a4_x5
+0.59115069544747401 a4_x1
<= 62.896360

a4_local_5: 
+0.35193122180860059 a4_x4
+0.77168593554715248 a4_x6
+0.52975959830381714 a4_x2
<= 112.597205

a4_local_6: 
+0.65918409742660733 a4_x6
+0.60633725015088269 a4_x2
+0.44478249153865651 a4_x3
<= 86.392049

a4_local_7: 
+0.71214253670041727 a4_x6
+0.62590084556639336 a4_x3
+0.31796405290719365 a4_x4
<= 103.084703

a4_local_8: 
+0.55491793394775091 a4_x2
+0.54548558684238679 a4_x4
+0.62810155319850647 a4_x3
<= 78.595428

a4_act_1: 
+0.00999950003749688 a4_x1
-0.99995000374968757 a4_z1
<= 0.000000

a4_act_2: 
+0.00999950003749688 a4_x2
-0.99995000374968757 a4_z2
<= 0.000000

coupling_1: 
+0.01799515069170992 a1_x1
+0.04875427148518361 a2_x1
+0.38518179158031751 a3_x1
+0.71926314671285196 a4_x1
+0.13643400326328378 short_1
-0.13643400326328378 surp_1
= 52.091793

coupling_2: 
+0.01567153503325825 a1_x2
+0.12185343997756272 a2_x2
+0.37026543079323088 a3_x2
+1.72942363787911813 a4_x2
+0.24115064618469290 short_2
-0.24115064618469290 surp_2
= 105.898473

coupling_3: 
+0.01335555907427683 a1_x3
+0.02951571591772075 a2_x3
+0.20218170880782946 a3_x3
+0.96421983290244040 a4_x3
+0.11906536443654443 short_3
-0.11906536443654443 surp_3
= 81.605169

bounds
  0.000000 <= a1_x1 <= 100.000000
  0.000000 <= a1_x2 <= 100.000000
  0.000000 <= a1_x3 <= 100.000000
  0.000000 <= a1_x4 <= 100.000000
  0.000000 <= a1_x5 <= 100.000000
  0.000000 <= a1_x6 <= 100.000000
  0.000000 <= a2_x1 <= 100.000000
  0.000000 <= a2_x2 <= 100.000000
  0.000000 <= a2_x3 <= 100.000000
  0.000000 <= a2_x4 <= 100.000000
  0.000000 <= a2_x5 <= 100.000000
  0.000000 <= a2_x6 <= 100.000000
  0.000000 <= a3_x1 <= 100.000000
  0.000000 <= a3_x2 <= 100.000000
  0.000000 <= a3_x3 <= 100.000000
  0.000000 <= a3_x4 <= 100.000000
  0.000000 <= a3_x5 <= 100.000000
  0.000000 <= a3_x6 <= 100.000000
  0.000000 <= a4_x1 <= 100.000000
  0.000000 <= a4_x2 <= 100.000000
  0.000000 <= a4_x3 <= 100.000000
  0.000000 <= a4_x4 <= 100.000000
  0.000000 <= a4_x5 <= 100.000000
  0.000000 <= a4_x6 <= 100.000000
  0.000000 <= short_1 <= +inf
  0.000000 <= surp_1 <= +inf
  0.000000 <= short_2 <= +inf
  0.000000 <= surp_2 <= +inf
  0.000000 <= short_3 <= +inf
  0.000000 <= surp_3 <= +inf
 0 <= a1_z1 <= 1
 0 <= a1_z2 <= 1
 0 <= a2_z1 <= 1
 0 <= a2_z2 <= 1
 0 <= a3_z1 <= 1
 0 <= a3_z2 <= 1
 0 <= a4_z1 <= 1
 0 <= a4_z2 <= 1

binary
  a1_z1
  a1_z2
  a2_z1
  a2_z2
  a3_z1
  a3_z2
  a4_z1
  a4_z2
end
