min
obj: 
  +3.04305245350352704 a1_x1
  +8.52421046785006808 a1_x2
  +7.69307565210918742 a1_x3
  +6.91899621560824230 a1_x4
  +9.20970734213053355 a1_x5
  +1.67836132765545631 a1_x6
  +29.95730103851083470 a1_z1
  +31.08072985890714435 a1_z2
  +8.69577677526249104 a2_x1
  +6.90777420422215815 a2_x2
  +5.08754459362986733 a2_x3
  +7.59170235780382363 a2_x4
  +8.27944903727416381 a2_x5
  +1.03512879040065853 a2_x6
  +28.92886188645300649 a2_z1
  +23.93421358976911506 a2_z2
  +5.14038055583452635 a3_x1
  +3.33875162916421697 a3_x2
  +6.11068986646011059 a3_x3
  +6.55082117265498010 a3_x4
  +5.19513264683116827 a3_x5
  +3.93701514527552376 a3_x6
  +16.85304582879687985 a3_z1
  +38.53959756350231913 a3_z2
  +1.41634150693496075 a4_x1
  +8.54382197580174818 a4_x2
  +7.14956107064012691 a4_x3
  +5.56590579337685210 a4_x4
  +2.52647125500070402 a4_x5
  +2.35011295395534869 a4_x6
  +43.90402305541062589 a4_z1
  +7.45391026181894656 a4_z2
  +1000000.00000000000000000 short_1
  +1000000.00000000000000000 surp_1
  +1000000.00000000000000000 short_2
  +1000000.00000000000000000 surp_2
  +1000000.00000000000000000 short_3
  +1000000.00000000000000000 surp_3

s.t.

a1_local_1: 
+0.05069718438235647 a1_x4
+0.06307081430059906 a1_x3
+0.13587378415029253 a1_x1
<= 15.507791

a1_local_2: 
+0.06616466039006438 a1_x6
+0.11527811145222584 a1_x4
+0.07017663895281276 a1_x2
<= 11.248339

a1_local_3: 
+0.14402458914565058 a1_x3
+0.08506383897912807 a1_x1
+0.05651012082010289 a1_x4
<= 11.996111

a1_local_4: 
+0.11941568485196918 a1_x3
+0.06699027668009934 a1_x1
+0.12564030974360768 a1_x2
<= 15.483620

a1_local_5: 
+0.06566406272578594 a1_x3
+0.11289596560646827 a1_x2
+0.12007661146972991 a1_x4
<= 11.795230

a1_local_6: 
+0.07767833396601465 a1_x3
+0.14644029138318368 a1_x5
+0.10218749081166199 a1_x4
<= 11.336874

a1_local_7: 
+0.13717009937621619 a1_x5
+0.11557767113027038 a1_x6
+0.08783244488474014 a1_x1
<= 15.048105

a1_local_8: 
+0.09039188886294845 a1_x2
+0.07325222223477895 a1_x3
+0.08183780553817335 a1_x6
<= 12.247196

a1_act_1: 
+1.00000000000000000 a1_x1
-100.00000000000000000 a1_z1
<= 0.000000

a1_act_2: 
+1.00000000000000000 a1_x2
-100.00000000000000000 a1_z2
<= 0.000000

a2_local_1: 
+0.24026449497753916 a2_x6
+0.29450423903590150 a2_x3
+0.33278404550840773 a2_x1
<= 29.321019

a2_local_2: 
+0.32430602841509387 a2_x4
+0.40380059267734619 a2_x1
+0.61929698947330036 a2_x5
<= 70.795358

a2_local_3: 
+0.40249111583787184 a2_x6
+0.47796984006598681 a2_x5
+0.64586124938231404 a2_x3
<= 93.621030

a2_local_4: 
+0.38560099038809897 a2_x4
+0.60129482230625231 a2_x3
+0.40957543212242459 a2_x6
<= 68.299739

a2_local_5: 
+0.57172464644889898 a2_x6
+0.51949070718464119 a2_x2
+0.38900374194358983 a2_x5
<= 84.410790

a2_local_6: 
+0.44799715800580298 a2_x2
+0.38103395351105929 a2_x1
+0.47180071158067677 a2_x4
<= 54.000739

a2_local_7: 
+0.38064717660259567 a2_x6
+0.66515308649609706 a2_x2
+0.63256764105431829 a2_x5
<= 76.503237

a2_local_8: 
+0.65693477383290733 a2_x2
+0.34119797476051650 a2_x4
+0.47486991345575968 a2_x5
<= 64.093358

a2_act_1: 
+1.00000000000000000 a2_x1
-100.00000000000000000 a2_z1
<= 0.000000

a2_act_2: 
+1.00000000000000000 a2_x2
-100.00000000000000000 a2_z2
<= 0.000000

a3_local_1: 
+1.94526448933963603 a3_x6
+2.97681055063771272 a3_x5
+2.64097575485514291 a3_x2
<= 504.508340

a3_local_2: 
+2.97253834563705466 a3_x4
+1.39747975898651200 a3_x3
+2.08297445374520107 a3_x1
<= 277.774646

a3_local_3: 
+2.54300084127431569 a3_x2
+2.46521697599320877 a3_x4
+2.89318603115981299 a3_x3
<= 427.487707

a3_local_4: 
+2.33243751703146884 a3_x5
+2.98810963101886706 a3_x2
+2.68388527194128690 a3_x1
<= 531.585760

a3_local_5: 
+1.99668176172510758 a3_x6
+2.34269666815837185 a3_x2
+1.19148638038893551 a3_x3
<= 384.656229

a3_local_6: 
+2.83499625266557409 a3_x1
+2.95640233982824663 a3_x4
+1.18904656470123071 a3_x3
<= 394.926956

a3_local_7: 
+3.01438918122707333 a3_x2
+2.56731426753321434 a3_x6
+2.30367976232212923 a3_x5
<= 551.092259

a3_local_8: 
+1.81502252551999987 a3_x2
+1.42867348876972722 a3_x3
+2.04191550112984421 a3_x4
<= 240.798400

a3_act_1: 
+1.00000000000000000 a3_x1
-100.00000000000000000 a3_z1
<= 0.000000

a3_act_2: 
+1.00000000000000000 a3_x2
-100.00000000000000000 a3_z2
<= 0.000000

a4_local_1: 
+7.70042143792453615 a4_x4
+6.39812329592952800 a4_x5
+11.06566794702636081 a4_x6
<= 928.382018

a4_local_2: 
+12.57635037733341399 a4_x3
+14.62953001854187107 a4_x1
+10.10454053974200406 a4_x2
<= 2474.488210

a4_local_3: 
+5.65165299110704211 a4_x4
+7.20328311308666969 a4_x6
+11.70082334498427024 a4_x2
<= 761.218790

a4_local_4: 
+9.86793567091851642 a4_x2
+8.96525664120032673 a4_x3
+7.08702435233211858 a4_x1
<= 1538.227276

a4_local_5: 
+7.19166333691880588 a4_x4
+13.01411707419628705 a4_x5
+8.47315371856750765 a4_x2
<= 1969.657195

a4_local_6: 
+12.70366645341099243 a4_x6
+5.27338613414188995 a4_x5
+9.69164147746728410 a4_x3
<= 1900.010695

a4_local_7: 
+5.21633643953113690 a4_x4
+12.24832470688753006 a4_x3
+13.03291776891180653 a4_x5
<= 2002.177403

a4_local_8: 
+9.79254066988964844 a4_x1
+5.76155602006279643 a4_x6
+13.66371583636540521 a4_x4
<= 1613.990302

a4_act_1: 
+1.00000000000000000 a4_x1
-100.00000000000000000 a4_z1
<= 0.000000

a4_act_2: 
+1.00000000000000000 a4_x2
-100.00000000000000000 a4_z2
<= 0.000000

coupling_1: 
+23.57039239964289123 a1_x1
+42.72717048479780289 a2_x1
+191.72794822995513186 a3_x1
+2048.83830979019194274 a4_x1
+164.26021024460851550 short_1
-164.26021024460851550 surp_1
= 46553.273948

coupling_2: 
+0.00015751516927128 a1_x2
+0.00088835336527735 a2_x2
+0.00597590927448193 a3_x2
+0.02566039751046409 a4_x2
+0.00209978074526481 short_2
-0.00209978074526481 surp_2
= 1.085602

coupling_3: 
+0.00011362463287759 a1_x3
+0.00076909222836397 a2_x3
+0.00403491886931314 a3_x3
+0.00972271277199271 a4_x3
+0.00175357949869701 short_3
-0.00175357949869701 surp_3
= 0.305100

bounds
  0.000000 <= a1_x1 <= 100.000000
  0.000000 <= a1_x2 <= 100.000000
  0.000000 <= a1_x3 <= 100.000000
  0.000000 <= a1_x4 <= 100.000000
  0.000000 <= a1_x5 <= 100.000000
  0.000000 <= a1_x6 <= 100.000000
  0.000000 <= a2_x1 <= 100.000000
  0.000000 <= a2_x2 <= 100.000000
  0.000000 <= a2_x3 <= 100.000000
  0.000000 <= a2_x4 <= 100.000000
  0.000000 <= a2_x5 <= 100.000000
  0.000000 <= a2_x6 <= 100.000000
  0.000000 <= a3_x1 <= 100.000000
  0.000000 <= a3_x2 <= 100.000000
  0.000000 <= a3_x3 <= 100.000000
  0.000000 <= a3_x4 <= 100.000000
  0.000000 <= a3_x5 <= 100.000000
  0.000000 <= a3_x6 <= 100.000000
  0.000000 <= a4_x1 <= 100.000000
  0.000000 <= a4_x2 <= 100.000000
  0.000000 <= a4_x3 <= 100.000000
  0.000000 <= a4_x4 <= 100.000000
  0.000000 <= a4_x5 <= 100.000000
  0.000000 <= a4_x6 <= 100.000000
  0.000000 <= short_1 <= +inf
  0.000000 <= surp_1 <= +inf
  0.000000 <= short_2 <= +inf
  0.000000 <= surp_2 <= +inf
  0.000000 <= short_3 <= +inf
  0.000000 <= surp_3 <= +inf
 0 <= a1_z1 <= 1
 0 <= a1_z2 <= 1
 0 <= a2_z1 <= 1
 0 <= a2_z2 <= 1
 0 <= a3_z1 <= 1
 0 <= a3_z2 <= 1
 0 <= a4_z1 <= 1
 0 <= a4_z2 <= 1

binary
  a1_z1
  a1_z2
  a2_z1
  a2_z2
  a3_z1
  a3_z2
  a4_z1
  a4_z2
end
