min
obj: 
  +2.37029411872895501 a1_x1
  +4.08711411622905185 a1_x2
  +7.66136637275760890 a1_x3
  +4.89991689432673461 a1_x4
  +9.18560754331382867 a1_x5
  +7.80552329567271030 a1_x6
  +17.43087311454965516 a1_z1
  +23.40237872614093462 a1_z2
  +7.13711580461956085 a2_x1
  +9.86731097874472596 a2_x2
  +9.26152928173022261 a2_x3
  +3.50078905131847584 a2_x4
  +7.16373731684462012 a2_x5
  +7.92452849914212010 a2_x6
  +12.29105339851766843 a2_z1
  +33.65890549127213660 a2_z2
  +4.07314116822603278 a3_x1
  +2.67328543975586186 a3_x2
  +9.89718173180398963 a3_x3
  +5.22112132820410846 a3_x4
  +8.01142911451852413 a3_x5
  +2.58297506253818687 a3_x6
  +49.51256436548434436 a3_z1
  +27.09261525514139990 a3_z2
  +6.63650565601125653 a4_x1
  +8.20462741556096375 a4_x2
  +7.12140565612760490 a4_x3
  +6.26647229654029836 a4_x4
  +7.50796663445631296 a4_x5
  +5.57360575198759278 a4_x6
  +9.04054185098157959 a4_z1
  +27.56107960188447947 a4_z2
  +1000000.00000000000000000 short_1
  +1000000.00000000000000000 surp_1
  +1000000.00000000000000000 short_2
  +1000000.00000000000000000 surp_2
  +1000000.00000000000000000 short_3
  +1000000.00000000000000000 surp_3

s.t.

a1_local_1: 
+0.77241195716615840 a1_x3
+0.55510986696212827 a1_x2
+0.30859812706501172 a1_x1
<= 114.444167

a1_local_2: 
+0.57900632461119750 a1_x2
+0.70078383105752595 a1_x1
+0.41671776802599808 a1_x5
<= 70.700990

a1_local_3: 
+0.29618601529088323 a1_x4
+0.57987866544253786 a1_x1
+0.75895624228982383 a1_x2
<= 114.293522

a1_local_4: 
+0.47327851004709759 a1_x2
+0.81828922468365550 a1_x5
+0.32620575821744979 a1_x1
<= 64.649399

a1_local_5: 
+0.36734108743170796 a1_x6
+0.63359889239632061 a1_x2
+0.68089130486344596 a1_x5
<= 73.135034

a1_local_6: 
+0.67634375358820198 a1_x1
+0.46025579715374182 a1_x6
+0.57508584417336794 a1_x5
<= 61.537891

a1_local_7: 
+0.56690561791849459 a1_x5
+0.58499742674880861 a1_x4
+0.57999657849828901 a1_x1
<= 67.950117

a1_local_8: 
+0.65207408325029370 a1_x6
+0.49527768629049412 a1_x5
+0.57402038588888427 a1_x2
<= 119.808627

a1_act_1: 
+0.00999950003749688 a1_x1
-0.99995000374968757 a1_z1
<= 0.000000

a1_act_2: 
+0.00999950003749688 a1_x2
-0.99995000374968757 a1_z2
<= 0.000000

a2_local_1: 
+0.60985066598053461 a2_x6
+0.63676979229140496 a2_x1
+0.67530625543603739 a2_x3
<= 130.507252

a2_local_2: 
+0.55559784148045910 a2_x5
+0.50357863186560414 a2_x4
+0.35955563751158837 a2_x2
<= 61.318182

a2_local_3: 
+0.62574011307514898 a2_x1
+0.31125431327357905 a2_x6
+0.61889551639039064 a2_x3
<= 84.837584

a2_local_4: 
+0.24485312310460663 a2_x6
+0.57897019630146507 a2_x2
+0.63979303083761030 a2_x1
<= 93.486975

a2_local_5: 
+0.56302103162346795 a2_x1
+0.35863055138360755 a2_x6
+0.59322906296440114 a2_x2
<= 58.715866

a2_local_6: 
+0.53503371603710126 a2_x2
+0.46658843108408976 a2_x3
+0.53671075354728992 a2_x5
<= 83.606820

a2_local_7: 
+0.32317965245299313 a2_x1
+0.64497908506506463 a2_x4
+0.62322398699758264 a2_x3
<= 76.702487

a2_local_8: 
+0.26993552749676358 a2_x1
+0.23590559571345707 a2_x5
+0.47902267806306648 a2_x3
<= 55.637553

a2_act_1: 
+0.00999950003749688 a2_x1
-0.99995000374968757 a2_z1
<= 0.000000

a2_act_2: 
+0.00999950003749688 a2_x2
-0.99995000374968757 a2_z2
<= 0.000000

a3_local_1: 
+0.58686243400301785 a3_x2
+0.47763215551731564 a3_x1
+0.65380425784170004 a3_x5
<= 114.868408

a3_local_2: 
+0.60374375736530261 a3_x6
+0.62206106239179826 a3_x5
+0.49853135317491715 a3_x3
<= 73.671565

a3_local_3: 
+0.51046909469657020 a3_x5
+0.55688024336056996 a3_x1
+0.65521423818041113 a3_x4
<= 78.146627

a3_local_4: 
+0.44963840955300682 a3_x5
+0.69941239980407155 a3_x2
+0.55556061384420685 a3_x6
<= 66.655589

a3_local_5: 
+0.71532916863256812 a3_x5
+0.41715344832917395 a3_x1
+0.56061321876184655 a3_x6
<= 98.268185

a3_local_6: 
+0.48113502172049766 a3_x2
+0.68110604761006088 a3_x3
+0.55190908923754611 a3_x1
<= 117.556291

a3_local_7: 
+0.61873482797448964 a3_x4
+0.32757898195559443 a3_x3
+0.71404427259961634 a3_x6
<= 70.380977

a3_local_8: 
+0.55602492840374218 a3_x5
+0.57217565334649900 a3_x6
+0.60286922355608796 a3_x4
<= 90.885757

a3_act_1: 
+0.00999950003749688 a3_x1
-0.99995000374968757 a3_z1
<= 0.000000

a3_act_2: 
+0.00999950003749688 a3_x2
-0.99995000374968757 a3_z2
<= 0.000000

a4_local_1: 
+0.53115479346048566 a4_x2
+0.76785421784499730 a4_x3
+0.35815427614590351 a4_x1
<= 64.884108

a4_local_2: 
+0.50232361808292381 a4_x2
+0.64104098897445472 a4_x1
+0.58029081775497193 a4_x6
<= 63.036250

a4_local_3: 
+0.56701322740703064 a4_x5
+0.36801406164856154 a4_x3
+0.73692716761861299 a4_x2
<= 89.926017

a4_local_4: 
+0.62700475387235888 a4_x2
+0.48261932141035274 a4_x3
+0.61150930428152384 a4_x4
<= 73.986075

a4_local_5: 
+0.68697701092450358 a4_x1
+0.49200142414376991 a4_x3
+0.53478704649770337 a4_x2
<= 68.417537

a4_local_6: 
+0.30769936179685242 a4_x2
+0.46546423421008165 a4_x6
+0.82985790917543956 a4_x3
<= 85.355779

a4_local_7: 
+0.75147322081669576 a4_x4
+0.60178596781059868 a4_x2
+0.27044712485371863 a4_x5
<= 68.647875

a4_local_8: 
+0.67857253477884127 a4_x5
+0.66516786754090340 a4_x2
+0.31159432445875090 a4_x4
<= 88.780333

a4_act_1: 
+0.00999950003749688 a4_x1
-0.99995000374968757 a4_z1
<= 0.000000

a4_act_2: 
+0.00999950003749688 a4_x2
-0.99995000374968757 a4_z2
<= 0.000000

coupling_1: 
+0.01112163649395886 a1_x1
+0.02805890742184355 a2_x1
+0.18001568340633248 a3_x1
+0.97689443984373625 a4_x1
+0.07861492875444304 short_1
-0.07861492875444304 surp_1
= 80.507834

coupling_2: 
+0.01115592046945879 a1_x2
+0.04136787036861968 a2_x2
+0.25314091346355272 a3_x2
+0.95999313814466192 a4_x2
+0.07904776209876617 short_2
-0.07904776209876617 surp_2
= 82.962003

coupling_3: 
+0.00829985659286388 a1_x3
+0.02866630536662032 a2_x3
+0.16739929768250711 a3_x3
+0.97945477055745123 a4_x3
+0.07666545142637497 short_3
-0.07666545142637497 surp_3
= 86.436292

bounds
  0.000000 <= a1_x1 <= 100.000000
  0.000000 <= a1_x2 <= 100.000000
  0.000000 <= a1_x3 <= 100.000000
  0.000000 <= a1_x4 <= 100.000000
  0.000000 <= a1_x5 <= 100.000000
  0.000000 <= a1_x6 <= 100.000000
  0.000000 <= a2_x1 <= 100.000000
  0.000000 <= a2_x2 <= 100.000000
  0.000000 <= a2_x3 <= 100.000000
  0.000000 <= a2_x4 <= 100.000000
  0.000000 <= a2_x5 <= 100.000000
  0.000000 <= a2_x6 <= 100.000000
  0.000000 <= a3_x1 <= 100.000000
  0.000000 <= a3_x2 <= 100.000000
  0.000000 <= a3_x3 <= 100.000000
  0.000000 <= a3_x4 <= 100.000000
  0.000000 <= a3_x5 <= 100.000000
  0.000000 <= a3_x6 <= 100.000000
  0.000000 <= a4_x1 <= 100.000000
  0.000000 <= a4_x2 <= 100.000000
  0.000000 <= a4_x3 <= 100.000000
  0.000000 <= a4_x4 <= 100.000000
  0.000000 <= a4_x5 <= 100.000000
  0.000000 <= a4_x6 <= 100.000000
  0.000000 <= short_1 <= +inf
  0.000000 <= surp_1 <= +inf
  0.000000 <= short_2 <= +inf
  0.000000 <= surp_2 <= +inf
  0.000000 <= short_3 <= +inf
  0.000000 <= surp_3 <= +inf
 0 <= a1_z1 <= 1
 0 <= a1_z2 <= 1
 0 <= a2_z1 <= 1
 0 <= a2_z2 <= 1
 0 <= a3_z1 <= 1
 0 <= a3_z2 <= 1
 0 <= a4_z1 <= 1
 0 <= a4_z2 <= 1

binary
  a1_z1
  a1_z2
  a2_z1
  a2_z2
  a3_z1
  a3_z2
  a4_z1
  a4_z2
end
