min
obj: 
  +4.68205187695116365 a1_x1
  +5.71291625483064269 a1_x2
  +9.00563589084773142 a1_x3
  +9.01724711762336106 a1_x4
  +9.40638568868457803 a1_x5
  +5.77535620951187667 a1_x6
  +36.44079832510822570 a1_z1
  +20.35589591192510284 a1_z2
  +7.59221324303607314 a2_x1
  +9.57055811069523088 a2_x2
  +1.26049992587512483 a2_x3
  +5.39403189015226747 a2_x4
  +5.18163926236740036 a2_x5
  +3.59512023493198285 a2_x6
  +41.62149658815251030 a2_z1
  +8.22405720557796727 a2_z2
  +7.86202629574308798 a3_x1
  +4.44432428569451421 a3_x2
  +6.87835612826100196 a3_x3
  +6.09227189830646143 a3_x4
  +7.96998209317280093 a3_x5
  +3.38862436120579025 a3_x6
  +44.38425278971256915 a3_z1
  +46.43685776379189178 a3_z2
  +5.32725959516227121 a4_x1
  +2.14266889482626155 a4_x2
  +3.71753864038075932 a4_x3
  +7.47528281002840789 a4_x4
  +1.46230104481487744 a4_x5
  +9.33481878718765401 a4_x6
  +27.54992178484519982 a4_z1
  +29.02492698326168252 a4_z2
  +1000000.00000000000000000 short_1
  +1000000.00000000000000000 surp_1
  +1000000.00000000000000000 short_2
  +1000000.00000000000000000 surp_2
  +1000000.00000000000000000 short_3
  +1000000.00000000000000000 surp_3

s.t.

a1_local_1: 
+1.36239454542144500 a1_x4
+1.11471004010267372 a1_x2
+0.73400176429116448 a1_x6
<= 140.876444

a1_local_2: 
+1.34673488461245006 a1_x5
+1.49530127330705986 a1_x4
+0.66876155183655095 a1_x1
<= 185.470965

a1_local_3: 
+1.43304823351067312 a1_x6
+1.13288956764784254 a1_x2
+0.69781321843592514 a1_x1
<= 172.462191

a1_local_4: 
+1.22955910847249172 a1_x5
+0.81329965603875842 a1_x2
+0.99768634333942341 a1_x6
<= 110.164954

a1_local_5: 
+1.40472673569735518 a1_x6
+1.36445259773585059 a1_x2
+0.71188222918215149 a1_x1
<= 185.464262

a1_local_6: 
+1.22193379776742739 a1_x5
+0.83449512309744422 a1_x4
+0.81837494128330135 a1_x2
<= 115.647136

a1_local_7: 
+1.30520205812942636 a1_x1
+0.76616489666984444 a1_x4
+1.10538097770209554 a1_x3
<= 206.119787

a1_local_8: 
+0.88331928695941897 a1_x5
+1.13209347374517533 a1_x6
+1.08315066540634519 a1_x4
<= 117.368808

a1_act_1: 
+0.10000000000000001 a1_x1
-10.00000000000000000 a1_z1
<= 0.000000

a1_act_2: 
+0.10000000000000001 a1_x2
-10.00000000000000000 a1_z2
<= 0.000000

a2_local_1: 
+0.71738022542854685 a2_x3
+0.96650822179958484 a2_x4
+1.39396092135467264 a2_x5
<= 175.480568

a2_local_2: 
+0.75297574241402365 a2_x3
+1.08030062507859470 a2_x2
+1.32806403137771967 a2_x5
<= 199.670829

a2_local_3: 
+1.46378387078513383 a2_x4
+1.53411627171589560 a2_x6
+0.65184107517581358 a2_x5
<= 248.615629

a2_local_4: 
+0.42255881376663601 a2_x1
+0.49578885918991755 a2_x4
+0.62453989901379936 a2_x5
<= 107.138064

a2_local_5: 
+0.80313275925127958 a2_x2
+1.24512415722183922 a2_x5
+0.86467405063951819 a2_x1
<= 96.148906

a2_local_6: 
+1.27222474748854730 a2_x5
+0.95417182607426620 a2_x4
+0.78602464067301314 a2_x3
<= 201.963970

a2_local_7: 
+0.93868271683434545 a2_x3
+1.06532269324446904 a2_x5
+0.95343191214686251 a2_x6
<= 95.087049

a2_local_8: 
+1.26173096162406440 a2_x2
+0.79256198858180371 a2_x6
+1.09879827568405575 a2_x4
<= 198.064898

a2_act_1: 
+0.10000000000000001 a2_x1
-10.00000000000000000 a2_z1
<= 0.000000

a2_act_2: 
+0.10000000000000001 a2_x2
-10.00000000000000000 a2_z2
<= 0.000000

a3_local_1: 
+0.82649462397420292 a3_x2
+1.20992922517934298 a3_x6
+0.96103044778089963 a3_x5
<= 204.852872

a3_local_2: 
+0.80127355156801450 a3_x4
+1.24801323847904055 a3_x5
+0.91993314476980059 a3_x3
<= 144.113443

a3_local_3: 
+1.87313522748118499 a3_x4
+2.08059540181297198 a3_x5
+1.70949510080760159 a3_x1
<= 319.887298

a3_local_4: 
+1.45378937265847985 a3_x3
+0.68785755268752902 a3_x4
+1.43681321295480435 a3_x5
<= 145.953952

a3_local_5: 
+1.78874766522761819 a3_x5
+1.54706863678186224 a3_x3
+2.52406778425509914 a3_x2
<= 295.567249

a3_local_6: 
+1.42709024187998601 a3_x1
+1.94951505293723759 a3_x3
+2.19183984469877435 a3_x5
<= 298.916626

a3_local_7: 
+1.16506544790320943 a3_x6
+2.36811137766814950 a3_x4
+2.03282065906173059 a3_x1
<= 381.920354

a3_local_8: 
+1.09247275811384892 a3_x4
+0.91535463248209226 a3_x3
+1.03007231235036767 a3_x5
<= 98.839578

a3_act_1: 
+0.10000000000000001 a3_x1
-10.00000000000000000 a3_z1
<= 0.000000

a3_act_2: 
+0.10000000000000001 a3_x2
-10.00000000000000000 a3_z2
<= 0.000000

a4_local_1: 
+0.78359006867826630 a4_x1
+1.21605813303745092 a4_x4
+1.27617748102240092 a4_x6
<= 112.084838

a4_local_2: 
+1.17348368303574291 a4_x3
+0.93833273239640747 a4_x5
+0.85216353193173555 a4_x2
<= 134.447172

a4_local_3: 
+1.16228598351922030 a4_x5
+0.79717754452400935 a4_x1
+1.25442570086077221 a4_x3
<= 181.425959

a4_local_4: 
+1.35836106859332739 a4_x3
+1.13805271674552633 a4_x1
+0.73618128722988674 a4_x5
<= 167.551190

a4_local_5: 
+0.89143083019680402 a4_x6
+0.91455986686477886 a4_x4
+1.12179202931452004 a4_x2
<= 153.572111

a4_local_6: 
+1.32385094026291283 a4_x1
+0.97307570182124925 a4_x4
+0.75537205102668370 a4_x5
<= 125.698075

a4_local_7: 
+1.38250461132272950 a4_x2
+1.15512061452705517 a4_x5
+0.72332489295875602 a4_x4
<= 128.159564

a4_local_8: 
+1.06034344456244134 a4_x5
+0.80895181388735826 a4_x6
+1.23616757244733000 a4_x2
<= 179.836748

a4_act_1: 
+0.10000000000000001 a4_x1
-10.00000000000000000 a4_z1
<= 0.000000

a4_act_2: 
+0.10000000000000001 a4_x2
-10.00000000000000000 a4_z2
<= 0.000000

coupling_1: 
+0.00910557206529287 a1_x1
+0.05609598638983215 a2_x1
+0.11580358730184089 a3_x1
+0.98296264793279775 a4_x1
+0.09258588122733180 short_1
-0.09258588122733180 surp_1
= 28.503014

coupling_2: 
+0.00905804835873068 a1_x2
+0.04192314813408174 a2_x2
+0.18380742088337032 a3_x2
+0.97748742130991673 a4_x2
+0.06668423584158306 short_2
-0.06668423584158306 surp_2
= 93.296019

coupling_3: 
+0.00944881754661133 a1_x3
+0.04147104967240771 a2_x3
+0.23094423849024520 a3_x3
+0.94925517917297608 a4_x3
+0.14793619470481389 short_3
-0.14793619470481389 surp_3
= 47.678993

bounds
  0.000000 <= a1_x1 <= 100.000000
  0.000000 <= a1_x2 <= 100.000000
  0.000000 <= a1_x3 <= 100.000000
  0.000000 <= a1_x4 <= 100.000000
  0.000000 <= a1_x5 <= 100.000000
  0.000000 <= a1_x6 <= 100.000000
  0.000000 <= a2_x1 <= 100.000000
  0.000000 <= a2_x2 <= 100.000000
  0.000000 <= a2_x3 <= 100.000000
  0.000000 <= a2_x4 <= 100.000000
  0.000000 <= a2_x5 <= 100.000000
  0.000000 <= a2_x6 <= 100.000000
  0.000000 <= a3_x1 <= 100.000000
  0.000000 <= a3_x2 <= 100.000000
  0.000000 <= a3_x3 <= 100.000000
  0.000000 <= a3_x4 <= 100.000000
  0.000000 <= a3_x5 <= 100.000000
  0.000000 <= a3_x6 <= 100.000000
  0.000000 <= a4_x1 <= 100.000000
  0.000000 <= a4_x2 <= 100.000000
  0.000000 <= a4_x3 <= 100.000000
  0.000000 <= a4_x4 <= 100.000000
  0.000000 <= a4_x5 <= 100.000000
  0.000000 <= a4_x6 <= 100.000000
  0.000000 <= short_1 <= +inf
  0.000000 <= surp_1 <= +inf
  0.000000 <= short_2 <= +inf
  0.000000 <= surp_2 <= +inf
  0.000000 <= short_3 <= +inf
  0.000000 <= surp_3 <= +inf
 0 <= a1_z1 <= 1
 0 <= a1_z2 <= 1
 0 <= a2_z1 <= 1
 0 <= a2_z2 <= 1
 0 <= a3_z1 <= 1
 0 <= a3_z2 <= 1
 0 <= a4_z1 <= 1
 0 <= a4_z2 <= 1

binary
  a1_z1
  a1_z2
  a2_z1
  a2_z2
  a3_z1
  a3_z2
  a4_z1
  a4_z2
end
