min
obj: 
  +2.37029411872895501 a1_x1
  +4.08711411622905185 a1_x2
  +7.66136637275760890 a1_x3
  +4.89991689432673461 a1_x4
  +9.18560754331382867 a1_x5
  +7.80552329567271030 a1_x6
  +17.43087311454965516 a1_z1
  +23.40237872614093462 a1_z2
  +7.13711580461956085 a2_x1
  +9.86731097874472596 a2_x2
  +9.26152928173022261 a2_x3
  +3.50078905131847584 a2_x4
  +7.16373731684462012 a2_x5
  +7.92452849914212010 a2_x6
  +12.29105339851766843 a2_z1
  +33.65890549127213660 a2_z2
  +4.07314116822603278 a3_x1
  +2.67328543975586186 a3_x2
  +9.89718173180398963 a3_x3
  +5.22112132820410846 a3_x4
  +8.01142911451852413 a3_x5
  +2.58297506253818687 a3_x6
  +49.51256436548434436 a3_z1
  +27.09261525514139990 a3_z2
  +6.63650565601125653 a4_x1
  +8.20462741556096375 a4_x2
  +7.12140565612760490 a4_x3
  +6.26647229654029836 a4_x4
  +7.50796663445631296 a4_x5
  +5.57360575198759278 a4_x6
  +9.04054185098157959 a4_z1
  +27.56107960188447947 a4_z2
  +1000000.00000000000000000 short_1
  +1000000.00000000000000000 surp_1
  +1000000.00000000000000000 short_2
  +1000000.00000000000000000 surp_2
  +1000000.00000000000000000 short_3
  +1000000.00000000000000000 surp_3

s.t.

a1_local_1: 
+1.58207785332520379 a1_x3
+1.13699304954462588 a1_x2
+0.63208014567564075 a1_x1
<= 234.408053

a1_local_2: 
+1.07144593627541451 a1_x2
+1.29679410410292095 a1_x1
+0.77113243870873915 a1_x5
<= 130.831539

a1_local_3: 
+0.62470345210328382 a1_x4
+1.22305640847773311 a1_x1
+1.60075952299150615 a1_x2
<= 241.063231

a1_local_4: 
+0.91604657951092494 a1_x2
+1.58382649837093781 a1_x5
+0.63138228905032279 a1_x1
<= 125.131100

a1_local_5: 
+0.73450686554155398 a1_x6
+1.26689540698640379 a1_x2
+1.36145766215908282 a1_x5
<= 146.235166

a1_local_6: 
+1.21222743315614356 a1_x1
+0.82492770964307405 a1_x6
+1.03074040830304270 a1_x5
<= 110.295865

a1_local_7: 
+0.98441540775382852 a1_x5
+1.01583131686422035 a1_x4
+1.00714748676261401 a1_x1
<= 117.993436

a1_local_8: 
+1.14742442039454473 a1_x6
+0.87151709709659797 a1_x5
+1.01007696133261304 a1_x2
<= 210.821667

a1_act_1: 
+0.10000000000000001 a1_x1
-10.00000000000000000 a1_z1
<= 0.000000

a1_act_2: 
+0.10000000000000001 a1_x2
-10.00000000000000000 a1_z2
<= 0.000000

a2_local_1: 
+0.60985066598053461 a2_x6
+0.63676979229140496 a2_x1
+0.67530625543603739 a2_x3
<= 130.507252

a2_local_2: 
+1.24307468914928143 a2_x5
+1.12668877474494789 a2_x4
+0.80445689123021769 a2_x2
<= 137.191102

a2_local_3: 
+1.41787945261892578 a2_x1
+0.70527857509531422 a2_x6
+1.40237011767619846 a2_x3
<= 192.235506

a2_local_4: 
+0.61863298338434214 a2_x6
+1.46279555386996418 a2_x2
+1.61646731884440009 a2_x1
<= 236.199259

a2_local_5: 
+1.22064609616340536 a2_x1
+0.77752154524147854 a2_x6
+1.28613799337152201 a2_x2
<= 127.297719

a2_local_6: 
+0.53503371603710126 a2_x2
+0.46658843108408976 a2_x3
+0.53671075354728992 a2_x5
<= 83.606820

a2_local_7: 
+0.70786296170684282 a2_x1
+1.41270281692481592 a2_x4
+1.36505245269741282 a2_x3
<= 168.002067

a2_local_8: 
+0.80299508935601671 a2_x1
+0.70176399774491705 a2_x5
+1.42498048234655705 a2_x3
<= 165.508713

a2_act_1: 
+0.10000000000000001 a2_x1
-10.00000000000000000 a2_z1
<= 0.000000

a2_act_2: 
+0.10000000000000001 a2_x2
-10.00000000000000000 a2_z2
<= 0.000000

a3_local_1: 
+1.67638742773783189 a3_x2
+1.36436836675838635 a3_x1
+1.86760844542599158 a3_x5
<= 328.124520

a3_local_2: 
+1.08415132765502142 a3_x6
+1.11704397510896669 a3_x5
+0.89521990385602379 a3_x3
<= 132.293086

a3_local_3: 
+0.88265922331550273 a3_x5
+0.96290938705420404 a3_x1
+1.13294006745177844 a3_x4
<= 135.124421

a3_local_4: 
+0.80179812752017388 a3_x5
+1.24719672655364167 a3_x2
+0.99067928904710423 a3_x6
<= 118.860679

a3_local_5: 
+1.30949862948937135 a3_x5
+0.76365104741647727 a3_x1
+1.02627192324006611 a3_x6
<= 179.892082

a3_local_6: 
+0.84047754887639736 a3_x2
+1.18979977673033877 a3_x3
+0.96411023430850717 a3_x1
<= 205.354876

a3_local_7: 
+1.27933410688494886 a3_x4
+0.67732240915929165 a3_x3
+1.47640176447317550 a3_x6
<= 145.524029

a3_local_8: 
+1.73125055790043070 a3_x5
+1.78153778449639555 a3_x6
+1.87710591073465327 a3_x4
<= 282.983747

a3_act_1: 
+0.10000000000000001 a3_x1
-10.00000000000000000 a3_z1
<= 0.000000

a3_act_2: 
+0.10000000000000001 a3_x2
-10.00000000000000000 a3_z2
<= 0.000000

a4_local_1: 
+1.01285353385920729 a4_x2
+1.46421319662035687 a4_x3
+0.68296065238871184 a4_x1
<= 123.726829

a4_local_2: 
+0.88521527465669758 a4_x2
+1.12966871294422488 a4_x1
+1.02261227051228998 a4_x6
<= 111.085064

a4_local_3: 
+1.08880147355287349 a4_x5
+0.70667531768794756 a4_x3
+1.41507701623389393 a4_x2
<= 172.679535

a4_local_4: 
+1.13981157885079698 a4_x2
+0.87733799037928639 a4_x3
+1.11164290428484924 a4_x4
<= 134.496883

a4_local_5: 
+1.18164744993875570 a4_x1
+0.84627610380052831 a4_x3
+0.91987030090550870 a4_x2
<= 117.682844

a4_local_6: 
+0.60892166887811405 a4_x2
+0.92113047177979424 a4_x6
+1.64224735480741635 a4_x3
<= 168.914823

a4_local_7: 
+1.66692311925146130 a4_x4
+1.33488581468599388 a4_x2
+0.59990769127316079 a4_x5
<= 152.275193

a4_local_8: 
+1.47571798266220267 a4_x5
+1.44656633345630770 a4_x2
+0.67763625011602469 a4_x4
<= 193.074030

a4_act_1: 
+0.10000000000000001 a4_x1
-10.00000000000000000 a4_z1
<= 0.000000

a4_act_2: 
+0.10000000000000001 a4_x2
-10.00000000000000000 a4_z2
<= 0.000000

coupling_1: 
+0.10669904424204700 a1_x1
+0.26919227273908974 a2_x1
+1.72703912580382313 a3_x1
+9.37215517818039601 a4_x1
+0.75421793958218575 short_1
-0.75421793958218575 surp_1
= 772.378144

coupling_2: 
+0.10779997009284494 a1_x2
+0.39973888311147404 a2_x2
+2.44610769459620281 a3_x2
+9.27644042144658876 a4_x2
+0.76384072596088637 short_2
-0.76384072596088637 surp_2
= 801.664146

coupling_3: 
+0.09205409258907174 a1_x3
+0.31793931604484871 a2_x3
+1.85663333767239358 a3_x3
+10.86317807144096292 a4_x3
+0.85030006061241403 short_3
-0.85030006061241403 surp_3
= 958.668906

bounds
  0.000000 <= a1_x1 <= 100.000000
  0.000000 <= a1_x2 <= 100.000000
  0.000000 <= a1_x3 <= 100.000000
  0.000000 <= a1_x4 <= 100.000000
  0.000000 <= a1_x5 <= 100.000000
  0.000000 <= a1_x6 <= 100.000000
  0.000000 <= a2_x1 <= 100.000000
  0.000000 <= a2_x2 <= 100.000000
  0.000000 <= a2_x3 <= 100.000000
  0.000000 <= a2_x4 <= 100.000000
  0.000000 <= a2_x5 <= 100.000000
  0.000000 <= a2_x6 <= 100.000000
  0.000000 <= a3_x1 <= 100.000000
  0.000000 <= a3_x2 <= 100.000000
  0.000000 <= a3_x3 <= 100.000000
  0.000000 <= a3_x4 <= 100.000000
  0.000000 <= a3_x5 <= 100.000000
  0.000000 <= a3_x6 <= 100.000000
  0.000000 <= a4_x1 <= 100.000000
  0.000000 <= a4_x2 <= 100.000000
  0.000000 <= a4_x3 <= 100.000000
  0.000000 <= a4_x4 <= 100.000000
  0.000000 <= a4_x5 <= 100.000000
  0.000000 <= a4_x6 <= 100.000000
  0.000000 <= short_1 <= +inf
  0.000000 <= surp_1 <= +inf
  0.000000 <= short_2 <= +inf
  0.000000 <= surp_2 <= +inf
  0.000000 <= short_3 <= +inf
  0.000000 <= surp_3 <= +inf
 0 <= a1_z1 <= 1
 0 <= a1_z2 <= 1
 0 <= a2_z1 <= 1
 0 <= a2_z2 <= 1
 0 <= a3_z1 <= 1
 0 <= a3_z2 <= 1
 0 <= a4_z1 <= 1
 0 <= a4_z2 <= 1

binary
  a1_z1
  a1_z2
  a2_z1
  a2_z2
  a3_z1
  a3_z2
  a4_z1
  a4_z2
end
