min
obj: 
  +2.86702301288668870 a1_x1
  +4.61217347674817457 a1_x2
  +8.37266539443051627 a1_x3
  +3.88741117842564377 a1_x4
  +3.57352147071314707 a1_x5
  +7.90632682258909369 a1_x6
  +32.52167325628295202 a1_z1
  +46.95512094955829951 a1_z2
  +6.18957109820114049 a2_x1
  +7.65671715801393571 a2_x2
  +8.20437447093011585 a2_x3
  +3.61886914738285226 a2_x4
  +5.28592570462095690 a2_x5
  +3.39477691808076010 a2_x6
  +12.60548138304202581 a2_z1
  +31.13088232979415793 a2_z2
  +1.00384692741400694 a3_x1
  +6.98746639113835144 a3_x2
  +2.08920162411281263 a3_x3
  +9.36108080061404380 a3_x4
  +4.85098195997041159 a3_x5
  +1.72431460157976346 a3_x6
  +35.01946721881928681 a3_z1
  +33.01267747284549614 a3_z2
  +2.50332166724604033 a4_x1
  +6.42161923356443864 a4_x2
  +2.38773349159600956 a4_x3
  +7.47586240964883597 a4_x4
  +7.41060969147519710 a4_x5
  +8.58602476997859654 a4_x6
  +17.16287865875343854 a4_z1
  +23.31726507162430551 a4_z2
  +1000000.00000000000000000 short_1
  +1000000.00000000000000000 surp_1
  +1000000.00000000000000000 short_2
  +1000000.00000000000000000 surp_2
  +1000000.00000000000000000 short_3
  +1000000.00000000000000000 surp_3

s.t.

a1_local_1: 
+0.39177291867941216 a1_x3
+0.68779036958806894 a1_x1
+0.61111241821069417 a1_x2
<= 101.678160

a1_local_2: 
+0.48694897149036165 a1_x6
+0.69838775780659323 a1_x4
+0.52453335347750607 a1_x3
<= 66.970578

a1_local_3: 
+0.47040300645458738 a1_x5
+0.63568217323300102 a1_x6
+0.61206959257281701 a1_x4
<= 63.024802

a1_local_4: 
+0.61056793419217059 a1_x3
+0.70428887678463692 a1_x6
+0.36219328510305021 a1_x4
<= 56.530766

a1_local_5: 
+0.72564219502028815 a1_x4
+0.57689771923724265 a1_x5
+0.37500990166261705 a1_x2
<= 61.430858

a1_local_6: 
+0.61705341369718358 a1_x5
+0.59840647661207103 a1_x4
+0.51103304530468407 a1_x2
<= 83.984197

a1_local_7: 
+0.57331027592428341 a1_x2
+0.73011262331751592 a1_x3
+0.37182103866246907 a1_x6
<= 104.233835

a1_local_8: 
+0.66788022824517301 a1_x2
+0.64196471180922843 a1_x5
+0.37658639050139564 a1_x1
<= 88.057536

a1_act_1: 
+0.00999950003749688 a1_x1
-0.99995000374968757 a1_z1
<= 0.000000

a1_act_2: 
+0.00999950003749688 a1_x2
-0.99995000374968757 a1_z2
<= 0.000000

a2_local_1: 
+0.63988352588496811 a2_x4
+0.53762771409426813 a2_x3
+0.63805236758035289 a2_x1
<= 97.833039

a2_local_2: 
+0.43438668290792909 a2_x6
+0.25654329375471274 a2_x2
+0.51304202949093014 a2_x5
<= 47.084218

a2_local_3: 
+0.66540499150489674 a2_x6
+0.55237007187951215 a2_x4
+0.40854450639927925 a2_x5
<= 97.843652

a2_local_4: 
+0.69308902132071393 a2_x3
+0.43374738377742261 a2_x4
+0.50261180441065423 a2_x1
<= 106.019162

a2_local_5: 
+0.36956895117403649 a2_x5
+0.35902910665669163 a2_x4
+0.50031562820236541 a2_x3
<= 82.767891

a2_local_6: 
+0.33937885670187712 a2_x6
+0.66594698657532880 a2_x4
+0.60656319352996069 a2_x3
<= 90.307614

a2_local_7: 
+0.31442704344611638 a2_x6
+0.32994533333758369 a2_x3
+0.36454916372252538 a2_x5
<= 37.601475

a2_local_8: 
+0.23844296953293850 a2_x5
+0.39023415239372405 a2_x3
+0.31807388865787833 a2_x4
<= 39.841712

a2_act_1: 
+0.00999950003749688 a2_x1
-0.99995000374968757 a2_z1
<= 0.000000

a2_act_2: 
+0.00999950003749688 a2_x2
-0.99995000374968757 a2_z2
<= 0.000000

a3_local_1: 
+0.54521162174487614 a3_x4
+0.62866008780688754 a3_x2
+0.55455457938146979 a3_x6
<= 57.400348

a3_local_2: 
+0.47130421698944397 a3_x4
+0.81952103305188728 a3_x6
+0.32597179545711441 a3_x3
<= 60.371498

a3_local_3: 
+0.63710162769497636 a3_x4
+0.53136446152404904 a3_x2
+0.55834874855923988 a3_x3
<= 54.229711

a3_local_4: 
+0.56378721533952558 a3_x2
+0.73437186999541926 a3_x4
+0.37794435090252942 a3_x3
<= 86.903985

a3_local_5: 
+0.52454001781291226 a3_x4
+0.64377892316446506 a3_x6
+0.55714133557117407 a3_x1
<= 65.023708

a3_local_6: 
+0.51078968068259356 a3_x3
+0.59372936482145622 a3_x4
+0.62175505101035100 a3_x1
<= 58.957358

a3_local_7: 
+0.57222014825871059 a3_x4
+0.46253952721860947 a3_x1
+0.67721583537832641 a3_x6
<= 99.771505

a3_local_8: 
+0.58264471438103860 a3_x2
+0.57275626582281391 a3_x3
+0.57660679562813355 a3_x1
<= 67.145302

a3_act_1: 
+0.00999950003749688 a3_x1
-0.99995000374968757 a3_z1
<= 0.000000

a3_act_2: 
+0.00999950003749688 a3_x2
-0.99995000374968757 a3_z2
<= 0.000000

a4_local_1: 
+0.51524792990526491 a4_x1
+0.64131569030573032 a4_x4
+0.56853650374978015 a4_x5
<= 54.230489

a4_local_2: 
+0.53026022173153775 a4_x6
+0.62207193170176522 a4_x2
+0.57606476114934746 a4_x3
<= 67.391399

a4_local_3: 
+0.58327998912470014 a4_x1
+0.56845349214182617 a4_x4
+0.58021123873848957 a4_x5
<= 84.750178

a4_local_4: 
+0.34456449555223517 a4_x2
+0.68318818009549687 a4_x6
+0.64383943571564217 a4_x5
<= 58.377444

a4_local_5: 
+0.48190778861468747 a4_x2
+0.41976839610883476 a4_x5
+0.76912897286522652 a4_x1
<= 90.464514

a4_local_6: 
+0.47920236764452440 a4_x5
+0.67714376241244656 a4_x6
+0.55842762813975999 a4_x4
<= 119.397794

a4_local_7: 
+0.36463701504745766 a4_x1
+0.58561286276784918 a4_x5
+0.72394573154216779 a4_x2
<= 56.275021

a4_local_8: 
+0.58138333225100192 a4_x1
+0.53893158259628360 a4_x6
+0.60954587215482503 a4_x5
<= 85.527877

a4_act_1: 
+0.00999950003749688 a4_x1
-0.99995000374968757 a4_z1
<= 0.000000

a4_act_2: 
+0.00999950003749688 a4_x2
-0.99995000374968757 a4_z2
<= 0.000000

coupling_1: 
+0.00794117108076848 a1_x1
+0.06224337799709451 a2_x1
+0.30819076280716928 a3_x1
+1.31261657467468629 a4_x1
+0.12102098126821660 short_1
-0.12102098126821660 surp_1
= 100.482183

coupling_2: 
+0.00561297955752767 a1_x2
+0.03000903037740714 a2_x2
+0.14393835506615793 a3_x2
+0.98238624868068747 a4_x2
+0.08144618131082021 short_2
-0.08144618131082021 surp_2
= 46.290184

coupling_3: 
+0.01536127946305423 a1_x3
+0.05602554432620455 a2_x3
+0.28516083122223312 a3_x3
+0.92752754097174805 a4_x3
+0.16583294387991440 short_3
-0.16583294387991440 surp_3
= 56.860444

bounds
  0.000000 <= a1_x1 <= 100.000000
  0.000000 <= a1_x2 <= 100.000000
  0.000000 <= a1_x3 <= 100.000000
  0.000000 <= a1_x4 <= 100.000000
  0.000000 <= a1_x5 <= 100.000000
  0.000000 <= a1_x6 <= 100.000000
  0.000000 <= a2_x1 <= 100.000000
  0.000000 <= a2_x2 <= 100.000000
  0.000000 <= a2_x3 <= 100.000000
  0.000000 <= a2_x4 <= 100.000000
  0.000000 <= a2_x5 <= 100.000000
  0.000000 <= a2_x6 <= 100.000000
  0.000000 <= a3_x1 <= 100.000000
  0.000000 <= a3_x2 <= 100.000000
  0.000000 <= a3_x3 <= 100.000000
  0.000000 <= a3_x4 <= 100.000000
  0.000000 <= a3_x5 <= 100.000000
  0.000000 <= a3_x6 <= 100.000000
  0.000000 <= a4_x1 <= 100.000000
  0.000000 <= a4_x2 <= 100.000000
  0.000000 <= a4_x3 <= 100.000000
  0.000000 <= a4_x4 <= 100.000000
  0.000000 <= a4_x5 <= 100.000000
  0.000000 <= a4_x6 <= 100.000000
  0.000000 <= short_1 <= +inf
  0.000000 <= surp_1 <= +inf
  0.000000 <= short_2 <= +inf
  0.000000 <= surp_2 <= +inf
  0.000000 <= short_3 <= +inf
  0.000000 <= surp_3 <= +inf
 0 <= a1_z1 <= 1
 0 <= a1_z2 <= 1
 0 <= a2_z1 <= 1
 0 <= a2_z2 <= 1
 0 <= a3_z1 <= 1
 0 <= a3_z2 <= 1
 0 <= a4_z1 <= 1
 0 <= a4_z2 <= 1

binary
  a1_z1
  a1_z2
  a2_z1
  a2_z2
  a3_z1
  a3_z2
  a4_z1
  a4_z2
end
