min
obj: 
  +4.00927114806491947 a1_x1
  +1.96797315584533505 a1_x2
  +5.12450639908132288 a1_x3
  +5.32896604620880687 a1_x4
  +7.73264361972508052 a1_x5
  +5.13954220661915251 a1_x6
  +7.46013036925632012 a1_z1
  +49.87266735161764331 a1_z2
  +4.20073886186967549 a2_x1
  +7.53413172178710777 a2_x2
  +3.45719216892709458 a2_x3
  +4.76571137466424233 a2_x4
  +9.38617884989886875 a2_x5
  +1.72886855476886026 a2_x6
  +29.54080410777594423 a2_z1
  +23.53717041290824596 a2_z2
  +8.21626166621846110 a3_x1
  +4.90875225577424779 a3_x2
  +9.92442060145863181 a3_x3
  +6.78612387718403109 a3_x4
  +8.67367115140907785 a3_x5
  +9.64439582433125331 a3_x6
  +44.88444155829282778 a3_z1
  +12.68276888992290807 a3_z2
  +8.69787784647402162 a4_x1
  +4.12769081519996917 a4_x2
  +7.02237149328651711 a4_x3
  +1.06108582988083655 a4_x4
  +7.09274128796206593 a4_x5
  +7.93550517031278613 a4_x6
  +37.98565391640966737 a4_z1
  +17.37310151636162914 a4_z2
  +1000000.00000000000000000 short_1
  +1000000.00000000000000000 surp_1
  +1000000.00000000000000000 short_2
  +1000000.00000000000000000 surp_2
  +1000000.00000000000000000 short_3
  +1000000.00000000000000000 surp_3

s.t.

a1_local_1: 
+0.78148208496250926 a1_x3
+0.33201208048706399 a1_x6
+0.52825536371465331 a1_x4
<= 62.059019

a1_local_2: 
+0.58670733409151166 a1_x2
+0.70835702872030959 a1_x5
+0.39243448368583234 a1_x3
<= 52.722070

a1_local_3: 
+0.70141876087231581 a1_x4
+0.42474565233078199 a1_x2
+0.57236601289947653 a1_x5
<= 95.189456

a1_local_4: 
+0.79345230999920169 a1_x3
+0.37982485727240278 a1_x6
+0.47556966845555809 a1_x5
<= 96.205015

a1_local_5: 
+0.29643645414095615 a1_x1
+0.68893782062029729 a1_x6
+0.66143035005606710 a1_x3
<= 114.504433

a1_local_6: 
+0.67227183458255102 a1_x1
+0.66920137077852326 a1_x3
+0.31657559251331524 a1_x2
<= 115.418682

a1_local_7: 
+0.35035242415218681 a1_x1
+0.80260096360918498 a1_x5
+0.48278864123371185 a1_x4
<= 64.005943

a1_local_8: 
+0.70654102497080074 a1_x3
+0.44855129487686723 a1_x1
+0.54735867207663391 a1_x6
<= 61.231522

a1_act_1: 
+0.00999950003749688 a1_x1
-0.99995000374968757 a1_z1
<= 0.000000

a1_act_2: 
+0.00999950003749688 a1_x2
-0.99995000374968757 a1_z2
<= 0.000000

a2_local_1: 
+0.52863920803033648 a2_x6
+0.58282630080425946 a2_x5
+0.58178625970216458 a2_x3
<= 93.859900

a2_local_2: 
+0.51994057711509090 a2_x4
+0.56406978040085598 a2_x5
+0.33078981155633108 a2_x3
<= 43.694634

a2_local_3: 
+0.69243414210764209 a2_x1
+0.55541336608486103 a2_x5
+0.55357487177182529 a2_x6
<= 72.494496

a2_local_4: 
+0.32500183314932224 a2_x1
+0.44844911292136991 a2_x4
+0.28652623693084900 a2_x5
<= 68.085559

a2_local_5: 
+0.38478334937367176 a2_x5
+0.45250348597243334 a2_x1
+0.33447925302892162 a2_x3
<= 77.729460

a2_local_6: 
+0.41197549470920708 a2_x6
+0.47158739250967924 a2_x2
+0.61357107736613170 a2_x4
<= 68.552122

a2_local_7: 
+0.51003588959090784 a2_x6
+0.45728351426094060 a2_x4
+0.45829857385162720 a2_x3
<= 78.669554

a2_local_8: 
+0.51195943521713549 a2_x3
+0.41274297189103570 a2_x5
+0.29283455442810263 a2_x4
<= 47.352818

a2_act_1: 
+0.00999950003749688 a2_x1
-0.99995000374968757 a2_z1
<= 0.000000

a2_act_2: 
+0.00999950003749688 a2_x2
-0.99995000374968757 a2_z2
<= 0.000000

a3_local_1: 
+0.69953121069518209 a3_x1
+0.53633760029317357 a3_x2
+0.47222670802813865 a3_x5
<= 62.808330

a3_local_2: 
+0.43189630367180148 a3_x6
+0.63034082954767845 a3_x2
+0.64508605742162761 a3_x3
<= 106.493027

a3_local_3: 
+0.75510023010438287 a3_x1
+0.29490916266949996 a3_x6
+0.58553584712627360 a3_x3
<= 58.979952

a3_local_4: 
+0.57146074104190003 a3_x1
+0.37883649267024916 a3_x2
+0.72795297462758346 a3_x3
<= 55.330092

a3_local_5: 
+0.67667084240502340 a3_x6
+0.44135273582621337 a3_x5
+0.58934228901173613 a3_x3
<= 114.600835

a3_local_6: 
+0.35861113214213275 a3_x5
+0.74032276272145270 a3_x3
+0.56861257715619817 a3_x4
<= 65.986982

a3_local_7: 
+0.49835127935034818 a3_x1
+0.38496605246954746 a3_x5
+0.77681860225916621 a3_x2
<= 85.990269

a3_local_8: 
+0.50684948942356089 a3_x1
+0.47345076046357515 a3_x3
+0.72038043594168899 a3_x6
<= 104.688267

a3_act_1: 
+0.00999950003749688 a3_x1
-0.99995000374968757 a3_z1
<= 0.000000

a3_act_2: 
+0.00999950003749688 a3_x2
-0.99995000374968757 a3_z2
<= 0.000000

a4_local_1: 
+0.47876737216214971 a4_x3
+0.63031011413906779 a4_x5
+0.61113907039801108 a4_x2
<= 98.306199

a4_local_2: 
+0.69690273659467517 a4_x6
+0.50071677348457855 a4_x4
+0.51342895173338832 a4_x5
<= 67.686482

a4_local_3: 
+0.63729999423649852 a4_x6
+0.53225356559905990 a4_x3
+0.55727449183795075 a4_x2
<= 113.984769

a4_local_4: 
+0.41786782847028686 a4_x3
+0.41464613717888876 a4_x6
+0.80836567149536542 a4_x5
<= 60.763549

a4_local_5: 
+0.45540817434513825 a4_x1
+0.78287001754602537 a4_x6
+0.42393151612862451 a4_x3
<= 65.479722

a4_local_6: 
+0.48012846594096420 a4_x6
+0.54205873239743174 a4_x3
+0.68967310142187344 a4_x4
<= 99.982316

a4_local_7: 
+0.57385155974912394 a4_x6
+0.56322130822241245 a4_x4
+0.59453859869459436 a4_x5
<= 57.470832

a4_local_8: 
+0.62719280563484514 a4_x2
+0.64269795211341441 a4_x4
+0.43996423367032289 a4_x1
<= 52.768534

a4_act_1: 
+0.00999950003749688 a4_x1
-0.99995000374968757 a4_z1
<= 0.000000

a4_act_2: 
+0.00999950003749688 a4_x2
-0.99995000374968757 a4_z2
<= 0.000000

coupling_1: 
+0.00477660078473924 a1_x1
+0.05177902008021796 a2_x1
+0.21038094113136652 a3_x1
+0.96974382310028040 a4_x1
+0.07947607920628728 short_1
-0.07947607920628728 surp_1
= 91.782141

coupling_2: 
+0.00872230220110395 a1_x2
+0.05210215858442859 a2_x2
+0.24637608780905484 a3_x2
+0.94771072907727016 a4_x2
+0.13847830852319395 short_2
-0.13847830852319395 surp_2
= 30.915233

coupling_3: 
+0.00835203425106905 a1_x3
+0.03615280246891770 a2_x3
+0.14542732018200652 a3_x3
+0.97995719836706574 a4_x3
+0.09262289757604270 short_3
-0.09262289757604270 surp_3
= 58.132995

bounds
  0.000000 <= a1_x1 <= 100.000000
  0.000000 <= a1_x2 <= 100.000000
  0.000000 <= a1_x3 <= 100.000000
  0.000000 <= a1_x4 <= 100.000000
  0.000000 <= a1_x5 <= 100.000000
  0.000000 <= a1_x6 <= 100.000000
  0.000000 <= a2_x1 <= 100.000000
  0.000000 <= a2_x2 <= 100.000000
  0.000000 <= a2_x3 <= 100.000000
  0.000000 <= a2_x4 <= 100.000000
  0.000000 <= a2_x5 <= 100.000000
  0.000000 <= a2_x6 <= 100.000000
  0.000000 <= a3_x1 <= 100.000000
  0.000000 <= a3_x2 <= 100.000000
  0.000000 <= a3_x3 <= 100.000000
  0.000000 <= a3_x4 <= 100.000000
  0.000000 <= a3_x5 <= 100.000000
  0.000000 <= a3_x6 <= 100.000000
  0.000000 <= a4_x1 <= 100.000000
  0.000000 <= a4_x2 <= 100.000000
  0.000000 <= a4_x3 <= 100.000000
  0.000000 <= a4_x4 <= 100.000000
  0.000000 <= a4_x5 <= 100.000000
  0.000000 <= a4_x6 <= 100.000000
  0.000000 <= short_1 <= +inf
  0.000000 <= surp_1 <= +inf
  0.000000 <= short_2 <= +inf
  0.000000 <= surp_2 <= +inf
  0.000000 <= short_3 <= +inf
  0.000000 <= surp_3 <= +inf
 0 <= a1_z1 <= 1
 0 <= a1_z2 <= 1
 0 <= a2_z1 <= 1
 0 <= a2_z2 <= 1
 0 <= a3_z1 <= 1
 0 <= a3_z2 <= 1
 0 <= a4_z1 <= 1
 0 <= a4_z2 <= 1

binary
  a1_z1
  a1_z2
  a2_z1
  a2_z2
  a3_z1
  a3_z2
  a4_z1
  a4_z2
end
