min
obj: 
  +3.05711040055168581 a1_x1
  +8.05560131874530505 a1_x2
  +1.97423451738110156 a1_x3
  +4.43855917145081946 a1_x4
  +2.09177435273224699 a1_x5
  +8.36067334918018190 a1_x6
  +15.66642560195388789 a1_z1
  +12.32473257168471292 a1_z2
  +9.22293190738236213 a2_x1
  +7.63381403352449350 a2_x2
  +9.96116936913966633 a2_x3
  +9.94077753687388643 a2_x4
  +8.29981383037531018 a2_x5
  +5.15933962158974069 a2_x6
  +11.18650581061075044 a2_z1
  +36.51341922859109701 a2_z2
  +6.07766745897419902 a3_x1
  +8.77356431574039775 a3_x2
  +3.66477499322525757 a3_x3
  +8.98940674965133013 a3_x4
  +1.83133745097963319 a3_x5
  +5.96614000496332153 a3_x6
  +11.77177519345455892 a3_z1
  +18.83602233642604062 a3_z2
  +3.57390445949198776 a4_x1
  +7.85154573325681415 a4_x2
  +9.06414056673653157 a4_x3
  +3.88034584638911362 a4_x4
  +5.56052955494331336 a4_x5
  +7.24881590451171665 a4_x6
  +49.90852608237385368 a4_z1
  +15.56555023854576802 a4_z2
  +1000000.00000000000000000 short_1
  +1000000.00000000000000000 surp_1
  +1000000.00000000000000000 short_2
  +1000000.00000000000000000 surp_2
  +1000000.00000000000000000 short_3
  +1000000.00000000000000000 surp_3

s.t.

a1_local_1: 
+0.93641113939327514 a1_x5
+1.54129588028449538 a1_x1
+0.64880469272091867 a1_x6
<= 122.313907

a1_local_2: 
+1.42509446969425002 a1_x6
+0.70170786657711692 a1_x4
+1.39978924271924177 a1_x1
<= 170.762517

a1_local_3: 
+0.74154992491184912 a1_x3
+1.00615446867439151 a1_x1
+1.34852687109215696 a1_x2
<= 94.910062

a1_local_4: 
+0.63765526498193759 a1_x4
+0.64799871988579472 a1_x5
+1.56824550022076004 a1_x2
<= 199.286397

a1_local_5: 
+1.12208299433235270 a1_x4
+0.98305582258854074 a1_x1
+0.89119967511405629 a1_x2
<= 134.968754

a1_local_6: 
+0.99879407656146169 a1_x4
+0.84275201067255190 a1_x2
+1.18658868485161761 a1_x6
<= 106.855602

a1_local_7: 
+0.88050814813363976 a1_x3
+0.72656307409630827 a1_x5
+1.37634299849849895 a1_x6
<= 100.837966

a1_local_8: 
+0.74907819048164292 a1_x4
+0.98046715461884704 a1_x6
+1.33497412247047165 a1_x3
<= 95.215572

a1_act_1: 
+0.10000000000000001 a1_x1
-10.00000000000000000 a1_z1
<= 0.000000

a1_act_2: 
+0.10000000000000001 a1_x2
-10.00000000000000000 a1_z2
<= 0.000000

a2_local_1: 
+1.28179706852667419 a2_x3
+0.78015469418214700 a2_x4
+0.99618256361011726 a2_x1
<= 135.013823

a2_local_2: 
+1.55833401890911927 a2_x5
+1.51418772574745186 a2_x1
+0.64171094763113123 a2_x6
<= 243.717304

a2_local_3: 
+0.59559162989353565 a2_x1
+1.52809787170795053 a2_x5
+1.67900277607788673 a2_x3
<= 231.555596

a2_local_4: 
+0.56087033282076082 a2_x2
+0.60820612403187646 a2_x5
+0.63217956389271190 a2_x3
<= 109.291354

a2_local_5: 
+1.20933033545497515 a2_x5
+1.04336319165490465 a2_x6
+0.82690392416541747 a2_x4
<= 106.651324

a2_local_6: 
+1.46819630187694261 a2_x4
+0.85656259784090572 a2_x5
+0.68110783191702629 a2_x1
<= 187.687739

a2_local_7: 
+0.45707893606967953 a2_x4
+0.43239067335974063 a2_x5
+0.61975983238952714 a2_x1
<= 73.552852

a2_local_8: 
+0.46377004711846187 a2_x4
+0.65595381900059357 a2_x2
+0.54071318072203889 a2_x6
<= 73.380928

a2_act_1: 
+0.10000000000000001 a2_x1
-10.00000000000000000 a2_z1
<= 0.000000

a2_act_2: 
+0.10000000000000001 a2_x2
-10.00000000000000000 a2_z2
<= 0.000000

a3_local_1: 
+1.17200854843621438 a3_x3
+2.29090075690648298 a3_x1
+1.56174276014834268 a3_x2
<= 222.140569

a3_local_2: 
+1.61623094800875533 a3_x1
+2.33401868784126032 a3_x3
+1.92522579394460069 a3_x2
<= 341.591268

a3_local_3: 
+1.84959023794813660 a3_x4
+1.35312542381631307 a3_x5
+1.26930610161648882 a3_x1
<= 277.576108

a3_local_4: 
+2.11359203962170739 a3_x4
+2.04396957324980377 a3_x5
+1.36922219053219663 a3_x2
<= 347.821530

a3_local_5: 
+1.38912454997311863 a3_x6
+1.95404468216594651 a3_x3
+2.24411430487675689 a3_x2
<= 240.483425

a3_local_6: 
+0.76209475168910823 a3_x3
+1.31217279450304325 a3_x4
+1.25341072679505650 a3_x5
<= 205.437331

a3_local_7: 
+1.15705487324552170 a3_x6
+2.16461641996311949 a3_x2
+2.44581147314553027 a3_x3
<= 281.625878

a3_local_8: 
+1.20957232651891289 a3_x5
+1.55133986206475072 a3_x3
+2.12050182823923716 a3_x4
<= 222.610193

a3_act_1: 
+0.10000000000000001 a3_x1
-10.00000000000000000 a3_z1
<= 0.000000

a3_act_2: 
+0.10000000000000001 a3_x2
-10.00000000000000000 a3_z2
<= 0.000000

a4_local_1: 
+0.94765009017920832 a4_x2
+1.34436540007055472 a4_x5
+0.74384538604423922 a4_x1
<= 153.692796

a4_local_2: 
+1.02021707745805323 a4_x2
+0.88930699721177442 a4_x6
+1.12447108044272581 a4_x3
<= 198.631867

a4_local_3: 
+1.33682227712956125 a4_x5
+1.11759927905643597 a4_x2
+0.74804259108189775 a4_x1
<= 162.219602

a4_local_4: 
+1.33508327919292102 a4_x6
+1.29890158491299013 a4_x4
+0.74901694567286914 a4_x2
<= 179.924696

a4_local_5: 
+0.87390053584235816 a4_x6
+1.39899375205651255 a4_x4
+0.71479947535863264 a4_x1
<= 132.574319

a4_local_6: 
+1.48600677776847667 a4_x5
+0.59747702325111229 a4_x2
+1.67370452935344471 a4_x3
<= 117.659009

a4_local_7: 
+1.21036503990270994 a4_x6
+1.12979781930265788 a4_x2
+0.82619702902223657 a4_x3
<= 169.637004

a4_local_8: 
+0.73782061008822530 a4_x3
+1.26877524989372525 a4_x2
+1.35534300116721429 a4_x1
<= 154.364729

a4_act_1: 
+0.10000000000000001 a4_x1
-10.00000000000000000 a4_z1
<= 0.000000

a4_act_2: 
+0.10000000000000001 a4_x2
-10.00000000000000000 a4_z2
<= 0.000000

coupling_1: 
+0.07210628109471695 a1_x1
+0.41154109081974011 a2_x1
+3.43173199631360992 a3_x1
+13.86841735307949008 a4_x1
+1.14416998222129829 short_1
-1.14416998222129829 surp_1
= 669.171035

coupling_2: 
+0.15421926638559835 a1_x2
+0.37064114909699863 a2_x2
+3.27580755940018520 a3_x2
+9.22297108726046488 a4_x2
+1.15335086923613139 short_2
-1.15335086923613139 surp_2
= 1021.613602

coupling_3: 
+0.07830010881123101 a1_x3
+0.51607746199075155 a2_x3
+3.38687415293821426 a3_x3
+12.77137433372972097 a4_x3
+1.07435255257188600 short_3
-1.07435255257188600 surp_3
= 567.819908

bounds
  0.000000 <= a1_x1 <= 100.000000
  0.000000 <= a1_x2 <= 100.000000
  0.000000 <= a1_x3 <= 100.000000
  0.000000 <= a1_x4 <= 100.000000
  0.000000 <= a1_x5 <= 100.000000
  0.000000 <= a1_x6 <= 100.000000
  0.000000 <= a2_x1 <= 100.000000
  0.000000 <= a2_x2 <= 100.000000
  0.000000 <= a2_x3 <= 100.000000
  0.000000 <= a2_x4 <= 100.000000
  0.000000 <= a2_x5 <= 100.000000
  0.000000 <= a2_x6 <= 100.000000
  0.000000 <= a3_x1 <= 100.000000
  0.000000 <= a3_x2 <= 100.000000
  0.000000 <= a3_x3 <= 100.000000
  0.000000 <= a3_x4 <= 100.000000
  0.000000 <= a3_x5 <= 100.000000
  0.000000 <= a3_x6 <= 100.000000
  0.000000 <= a4_x1 <= 100.000000
  0.000000 <= a4_x2 <= 100.000000
  0.000000 <= a4_x3 <= 100.000000
  0.000000 <= a4_x4 <= 100.000000
  0.000000 <= a4_x5 <= 100.000000
  0.000000 <= a4_x6 <= 100.000000
  0.000000 <= short_1 <= +inf
  0.000000 <= surp_1 <= +inf
  0.000000 <= short_2 <= +inf
  0.000000 <= surp_2 <= +inf
  0.000000 <= short_3 <= +inf
  0.000000 <= surp_3 <= +inf
 0 <= a1_z1 <= 1
 0 <= a1_z2 <= 1
 0 <= a2_z1 <= 1
 0 <= a2_z2 <= 1
 0 <= a3_z1 <= 1
 0 <= a3_z2 <= 1
 0 <= a4_z1 <= 1
 0 <= a4_z2 <= 1

binary
  a1_z1
  a1_z2
  a2_z1
  a2_z2
  a3_z1
  a3_z2
  a4_z1
  a4_z2
end
