min
obj: 
  +2.86702301288668870 a1_x1
  +4.61217347674817457 a1_x2
  +8.37266539443051627 a1_x3
  +3.88741117842564377 a1_x4
  +3.57352147071314707 a1_x5
  +7.90632682258909369 a1_x6
  +32.52167325628295202 a1_z1
  +46.95512094955829951 a1_z2
  +6.18957109820114049 a2_x1
  +7.65671715801393571 a2_x2
  +8.20437447093011585 a2_x3
  +3.61886914738285226 a2_x4
  +5.28592570462095690 a2_x5
  +3.39477691808076010 a2_x6
  +12.60548138304202581 a2_z1
  +31.13088232979415793 a2_z2
  +1.00384692741400694 a3_x1
  +6.98746639113835144 a3_x2
  +2.08920162411281263 a3_x3
  +9.36108080061404380 a3_x4
  +4.85098195997041159 a3_x5
  +1.72431460157976346 a3_x6
  +35.01946721881928681 a3_z1
  +33.01267747284549614 a3_z2
  +2.50332166724604033 a4_x1
  +6.42161923356443864 a4_x2
  +2.38773349159600956 a4_x3
  +7.47586240964883597 a4_x4
  +7.41060969147519710 a4_x5
  +8.58602476997859654 a4_x6
  +17.16287865875343854 a4_z1
  +23.31726507162430551 a4_z2
  +1000000.00000000000000000 short_1
  +1000000.00000000000000000 surp_1
  +1000000.00000000000000000 short_2
  +1000000.00000000000000000 surp_2
  +1000000.00000000000000000 short_3
  +1000000.00000000000000000 surp_3

s.t.

a1_local_1: 
+0.07351441890083864 a1_x3
+0.12906075671666126 a1_x1
+0.11467248542671236 a1_x2
<= 19.079448

a1_local_2: 
+0.07359309928462564 a1_x6
+0.10554806069745443 a1_x4
+0.07927326562046512 a1_x3
<= 10.121332

a1_local_3: 
+0.10894601873436649 a1_x5
+0.14722491353981429 a1_x6
+0.14175620560284771 a1_x4
<= 14.596636

a1_local_4: 
+0.12907684170365080 a1_x3
+0.14888987575584070 a1_x6
+0.07656930983319098 a1_x4
<= 11.950861

a1_local_5: 
+0.11600272033728763 a1_x4
+0.09222410886129062 a1_x5
+0.05994988858808856 a1_x2
<= 9.820469

a1_local_6: 
+0.13554193383096022 a1_x5
+0.13144594820566921 a1_x4
+0.11225350297812919 a1_x2
<= 18.447966

a1_local_7: 
+0.07714784563317137 a1_x2
+0.09824804878600941 a1_x3
+0.05003432399262635 a1_x6
<= 14.026289

a1_local_8: 
+0.14909461757358530 a1_x2
+0.14330935271795203 a1_x5
+0.08406747422774635 a1_x1
<= 19.657574

a1_act_1: 
+1.00000000000000000 a1_x1
-100.00000000000000000 a1_z1
<= 0.000000

a1_act_2: 
+1.00000000000000000 a1_x2
-100.00000000000000000 a1_z2
<= 0.000000

a2_local_1: 
+0.63988352588496811 a2_x4
+0.53762771409426813 a2_x3
+0.63805236758035289 a2_x1
<= 97.833039

a2_local_2: 
+0.43438668290792909 a2_x6
+0.25654329375471274 a2_x2
+0.51304202949093014 a2_x5
<= 47.084218

a2_local_3: 
+0.66540499150489674 a2_x6
+0.55237007187951215 a2_x4
+0.40854450639927925 a2_x5
<= 97.843652

a2_local_4: 
+0.69308902132071393 a2_x3
+0.43374738377742261 a2_x4
+0.50261180441065423 a2_x1
<= 106.019162

a2_local_5: 
+0.36956895117403649 a2_x5
+0.35902910665669163 a2_x4
+0.50031562820236541 a2_x3
<= 82.767891

a2_local_6: 
+0.33937885670187712 a2_x6
+0.66594698657532880 a2_x4
+0.60656319352996069 a2_x3
<= 90.307614

a2_local_7: 
+0.31442704344611638 a2_x6
+0.32994533333758369 a2_x3
+0.36454916372252538 a2_x5
<= 37.601475

a2_local_8: 
+0.23844296953293850 a2_x5
+0.39023415239372405 a2_x3
+0.31807388865787833 a2_x4
<= 39.841712

a2_act_1: 
+1.00000000000000000 a2_x1
-100.00000000000000000 a2_z1
<= 0.000000

a2_act_2: 
+1.00000000000000000 a2_x2
-100.00000000000000000 a2_z2
<= 0.000000

a3_local_1: 
+2.08481391436565877 a3_x4
+2.40390931923206619 a3_x2
+2.12054009353212924 a3_x6
<= 219.491001

a3_local_2: 
+1.71832187295687167 a3_x4
+2.98788100271296608 a3_x6
+1.18845630043138040 a3_x3
<= 220.107653

a3_local_3: 
+1.78346298224415190 a3_x4
+1.48746888410392120 a3_x2
+1.56300703208139669 a3_x3
<= 151.807308

a3_local_4: 
+1.69922910598085619 a3_x2
+2.21336352112616153 a3_x4
+1.13910713833385535 a3_x3
<= 261.924672

a3_local_5: 
+1.80896006652738750 a3_x4
+2.22017448455551047 a3_x6
+1.92139092010985024 a3_x1
<= 224.244647

a3_local_6: 
+2.10843203167229643 a3_x3
+2.45078954856940667 a3_x4
+2.56647366809056932 a3_x1
<= 243.363535

a3_local_7: 
+2.63327146954917479 a3_x4
+2.12853766905958919 a3_x1
+3.11644590540073052 a3_x6
<= 459.133531

a3_local_8: 
+2.22507081285502473 a3_x2
+2.18730766538581944 a3_x3
+2.20201251256348041 a3_x1
<= 256.422221

a3_act_1: 
+1.00000000000000000 a3_x1
-100.00000000000000000 a3_z1
<= 0.000000

a3_act_2: 
+1.00000000000000000 a3_x2
-100.00000000000000000 a3_z2
<= 0.000000

a4_local_1: 
+11.77641303440561060 a4_x1
+14.65779485203141341 a4_x4
+12.99436699245997673 a4_x5
<= 1239.482191

a4_local_2: 
+5.64429825718772982 a4_x6
+6.62157819133437098 a4_x2
+6.13185978153326516 a4_x3
<= 717.340546

a4_local_3: 
+13.85858350090176572 a4_x1
+13.50630972108056582 a4_x4
+13.78567077585775458 a4_x5
<= 2013.642565

a4_local_4: 
+5.68169980989162227 a4_x2
+11.26543855526268523 a4_x6
+10.61659702820929141 a4_x5
<= 962.615470

a4_local_5: 
+5.80696924427362671 a4_x2
+5.05819209299200079 a4_x5
+9.26797282763819652 a4_x1
<= 1090.093718

a4_local_6: 
+9.30543950963730992 a4_x5
+13.14918444879523918 a4_x6
+10.84388322141911942 a4_x4
<= 2318.538114

a4_local_7: 
+7.51856133690954831 a4_x1
+12.07492944135202606 a4_x5
+14.92725686799851914 a4_x2
<= 1160.351756

a4_local_8: 
+9.95592838987882267 a4_x1
+9.22896124764749182 a4_x6
+10.43819923426986307 a4_x5
<= 1464.626477

a4_act_1: 
+1.00000000000000000 a4_x1
-100.00000000000000000 a4_z1
<= 0.000000

a4_act_2: 
+1.00000000000000000 a4_x2
-100.00000000000000000 a4_z2
<= 0.000000

coupling_1: 
+0.00794117108076848 a1_x1
+0.06224337799709451 a2_x1
+0.30819076280716928 a3_x1
+1.31261657467468629 a4_x1
+0.12102098126821660 short_1
-0.12102098126821660 surp_1
= 100.482183

coupling_2: 
+0.00027651234956270 a1_x2
+0.00147833559924991 a2_x2
+0.00709083871473491 a3_x2
+0.04839531785510874 a4_x2
+0.00401228522682949 short_2
-0.00401228522682949 surp_2
= 2.280394

coupling_3: 
+85.73252945851653806 a1_x3
+312.68304446436724220 a2_x3
+1591.50540955748920169 a3_x3
+5176.60540068940827041 a4_x3
+925.52692505670438550 short_3
-925.52692505670438550 surp_3
= 317342.684481

bounds
  0.000000 <= a1_x1 <= 100.000000
  0.000000 <= a1_x2 <= 100.000000
  0.000000 <= a1_x3 <= 100.000000
  0.000000 <= a1_x4 <= 100.000000
  0.000000 <= a1_x5 <= 100.000000
  0.000000 <= a1_x6 <= 100.000000
  0.000000 <= a2_x1 <= 100.000000
  0.000000 <= a2_x2 <= 100.000000
  0.000000 <= a2_x3 <= 100.000000
  0.000000 <= a2_x4 <= 100.000000
  0.000000 <= a2_x5 <= 100.000000
  0.000000 <= a2_x6 <= 100.000000
  0.000000 <= a3_x1 <= 100.000000
  0.000000 <= a3_x2 <= 100.000000
  0.000000 <= a3_x3 <= 100.000000
  0.000000 <= a3_x4 <= 100.000000
  0.000000 <= a3_x5 <= 100.000000
  0.000000 <= a3_x6 <= 100.000000
  0.000000 <= a4_x1 <= 100.000000
  0.000000 <= a4_x2 <= 100.000000
  0.000000 <= a4_x3 <= 100.000000
  0.000000 <= a4_x4 <= 100.000000
  0.000000 <= a4_x5 <= 100.000000
  0.000000 <= a4_x6 <= 100.000000
  0.000000 <= short_1 <= +inf
  0.000000 <= surp_1 <= +inf
  0.000000 <= short_2 <= +inf
  0.000000 <= surp_2 <= +inf
  0.000000 <= short_3 <= +inf
  0.000000 <= surp_3 <= +inf
 0 <= a1_z1 <= 1
 0 <= a1_z2 <= 1
 0 <= a2_z1 <= 1
 0 <= a2_z2 <= 1
 0 <= a3_z1 <= 1
 0 <= a3_z2 <= 1
 0 <= a4_z1 <= 1
 0 <= a4_z2 <= 1

binary
  a1_z1
  a1_z2
  a2_z1
  a2_z2
  a3_z1
  a3_z2
  a4_z1
  a4_z2
end
