min
obj: 
  +1.57709742578195788 a1_x1
  +5.24362332399284625 a1_x2
  +8.06959664561268042 a1_x3
  +3.47810228856863679 a1_x4
  +9.41205830682384104 a1_x5
  +8.31656886029670339 a1_x6
  +34.00140095985545230 a1_z1
  +10.41050343041974102 a1_z2
  +7.41825931722322895 a2_x1
  +8.28066141375753872 a2_x2
  +6.06494311381576523 a2_x3
  +8.65417661359723311 a2_x4
  +4.32929045080204133 a2_x5
  +7.27024404204758401 a2_x6
  +22.65925838872017550 a2_z1
  +14.32924585982750010 a2_z2
  +6.57062993093993875 a3_x1
  +3.46672163395224064 a3_x2
  +8.73068689063360637 a3_x3
  +5.78731633243780319 a3_x4
  +5.65993509091970015 a3_x5
  +4.88699203046912878 a3_x6
  +21.67833706752954370 a3_z1
  +5.90058593924896702 a3_z2
  +6.06162452349797132 a4_x1
  +4.52735162287015491 a4_x2
  +9.79326185053260900 a4_x3
  +5.17425215108361947 a4_x4
  +5.44899982766291835 a4_x5
  +4.65504731238401082 a4_x6
  +25.90789863548987526 a4_z1
  +20.49298729783527051 a4_z2
  +1000000.00000000000000000 short_1
  +1000000.00000000000000000 surp_1
  +1000000.00000000000000000 short_2
  +1000000.00000000000000000 surp_2
  +1000000.00000000000000000 short_3
  +1000000.00000000000000000 surp_3

s.t.

a1_local_1: 
+0.13596352847283127 a1_x1
+0.13899837350269162 a1_x6
+0.08477497689183433 a1_x5
<= 18.923278

a1_local_2: 
+0.06830972995200060 a1_x5
+0.09067742765808201 a1_x2
+0.05000906387770783 a1_x4
<= 13.891990

a1_local_3: 
+0.09573373368866377 a1_x4
+0.10315489260569351 a1_x2
+0.07146114855497247 a1_x6
<= 13.738424

a1_local_4: 
+0.08845413008782765 a1_x3
+0.07375803914245212 a1_x4
+0.14156802199848759 a1_x1
<= 20.968325

a1_local_5: 
+0.06988030173910503 a1_x4
+0.10382173348933013 a1_x6
+0.13673131826474630 a1_x3
<= 21.165635

a1_local_6: 
+0.10902814260508552 a1_x2
+0.08172850974320499 a1_x4
+0.05943793147384570 a1_x3
<= 11.094098

a1_local_7: 
+0.07725503715812652 a1_x2
+0.06359602888726366 a1_x4
+0.14513754083666613 a1_x3
<= 11.147068

a1_local_8: 
+0.08948929498292520 a1_x6
+0.11579374288391542 a1_x4
+0.14877492569468567 a1_x3
<= 18.190155

a1_act_1: 
+1.00000000000000000 a1_x1
-100.00000000000000000 a1_z1
<= 0.000000

a1_act_2: 
+1.00000000000000000 a1_x2
-100.00000000000000000 a1_z2
<= 0.000000

a2_local_1: 
+0.35591206084755517 a2_x1
+0.33500971416455477 a2_x3
+0.61649091701610470 a2_x6
<= 76.027445

a2_local_2: 
+0.29269258050181168 a2_x2
+0.66344745442923447 a2_x3
+0.50149622458314169 a2_x5
<= 55.495282

a2_local_3: 
+0.58587208999272189 a2_x6
+0.58591545832703640 a2_x5
+0.52869010244594272 a2_x1
<= 86.731516

a2_local_4: 
+0.67293329812432390 a2_x6
+0.27833717259492180 a2_x4
+0.62624213382597171 a2_x2
<= 84.766908

a2_local_5: 
+0.40102108830444927 a2_x1
+0.33676782934670380 a2_x2
+0.48140944719235146 a2_x3
<= 73.241355

a2_local_6: 
+0.61882933212723013 a2_x4
+0.33175991017694112 a2_x6
+0.39217656844989979 a2_x1
<= 64.976547

a2_local_7: 
+0.34044433983619371 a2_x5
+0.52000824122231959 a2_x1
+0.33733296645497685 a2_x6
<= 79.345240

a2_local_8: 
+0.33852471556580299 a2_x1
+0.39070231529925448 a2_x2
+0.47684152191124934 a2_x6
<= 48.935018

a2_act_1: 
+1.00000000000000000 a2_x1
-100.00000000000000000 a2_z1
<= 0.000000

a2_act_2: 
+1.00000000000000000 a2_x2
-100.00000000000000000 a2_z2
<= 0.000000

a3_local_1: 
+2.29879998180699019 a3_x2
+2.64626395626165856 a3_x4
+1.81271240918700505 a3_x6
<= 248.748106

a3_local_2: 
+2.63919752839659782 a3_x2
+1.19605112638038791 a3_x4
+1.10377854139945830 a3_x6
<= 308.412929

a3_local_3: 
+2.02963673409872003 a3_x6
+3.11006307770041612 a3_x3
+2.38608041734320153 a3_x2
<= 467.381528

a3_local_4: 
+3.01182656180481523 a3_x3
+3.12083930233349127 a3_x2
+1.40115509644687530 a3_x5
<= 370.682534

a3_local_5: 
+2.71380638013069486 a3_x4
+2.45391534490188956 a3_x2
+1.26928398043340041 a3_x6
<= 214.902678

a3_local_6: 
+2.09653251015018371 a3_x3
+3.06641976258988214 a3_x5
+2.98323780724980470 a3_x1
<= 408.385890

a3_local_7: 
+1.87242453857657565 a3_x2
+2.98636962845241749 a3_x3
+1.81315474827001077 a3_x5
<= 251.110895

a3_local_8: 
+1.77732345640122302 a3_x2
+1.46023513189816656 a3_x5
+2.39281896445502973 a3_x3
<= 276.675099

a3_act_1: 
+1.00000000000000000 a3_x1
-100.00000000000000000 a3_z1
<= 0.000000

a3_act_2: 
+1.00000000000000000 a3_x2
-100.00000000000000000 a3_z2
<= 0.000000

a4_local_1: 
+5.49580643194633645 a4_x4
+14.14086860102149146 a4_x5
+7.40298982162893004 a4_x1
<= 1060.208871

a4_local_2: 
+6.64040998816296391 a4_x6
+13.06878543069146303 a4_x4
+6.99130696613099811 a4_x1
<= 1682.682737

a4_local_3: 
+11.07048491638577659 a4_x1
+8.70425917591208353 a4_x3
+8.65300394619715263 a4_x4
<= 1746.946962

a4_local_4: 
+11.42401540158304130 a4_x3
+11.28892147443634286 a4_x6
+10.20868280223018232 a4_x5
<= 2221.541377

a4_local_5: 
+14.97332868387320559 a4_x4
+12.18600411575199516 a4_x5
+6.91603516826217835 a4_x6
<= 1662.194907

a4_local_6: 
+8.92337484354426458 a4_x5
+12.12565389080293343 a4_x3
+12.25695822995239048 a4_x2
<= 1926.728105

a4_local_7: 
+6.83861472916388902 a4_x6
+5.28656197988794130 a4_x3
+12.83557970847133944 a4_x4
<= 806.687197

a4_local_8: 
+8.65584937357631645 a4_x6
+11.54503655933345385 a4_x4
+13.63718999890558514 a4_x1
<= 1394.588025

a4_act_1: 
+1.00000000000000000 a4_x1
-100.00000000000000000 a4_z1
<= 0.000000

a4_act_2: 
+1.00000000000000000 a4_x2
-100.00000000000000000 a4_z2
<= 0.000000

coupling_1: 
+0.00078761603989976 a1_x1
+0.00301174405951404 a2_x1
+0.01014502370834753 a3_x1
+0.07025703580472339 a4_x1
+0.00625884076028894 short_1
-0.00625884076028894 surp_1
= 5.938282

coupling_2: 
+0.95137825492814365 a1_x2
+3.81161742139711324 a2_x2
+26.68965609267520733 a3_x2
+127.24535243832865206 a4_x2
+10.78078307114064138 short_2
-10.78078307114064138 surp_2
= 10671.379266

coupling_3: 
+2.00604865404547983 a1_x3
+10.39491918806579740 a2_x3
+38.54625930843871373 a3_x3
+246.62948028347656759 a4_x3
+24.25344558593762301 short_3
-24.25344558593762301 surp_3
= 19575.168317

bounds
  0.000000 <= a1_x1 <= 100.000000
  0.000000 <= a1_x2 <= 100.000000
  0.000000 <= a1_x3 <= 100.000000
  0.000000 <= a1_x4 <= 100.000000
  0.000000 <= a1_x5 <= 100.000000
  0.000000 <= a1_x6 <= 100.000000
  0.000000 <= a2_x1 <= 100.000000
  0.000000 <= a2_x2 <= 100.000000
  0.000000 <= a2_x3 <= 100.000000
  0.000000 <= a2_x4 <= 100.000000
  0.000000 <= a2_x5 <= 100.000000
  0.000000 <= a2_x6 <= 100.000000
  0.000000 <= a3_x1 <= 100.000000
  0.000000 <= a3_x2 <= 100.000000
  0.000000 <= a3_x3 <= 100.000000
  0.000000 <= a3_x4 <= 100.000000
  0.000000 <= a3_x5 <= 100.000000
  0.000000 <= a3_x6 <= 100.000000
  0.000000 <= a4_x1 <= 100.000000
  0.000000 <= a4_x2 <= 100.000000
  0.000000 <= a4_x3 <= 100.000000
  0.000000 <= a4_x4 <= 100.000000
  0.000000 <= a4_x5 <= 100.000000
  0.000000 <= a4_x6 <= 100.000000
  0.000000 <= short_1 <= +inf
  0.000000 <= surp_1 <= +inf
  0.000000 <= short_2 <= +inf
  0.000000 <= surp_2 <= +inf
  0.000000 <= short_3 <= +inf
  0.000000 <= surp_3 <= +inf
 0 <= a1_z1 <= 1
 0 <= a1_z2 <= 1
 0 <= a2_z1 <= 1
 0 <= a2_z2 <= 1
 0 <= a3_z1 <= 1
 0 <= a3_z2 <= 1
 0 <= a4_z1 <= 1
 0 <= a4_z2 <= 1

binary
  a1_z1
  a1_z2
  a2_z1
  a2_z2
  a3_z1
  a3_z2
  a4_z1
  a4_z2
end
