min
obj: 
  +3.05711040055168581 a1_x1
  +8.05560131874530505 a1_x2
  +1.97423451738110156 a1_x3
  +4.43855917145081946 a1_x4
  +2.09177435273224699 a1_x5
  +8.36067334918018190 a1_x6
  +15.66642560195388789 a1_z1
  +12.32473257168471292 a1_z2
  +9.22293190738236213 a2_x1
  +7.63381403352449350 a2_x2
  +9.96116936913966633 a2_x3
  +9.94077753687388643 a2_x4
  +8.29981383037531018 a2_x5
  +5.15933962158974069 a2_x6
  +11.18650581061075044 a2_z1
  +36.51341922859109701 a2_z2
  +6.07766745897419902 a3_x1
  +8.77356431574039775 a3_x2
  +3.66477499322525757 a3_x3
  +8.98940674965133013 a3_x4
  +1.83133745097963319 a3_x5
  +5.96614000496332153 a3_x6
  +11.77177519345455892 a3_z1
  +18.83602233642604062 a3_z2
  +3.57390445949198776 a4_x1
  +7.85154573325681415 a4_x2
  +9.06414056673653157 a4_x3
  +3.88034584638911362 a4_x4
  +5.56052955494331336 a4_x5
  +7.24881590451171665 a4_x6
  +49.90852608237385368 a4_z1
  +15.56555023854576802 a4_z2
  +1000000.00000000000000000 short_1
  +1000000.00000000000000000 surp_1
  +1000000.00000000000000000 short_2
  +1000000.00000000000000000 surp_2
  +1000000.00000000000000000 short_3
  +1000000.00000000000000000 surp_3

s.t.

a1_local_1: 
+0.08278114525435945 a1_x5
+0.13625450699833155 a1_x1
+0.05735599807648564 a1_x6
<= 10.812863

a1_local_2: 
+0.11213709759732288 a1_x6
+0.05521562618655699 a1_x4
+0.11014589296677813 a1_x1
<= 13.436873

a1_local_3: 
+0.06384655915922141 a1_x3
+0.08662869302450664 a1_x1
+0.11610654624935744 a1_x2
<= 8.171642

a1_local_4: 
+0.05115716352366306 a1_x4
+0.05198698779231588 a1_x5
+0.12581561841619035 a1_x2
<= 15.988148

a1_local_5: 
+0.14670888209154184 a1_x4
+0.12853150925022228 a1_x1
+0.11652160198196732 a1_x2
<= 17.646747

a1_local_6: 
+0.08859215032165557 a1_x4
+0.07475135722712294 a1_x2
+0.10524936581547828 a1_x6
<= 9.477997

a1_local_7: 
+0.09417371829657091 a1_x3
+0.07770870310475689 a1_x5
+0.14720515431321471 a1_x6
<= 10.785007

a1_local_8: 
+0.05606499227218149 a1_x4
+0.07338337191674056 a1_x6
+0.09991655719110598 a1_x3
<= 7.126439

a1_act_1: 
+1.00000000000000000 a1_x1
-100.00000000000000000 a1_z1
<= 0.000000

a1_act_2: 
+1.00000000000000000 a1_x2
-100.00000000000000000 a1_z2
<= 0.000000

a2_local_1: 
+0.44028653661007133 a2_x3
+0.26797659064423018 a2_x4
+0.34218035095632082 a2_x1
<= 46.376115

a2_local_2: 
+0.68928687508009412 a2_x5
+0.66975995717254755 a2_x1
+0.28384346900607854 a2_x6
<= 107.801753

a2_local_3: 
+0.23893641348045350 a2_x1
+0.61303451322557734 a2_x5
+0.67357377337805568 a2_x3
<= 92.894293

a2_local_4: 
+0.56087033282076082 a2_x2
+0.60820612403187646 a2_x5
+0.63217956389271190 a2_x3
<= 109.291354

a2_local_5: 
+0.39821460213516391 a2_x5
+0.34356407514661369 a2_x6
+0.27228723824384471 a2_x4
<= 35.118704

a2_local_6: 
+0.61391408120970670 a2_x4
+0.35816453125501330 a2_x5
+0.28479957911726389 a2_x1
<= 78.480068

a2_local_7: 
+0.45707893606967953 a2_x4
+0.43239067335974063 a2_x5
+0.61975983238952714 a2_x1
<= 73.552852

a2_local_8: 
+0.46377004711846187 a2_x4
+0.65595381900059357 a2_x2
+0.54071318072203889 a2_x6
<= 73.380928

a2_act_1: 
+1.00000000000000000 a2_x1
-100.00000000000000000 a2_z1
<= 0.000000

a2_act_2: 
+1.00000000000000000 a2_x2
-100.00000000000000000 a2_z2
<= 0.000000

a3_local_1: 
+1.17200854843621438 a3_x3
+2.29090075690648298 a3_x1
+1.56174276014834268 a3_x2
<= 222.140569

a3_local_2: 
+1.61623094800875533 a3_x1
+2.33401868784126032 a3_x3
+1.92522579394460069 a3_x2
<= 341.591268

a3_local_3: 
+1.84959023794813660 a3_x4
+1.35312542381631307 a3_x5
+1.26930610161648882 a3_x1
<= 277.576108

a3_local_4: 
+2.11359203962170739 a3_x4
+2.04396957324980377 a3_x5
+1.36922219053219663 a3_x2
<= 347.821530

a3_local_5: 
+1.38912454997311863 a3_x6
+1.95404468216594651 a3_x3
+2.24411430487675689 a3_x2
<= 240.483425

a3_local_6: 
+1.78571007134708459 a3_x3
+3.07463103413105543 a3_x4
+2.93694209730691425 a3_x5
<= 481.372573

a3_local_7: 
+1.15705487324552170 a3_x6
+2.16461641996311949 a3_x2
+2.44581147314553027 a3_x3
<= 281.625878

a3_local_8: 
+1.20957232651891289 a3_x5
+1.55133986206475072 a3_x3
+2.12050182823923716 a3_x4
<= 222.610193

a3_act_1: 
+1.00000000000000000 a3_x1
-100.00000000000000000 a3_z1
<= 0.000000

a3_act_2: 
+1.00000000000000000 a3_x2
-100.00000000000000000 a3_z2
<= 0.000000

a4_local_1: 
+8.72925278926135029 a4_x2
+12.38358497505455702 a4_x5
+6.85191135229876025 a4_x1
<= 1415.736967

a4_local_2: 
+12.03488884656372271 a4_x2
+10.49062116131368683 a4_x6
+13.26471077902538909 a4_x3
<= 2343.140984

a4_local_3: 
+13.93005068454175266 a4_x5
+11.64568758959620709 a4_x2
+7.79480667418356532 a4_x1
<= 1690.372246

a4_local_4: 
+10.57319069423537705 a4_x6
+10.28664980257392614 a4_x4
+5.93183895209926337 a4_x2
<= 1424.913447

a4_local_5: 
+7.98245135235801939 a4_x6
+12.77879931413430370 a4_x4
+6.52917786947162515 a4_x1
<= 1210.970826

a4_local_6: 
+12.84260670376536062 a4_x5
+5.16361199622065481 a4_x2
+14.46475839166456723 a4_x3
<= 1016.851605

a4_local_7: 
+13.57253113872986816 a4_x6
+12.66908377012194720 a4_x2
+9.26463053165495154 a4_x3
<= 1902.238952

a4_local_8: 
+6.27332248594893027 a4_x3
+10.78776628891137435 a4_x2
+11.52380891661334950 a4_x1
<= 1312.486680

a4_act_1: 
+1.00000000000000000 a4_x1
-100.00000000000000000 a4_z1
<= 0.000000

a4_act_2: 
+1.00000000000000000 a4_x2
-100.00000000000000000 a4_z2
<= 0.000000

coupling_1: 
+4.41658388807849533 a1_x1
+25.20731513817989011 a2_x1
+210.19711477302385561 a3_x1
+849.45482841226157689 a4_x1
+70.08158834406853543 short_1
-70.08158834406853543 surp_1
= 40987.414213

coupling_2: 
+0.15421926638559835 a1_x2
+0.37064114909699863 a2_x2
+3.27580755940018520 a3_x2
+9.22297108726046488 a4_x2
+1.15335086923613139 short_2
-1.15335086923613139 surp_2
= 1021.613602

coupling_3: 
+15.25484685127124429 a1_x3
+100.54497708351141227 a2_x3
+659.84897456733438048 a3_x3
+2488.18759640546477385 a4_x3
+209.31112232893454461 short_3
-209.31112232893454461 surp_3
= 110625.717759

bounds
  0.000000 <= a1_x1 <= 100.000000
  0.000000 <= a1_x2 <= 100.000000
  0.000000 <= a1_x3 <= 100.000000
  0.000000 <= a1_x4 <= 100.000000
  0.000000 <= a1_x5 <= 100.000000
  0.000000 <= a1_x6 <= 100.000000
  0.000000 <= a2_x1 <= 100.000000
  0.000000 <= a2_x2 <= 100.000000
  0.000000 <= a2_x3 <= 100.000000
  0.000000 <= a2_x4 <= 100.000000
  0.000000 <= a2_x5 <= 100.000000
  0.000000 <= a2_x6 <= 100.000000
  0.000000 <= a3_x1 <= 100.000000
  0.000000 <= a3_x2 <= 100.000000
  0.000000 <= a3_x3 <= 100.000000
  0.000000 <= a3_x4 <= 100.000000
  0.000000 <= a3_x5 <= 100.000000
  0.000000 <= a3_x6 <= 100.000000
  0.000000 <= a4_x1 <= 100.000000
  0.000000 <= a4_x2 <= 100.000000
  0.000000 <= a4_x3 <= 100.000000
  0.000000 <= a4_x4 <= 100.000000
  0.000000 <= a4_x5 <= 100.000000
  0.000000 <= a4_x6 <= 100.000000
  0.000000 <= short_1 <= +inf
  0.000000 <= surp_1 <= +inf
  0.000000 <= short_2 <= +inf
  0.000000 <= surp_2 <= +inf
  0.000000 <= short_3 <= +inf
  0.000000 <= surp_3 <= +inf
 0 <= a1_z1 <= 1
 0 <= a1_z2 <= 1
 0 <= a2_z1 <= 1
 0 <= a2_z2 <= 1
 0 <= a3_z1 <= 1
 0 <= a3_z2 <= 1
 0 <= a4_z1 <= 1
 0 <= a4_z2 <= 1

binary
  a1_z1
  a1_z2
  a2_z1
  a2_z2
  a3_z1
  a3_z2
  a4_z1
  a4_z2
end
