min
obj: 
  +4.68205187695116365 a1_x1
  +5.71291625483064269 a1_x2
  +9.00563589084773142 a1_x3
  +9.01724711762336106 a1_x4
  +9.40638568868457803 a1_x5
  +5.77535620951187667 a1_x6
  +36.44079832510822570 a1_z1
  +20.35589591192510284 a1_z2
  +7.59221324303607314 a2_x1
  +9.57055811069523088 a2_x2
  +1.26049992587512483 a2_x3
  +5.39403189015226747 a2_x4
  +5.18163926236740036 a2_x5
  +3.59512023493198285 a2_x6
  +41.62149658815251030 a2_z1
  +8.22405720557796727 a2_z2
  +7.86202629574308798 a3_x1
  +4.44432428569451421 a3_x2
  +6.87835612826100196 a3_x3
  +6.09227189830646143 a3_x4
  +7.96998209317280093 a3_x5
  +3.38862436120579025 a3_x6
  +44.38425278971256915 a3_z1
  +46.43685776379189178 a3_z2
  +5.32725959516227121 a4_x1
  +2.14266889482626155 a4_x2
  +3.71753864038075932 a4_x3
  +7.47528281002840789 a4_x4
  +1.46230104481487744 a4_x5
  +9.33481878718765401 a4_x6
  +27.54992178484519982 a4_z1
  +29.02492698326168252 a4_z2
  +1000000.00000000000000000 short_1
  +1000000.00000000000000000 surp_1
  +1000000.00000000000000000 short_2
  +1000000.00000000000000000 surp_2
  +1000000.00000000000000000 short_3
  +1000000.00000000000000000 surp_3

s.t.

a1_local_1: 
+0.12957580237500510 a1_x4
+0.10601880956378679 a1_x2
+0.06981007658341432 a1_x6
<= 13.398599

a1_local_2: 
+0.10700466556347484 a1_x5
+0.11880899091204906 a1_x4
+0.05313637228352748 a1_x1
<= 14.736574

a1_local_3: 
+0.12510684960142152 a1_x6
+0.09890263386845205 a1_x2
+0.06091994067420689 a1_x1
<= 15.056159

a1_local_4: 
+0.12445424349400601 a1_x5
+0.08232104721828709 a1_x2
+0.10098440835338417 a1_x6
<= 11.150742

a1_local_5: 
+0.12053650721507331 a1_x6
+0.11708067214223417 a1_x2
+0.06108504613283301 a1_x1
<= 15.914280

a1_local_6: 
+0.12462886668514833 a1_x5
+0.08511277913413827 a1_x4
+0.08346863115007740 a1_x2
<= 11.795215

a1_local_7: 
+0.14761759920281536 a1_x1
+0.08665280746029930 a1_x4
+0.12501795037520813 a1_x3
<= 23.312029

a1_local_8: 
+0.09608653773321628 a1_x5
+0.12314793063897081 a1_x6
+0.11782398371553562 a1_x4
<= 12.767255

a1_act_1: 
+1.00000000000000000 a1_x1
-100.00000000000000000 a1_z1
<= 0.000000

a1_act_2: 
+1.00000000000000000 a1_x2
-100.00000000000000000 a1_z2
<= 0.000000

a2_local_1: 
+0.25102925704945767 a2_x3
+0.33820536481278862 a2_x4
+0.48778173978046802 a2_x5
<= 61.405033

a2_local_2: 
+0.34879777266074241 a2_x3
+0.50042309546837249 a2_x2
+0.61519349163932335 a2_x5
<= 92.492675

a2_local_3: 
+0.60342108183584997 a2_x4
+0.63241446966091830 a2_x6
+0.26871087639233177 a2_x5
<= 102.487748

a2_local_4: 
+0.42255881376663601 a2_x1
+0.49578885918991755 a2_x4
+0.62453989901379936 a2_x5
<= 107.138064

a2_local_5: 
+0.40013175235992732 a2_x2
+0.62033792694412293 a2_x5
+0.43079246751818473 a2_x1
<= 47.902703

a2_local_6: 
+0.55822557528389682 a2_x5
+0.41867061427744201 a2_x4
+0.34489115079170474 a2_x3
<= 88.617561

a2_local_7: 
+0.27015029997506507 a2_x3
+0.30659693631178969 a2_x5
+0.27439507775419025 a2_x6
<= 27.365791

a2_local_8: 
+0.47656721269219660 a2_x2
+0.29935784194281662 a2_x6
+0.41502606140354453 a2_x4
<= 74.810906

a2_act_1: 
+1.00000000000000000 a2_x1
-100.00000000000000000 a2_z1
<= 0.000000

a2_act_2: 
+1.00000000000000000 a2_x2
-100.00000000000000000 a2_z2
<= 0.000000

a3_local_1: 
+1.97891931623255179 a3_x2
+2.89699684127215873 a3_x6
+2.30104547741208432 a3_x5
<= 490.489949

a3_local_2: 
+2.05950879888157123 a3_x4
+3.20776124550529884 a3_x5
+2.36449886849332547 a3_x3
<= 370.413954

a3_local_3: 
+1.87313522748118499 a3_x4
+2.08059540181297198 a3_x5
+1.70949510080760159 a3_x1
<= 319.887298

a3_local_4: 
+3.18729690441085323 a3_x3
+1.50806319649140841 a3_x4
+3.15007826580341588 a3_x5
<= 319.990356

a3_local_5: 
+1.78874766522761819 a3_x5
+1.54706863678186224 a3_x3
+2.52406778425509914 a3_x2
<= 295.567249

a3_local_6: 
+1.42709024187998601 a3_x1
+1.94951505293723759 a3_x3
+2.19183984469877435 a3_x5
<= 298.916626

a3_local_7: 
+1.16506544790320943 a3_x6
+2.36811137766814950 a3_x4
+2.03282065906173059 a3_x1
<= 381.920354

a3_local_8: 
+3.19802455578763167 a3_x4
+2.67954195671269169 a3_x3
+3.01535807155580171 a3_x5
<= 289.335725

a3_act_1: 
+1.00000000000000000 a3_x1
-100.00000000000000000 a3_z1
<= 0.000000

a3_act_2: 
+1.00000000000000000 a3_x2
-100.00000000000000000 a3_z2
<= 0.000000

a4_local_1: 
+8.96102554595428202 a4_x1
+13.90666935569382900 a4_x4
+14.59418574293947835 a4_x6
<= 1281.786399

a4_local_2: 
+12.88543303916066129 a4_x3
+10.30335893590630825 a4_x5
+9.35717836375452450 a4_x2
<= 1476.296648

a4_local_3: 
+13.27110285049856131 a4_x5
+9.10225653023292836 a4_x1
+14.32316377422506726 a4_x3
<= 2071.540565

a4_local_4: 
+13.39125945889951375 a4_x3
+11.21937278696216111 a4_x1
+7.25756564584927233 a4_x5
<= 1651.785749

a4_local_5: 
+9.71477219035647721 a4_x6
+9.96683136825384786 a4_x4
+12.22523794397180552 a4_x2
<= 1673.621808

a4_local_6: 
+11.21603222067214389 a4_x1
+8.24416714363083436 a4_x4
+6.39972145295143147 a4_x5
<= 1064.948939

a4_local_7: 
+13.47348453300984339 a4_x2
+11.25746677886341196 a4_x5
+7.04931229726349073 a4_x4
<= 1249.005532

a4_local_8: 
+7.98173966984490502 a4_x5
+6.08938812892098813 a4_x6
+9.30525652058925523 a4_x2
<= 1353.721863

a4_act_1: 
+1.00000000000000000 a4_x1
-100.00000000000000000 a4_z1
<= 0.000000

a4_act_2: 
+1.00000000000000000 a4_x2
-100.00000000000000000 a4_z2
<= 0.000000

coupling_1: 
+36.23272250355859825 a1_x1
+223.21610260747678467 a2_x1
+460.80347434922703087 a3_x1
+3911.38663211125640373 a4_x1
+368.41601144907849630 short_1
-368.41601144907849630 surp_1
= 113418.662874

coupling_2: 
+0.25628517395041833 a1_x2
+1.18615852847995851 a2_x2
+5.20058129178209505 a3_x2
+27.65667877708955658 a4_x2
+1.88673986995645726 short_2
-1.88673986995645726 surp_2
= 2639.684132

coupling_3: 
+0.00381162554424303 a1_x3
+0.01672930094142951 a2_x3
+0.09316223478575562 a3_x3
+0.38292678116515427 a4_x3
+0.05967703110715736 short_3
-0.05967703110715736 surp_3
= 19.233567

bounds
  0.000000 <= a1_x1 <= 100.000000
  0.000000 <= a1_x2 <= 100.000000
  0.000000 <= a1_x3 <= 100.000000
  0.000000 <= a1_x4 <= 100.000000
  0.000000 <= a1_x5 <= 100.000000
  0.000000 <= a1_x6 <= 100.000000
  0.000000 <= a2_x1 <= 100.000000
  0.000000 <= a2_x2 <= 100.000000
  0.000000 <= a2_x3 <= 100.000000
  0.000000 <= a2_x4 <= 100.000000
  0.000000 <= a2_x5 <= 100.000000
  0.000000 <= a2_x6 <= 100.000000
  0.000000 <= a3_x1 <= 100.000000
  0.000000 <= a3_x2 <= 100.000000
  0.000000 <= a3_x3 <= 100.000000
  0.000000 <= a3_x4 <= 100.000000
  0.000000 <= a3_x5 <= 100.000000
  0.000000 <= a3_x6 <= 100.000000
  0.000000 <= a4_x1 <= 100.000000
  0.000000 <= a4_x2 <= 100.000000
  0.000000 <= a4_x3 <= 100.000000
  0.000000 <= a4_x4 <= 100.000000
  0.000000 <= a4_x5 <= 100.000000
  0.000000 <= a4_x6 <= 100.000000
  0.000000 <= short_1 <= +inf
  0.000000 <= surp_1 <= +inf
  0.000000 <= short_2 <= +inf
  0.000000 <= surp_2 <= +inf
  0.000000 <= short_3 <= +inf
  0.000000 <= surp_3 <= +inf
 0 <= a1_z1 <= 1
 0 <= a1_z2 <= 1
 0 <= a2_z1 <= 1
 0 <= a2_z2 <= 1
 0 <= a3_z1 <= 1
 0 <= a3_z2 <= 1
 0 <= a4_z1 <= 1
 0 <= a4_z2 <= 1

binary
  a1_z1
  a1_z2
  a2_z1
  a2_z2
  a3_z1
  a3_z2
  a4_z1
  a4_z2
end
