min
obj: 
  +4.00927114806491947 a1_x1
  +1.96797315584533505 a1_x2
  +5.12450639908132288 a1_x3
  +5.32896604620880687 a1_x4
  +7.73264361972508052 a1_x5
  +5.13954220661915251 a1_x6
  +7.46013036925632012 a1_z1
  +49.87266735161764331 a1_z2
  +4.20073886186967549 a2_x1
  +7.53413172178710777 a2_x2
  +3.45719216892709458 a2_x3
  +4.76571137466424233 a2_x4
  +9.38617884989886875 a2_x5
  +1.72886855476886026 a2_x6
  +29.54080410777594423 a2_z1
  +23.53717041290824596 a2_z2
  +8.21626166621846110 a3_x1
  +4.90875225577424779 a3_x2
  +9.92442060145863181 a3_x3
  +6.78612387718403109 a3_x4
  +8.67367115140907785 a3_x5
  +9.64439582433125331 a3_x6
  +44.88444155829282778 a3_z1
  +12.68276888992290807 a3_z2
  +8.69787784647402162 a4_x1
  +4.12769081519996917 a4_x2
  +7.02237149328651711 a4_x3
  +1.06108582988083655 a4_x4
  +7.09274128796206593 a4_x5
  +7.93550517031278613 a4_x6
  +37.98565391640966737 a4_z1
  +17.37310151636162914 a4_z2
  +1000000.00000000000000000 short_1
  +1000000.00000000000000000 surp_1
  +1000000.00000000000000000 short_2
  +1000000.00000000000000000 surp_2
  +1000000.00000000000000000 short_3
  +1000000.00000000000000000 surp_3

s.t.

a1_local_1: 
+1.53420209060712587 a1_x3
+0.65180461304434323 a1_x6
+1.03706853807701727 a1_x4
<= 121.833985

a1_local_2: 
+1.11278645865922532 a1_x2
+1.34351500936427204 a1_x5
+0.74431621011303950 a1_x3
<= 99.996033

a1_local_3: 
+1.28506240351558843 a1_x4
+0.77817232631214373 a1_x2
+1.04862613499602220 a1_x5
<= 174.395666

a1_local_4: 
+1.44533567610778446 a1_x3
+0.69188079733349495 a1_x6
+0.86628748776881193 a1_x5
<= 175.244988

a1_local_5: 
+0.65595763508653193 a1_x1
+1.52448869638979523 a1_x6
+1.46361988256319009 a1_x3
<= 253.376587

a1_local_6: 
+1.45724892645752413 a1_x1
+1.45059324068879869 a1_x3
+0.68622455768825563 a1_x2
<= 250.187115

a1_local_7: 
+0.66069759356104607 a1_x1
+1.51355175158149491 a1_x5
+0.91044694277086724 a1_x4
<= 120.702954

a1_local_8: 
+1.25505464286247048 a1_x3
+0.79677805718422456 a1_x1
+0.97229321217293230 a1_x6
<= 108.767790

a1_act_1: 
+0.10000000000000001 a1_x1
-10.00000000000000000 a1_z1
<= 0.000000

a1_act_2: 
+0.10000000000000001 a1_x2
-10.00000000000000000 a1_z2
<= 0.000000

a2_local_1: 
+0.52863920803033648 a2_x6
+0.58282630080425946 a2_x5
+0.58178625970216458 a2_x3
<= 93.859900

a2_local_2: 
+1.20368052218403210 a2_x4
+1.30584116282742868 a2_x5
+0.76578992029534698 a2_x3
<= 101.154598

a2_local_3: 
+0.69243414210764209 a2_x1
+0.55541336608486103 a2_x5
+0.55357487177182529 a2_x6
<= 72.494496

a2_local_4: 
+0.90666536941904263 a2_x1
+1.25104919160774797 a2_x4
+0.79932908050952045 a2_x5
<= 189.939909

a2_local_5: 
+0.98905561698035471 a2_x5
+1.16312495130759763 a2_x1
+0.85975285705614790 a2_x3
<= 199.797520

a2_local_6: 
+0.41197549470920708 a2_x6
+0.47158739250967924 a2_x2
+0.61357107736613170 a2_x4
<= 68.552122

a2_local_7: 
+1.05610620967316304 a2_x6
+0.94687446285300569 a2_x4
+0.94897629678036366 a2_x3
<= 162.897173

a2_local_8: 
+1.32222880648579033 a2_x3
+1.06598415727492002 a2_x5
+0.75629875487117260 a2_x4
<= 122.297307

a2_act_1: 
+0.10000000000000001 a2_x1
-10.00000000000000000 a2_z1
<= 0.000000

a2_act_2: 
+0.10000000000000001 a2_x2
-10.00000000000000000 a2_z2
<= 0.000000

a3_local_1: 
+1.21710564005470800 a3_x1
+0.93316711007291309 a3_x2
+0.82162136719295042 a3_x5
<= 109.279431

a3_local_2: 
+0.81824039485710365 a3_x6
+1.19419945222680401 a3_x2
+1.22213472505795639 a3_x3
<= 201.754208

a3_local_3: 
+2.81575242594358643 a3_x1
+1.09970988898367228 a3_x6
+2.18345050933810869 a3_x3
<= 219.934964

a3_local_4: 
+1.08820028150352188 a3_x1
+0.72139684909229040 a3_x2
+1.38619956721223070 a3_x3
<= 105.361956

a3_local_5: 
+1.23821431365595425 a3_x6
+0.80761463421255220 a3_x5
+1.07841510549424946 a3_x3
<= 209.703723

a3_local_6: 
+1.12274338937219942 a3_x5
+2.31781005481401969 a3_x3
+1.78021805486781126 a3_x4
<= 206.592716

a3_local_7: 
+1.54542236019619961 a3_x1
+1.19380679864705241 a3_x5
+2.40896910972650602 a3_x2
<= 266.661871

a3_local_8: 
+0.86788193626099075 a3_x1
+0.81069305837257788 a3_x3
+1.23351247389171603 a3_x6
<= 179.258454

a3_act_1: 
+0.10000000000000001 a3_x1
-10.00000000000000000 a3_z1
<= 0.000000

a3_act_2: 
+0.10000000000000001 a3_x2
-10.00000000000000000 a3_z2
<= 0.000000

a4_local_1: 
+0.87153560648869466 a4_x3
+1.14740005176480619 a4_x5
+1.11250158498243668 a4_x2
<= 178.954034

a4_local_2: 
+1.17975007854500125 a4_x6
+0.84763715483987190 a4_x4
+0.86915693443033970 a4_x5
<= 114.582894

a4_local_3: 
+1.09424020445021752 a4_x6
+0.91387612695370946 a4_x3
+0.95683690475189276 a4_x2
<= 195.711153

a4_local_4: 
+0.72176562294919289 a4_x3
+0.71620093032760879 a4_x6
+1.39625621477840611 a4_x5
<= 104.954337

a4_local_5: 
+0.79051140347389837 a4_x1
+1.35892966172127871 a4_x6
+0.73587325979282603 a4_x3
<= 113.661700

a4_local_6: 
+0.83436693204328771 a4_x6
+0.94198930832259742 a4_x3
+1.19851346163862504 a4_x4
<= 173.749203

a4_local_7: 
+0.99167645099652624 a4_x6
+0.97330624719013015 a4_x4
+1.02742585171618206 a4_x5
<= 99.315702

a4_local_8: 
+1.17947549879990854 a4_x2
+1.20863390146727490 a4_x4
+0.82738039929709506 a4_x1
<= 99.234546

a4_act_1: 
+0.10000000000000001 a4_x1
-10.00000000000000000 a4_z1
<= 0.000000

a4_act_2: 
+0.10000000000000001 a4_x2
-10.00000000000000000 a4_z2
<= 0.000000

coupling_1: 
+0.00477660078473924 a1_x1
+0.05177902008021796 a2_x1
+0.21038094113136652 a3_x1
+0.96974382310028040 a4_x1
+0.07947607920628728 short_1
-0.07947607920628728 surp_1
= 91.782141

coupling_2: 
+0.00872230220110395 a1_x2
+0.05210215858442859 a2_x2
+0.24637608780905484 a3_x2
+0.94771072907727016 a4_x2
+0.13847830852319395 short_2
-0.13847830852319395 surp_2
= 30.915233

coupling_3: 
+0.00835203425106905 a1_x3
+0.03615280246891770 a2_x3
+0.14542732018200652 a3_x3
+0.97995719836706574 a4_x3
+0.09262289757604270 short_3
-0.09262289757604270 surp_3
= 58.132995

bounds
  0.000000 <= a1_x1 <= 100.000000
  0.000000 <= a1_x2 <= 100.000000
  0.000000 <= a1_x3 <= 100.000000
  0.000000 <= a1_x4 <= 100.000000
  0.000000 <= a1_x5 <= 100.000000
  0.000000 <= a1_x6 <= 100.000000
  0.000000 <= a2_x1 <= 100.000000
  0.000000 <= a2_x2 <= 100.000000
  0.000000 <= a2_x3 <= 100.000000
  0.000000 <= a2_x4 <= 100.000000
  0.000000 <= a2_x5 <= 100.000000
  0.000000 <= a2_x6 <= 100.000000
  0.000000 <= a3_x1 <= 100.000000
  0.000000 <= a3_x2 <= 100.000000
  0.000000 <= a3_x3 <= 100.000000
  0.000000 <= a3_x4 <= 100.000000
  0.000000 <= a3_x5 <= 100.000000
  0.000000 <= a3_x6 <= 100.000000
  0.000000 <= a4_x1 <= 100.000000
  0.000000 <= a4_x2 <= 100.000000
  0.000000 <= a4_x3 <= 100.000000
  0.000000 <= a4_x4 <= 100.000000
  0.000000 <= a4_x5 <= 100.000000
  0.000000 <= a4_x6 <= 100.000000
  0.000000 <= short_1 <= +inf
  0.000000 <= surp_1 <= +inf
  0.000000 <= short_2 <= +inf
  0.000000 <= surp_2 <= +inf
  0.000000 <= short_3 <= +inf
  0.000000 <= surp_3 <= +inf
 0 <= a1_z1 <= 1
 0 <= a1_z2 <= 1
 0 <= a2_z1 <= 1
 0 <= a2_z2 <= 1
 0 <= a3_z1 <= 1
 0 <= a3_z2 <= 1
 0 <= a4_z1 <= 1
 0 <= a4_z2 <= 1

binary
  a1_z1
  a1_z2
  a2_z1
  a2_z2
  a3_z1
  a3_z2
  a4_z1
  a4_z2
end
