min
obj: 
  +5.7129162548306427 a1_x1
  +9.0056358908477314 a1_x2
  +9.0172471176233611 a1_x3
  +9.406385688684578 a1_x4
  +5.7753562095118767 a1_x5
  +7.2881596650216451 a1_x6
  +20.355895911925103 a1_z1
  +36.986322019028464 a1_z2
  +9.5705581106952309 a2_x1
  +1.2604999258751248 a2_x2
  +5.3940318901522675 a2_x3
  +5.1816392623674004 a2_x4
  +3.5951202349319828 a2_x5
  +8.3242993176305013 a2_x6
  +8.2240572055779673 a2_z1
  +9.8483018703506104 a2_z2
  +4.4443242856945142 a3_x1
  +6.878356128261002 a3_x2
  +6.0922718983064614 a3_x3
  +7.9699820931728009 a3_x4
  +3.3886243612057902 a3_x5
  +8.8768505579425145 a3_x6
  +46.436857763791892 a3_z1
  +46.775047481358833 a3_z2
  +2.1426688948262615 a4_x1
  +3.7175386403807593 a4_x2
  +7.4752828100284079 a4_x3
  +1.4623010448148774 a4_x4
  +9.334818787187654 a4_x5
  +5.5099843569690403 a4_x6
  +29.024926983261683 a4_z1
  +40.430546823103057 a4_z2
  +1000000 short_1
  +1000000 surp_1
  +1000000 short_2
  +1000000 surp_2
  +1000000 short_3
  +1000000 surp_3

s.t.

a1_local_1: 
+0.010601880956378677 a1_x1
+0.0069810076583414317 a1_x3
+0.0084679054795612756 a1_x4
<= 0.91040771819351085

a1_local_2: 
+0.011880899091204907 a1_x3
+0.0053136372283527477 a1_x4
+0.010707181094441543 a1_x5
<= 1.1720934339840896

a1_local_3: 
+0.0098902633868452033 a1_x2
+0.0060919940674206887 a1_x4
+0.010710427981409185 a1_x1
<= 1.1222312437201047

a1_local_4: 
+0.0082321047218287084 a1_x2
+0.010098440835338417 a1_x3
+0.006557993717278077 a1_x4
<= 0.81611361103583835

a1_local_5: 
+0.011708067214223418 a1_x1
+0.0061085046132833007 a1_x3
+0.010819518953873022 a1_x2
<= 0.99166674839017499

a1_local_6: 
+0.0085112779134138266 a1_x2
+0.0083468631150077389 a1_x3
+0.007556958787145374 a1_x4
<= 1.5243653851787755

a1_local_7: 
+0.008665280746029928 a1_x1
+0.012501795037520814 a1_x2
+0.013720974339065811 a1_x4
<= 2.3041305891145236

a1_local_8: 
+0.012314793063897081 a1_x2
+0.011782398371553562 a1_x6
+0.006969614774812281 a1_x5
<= 1.8422220143884682

a1_act_1: 
+1 a1_x1
-100 a1_z1
<= 0

a1_act_2: 
+1 a1_x2
-100 a1_z2
<= 0

a2_local_1: 
+0.15698102447829759 a2_x5
+0.22640822766052343 a2_x6
+0.25322159328832672 a2_x2
<= 24.105073286429718

a2_local_2: 
+0.2322758252007939 a2_x4
+0.28554752413043394 a2_x6
+0.28632533973238933 a2_x2
<= 36.09207083454038

a2_local_3: 
+0.29354079405932654 a2_x6
+0.12472454033329508 a2_x1
+0.31303236207043195 a2_x2
<= 35.767709742510192

a2_local_4: 
+0.23012480326455395 a2_x6
+0.28988574214081031 a2_x2
+0.32014882552870921 a2_x5
<= 45.241352256193323

a2_local_5: 
+0.28793535947703408 a2_x2
+0.19995615068369019 a2_x5
+0.12392101313512094 a2_x1
<= 38.617959004326686

a2_local_6: 
+0.19432968481919774 a2_x2
+0.16008429143266378 a2_x4
+0.30724250535595077 a2_x3
<= 27.53651641049137

a2_local_7: 
+0.14230969160046911 a2_x5
+0.12736291289021598 a2_x1
+0.11931172617642311 a2_x6
<= 19.856216070988946

a2_local_8: 
+0.13894960164161968 a2_x3
+0.19263803322689838 a2_x2
+0.28447210267532697 a2_x5
<= 37.270317098646238

a2_act_1: 
+1 a2_x1
-100 a2_z1
<= 0

a2_act_2: 
+1 a2_x2
-100 a2_z2
<= 0

a3_local_1: 
+6.2413904917495291 a3_x6
+4.9574521998775714 a3_x4
+6.7700223207019405 a3_x5
<= 1038.342103065738

a3_local_2: 
+6.9109121046564974 a3_x3
+5.0941583868231568 a3_x6
+4.471682636095756 a3_x5
<= 544.97170231157361

a3_local_3: 
+4.4825069095866921 a3_x3
+3.6829955476194485 a3_x5
+5.3941062760786433 a3_x2
<= 474.39448451715685

a3_local_4: 
+3.2490236652814586 a3_x1
+6.7866378921623554 a3_x4
+3.5724921286850262 a3_x2
<= 740.63617198128759

a3_local_5: 
+3.3330583389431796 a3_x2
+5.4379391943910971 a3_x5
+4.6925412706330931 a3_x3
<= 706.85164562828288

a3_local_6: 
+4.2001028587873286 a3_x5
+4.7221757964131355 a3_x3
+5.0686669149113817 a3_x2
<= 682.4704402690279

a3_local_7: 
+5.1019413019074555 a3_x5
+4.3795793464960688 a3_x6
+6.8018649794857984 a3_x1
<= 736.93756824202626

a3_local_8: 
+5.7728981449377343 a3_x4
+6.4963920322274618 a3_x2
+2.6150128319031287 a3_x1
<= 732.78794810890997

a3_act_1: 
+1 a3_x1
-100 a3_z1
<= 0

a3_act_2: 
+1 a3_x2
-100 a3_z2
<= 0

a4_local_1: 
+139.06669355693828 a4_x2
+145.94185742939479 a4_x5
+60.539378752929707 a4_x4
<= 14961.919128194806

a4_local_2: 
+103.03358935906309 a4_x2
+93.571783637545238 a4_x4
+88.400878264942634 a4_x3
<= 16231.305406638328

a4_local_3: 
+91.022565302329284 a4_x6
+143.23163774225068 a4_x4
+116.12648742356538 a4_x1
<= 13321.900626813111

a4_local_4: 
+112.19372786962161 a4_x1
+72.575656458492716 a4_x6
+104.57947562777848 a4_x3
<= 9856.268835029181

a4_local_5: 
+99.668313682538482 a4_x1
+122.25237943971806 a4_x3
+106.13345986633678 a4_x6
<= 16267.677761819037

a4_local_6: 
+82.44167143630834 a4_x6
+63.997214529514309 a4_x2
+77.953615631857716 a4_x4
<= 14572.637055733447

a4_local_7: 
+112.57466778863412 a4_x3
+70.493122972634907 a4_x6
+73.253238780475286 a4_x4
<= 14056.761013797108

a4_local_8: 
+60.893881289209887 a4_x4
+93.052565205892549 a4_x5
+119.77451305109763 a4_x6
<= 13505.097268569876

a4_act_1: 
+1 a4_x1
-100 a4_z1
<= 0

a4_act_2: 
+1 a4_x2
-100 a4_z2
<= 0

coupling_1: 
+0.0037189608727376732 a1_x1
+0.035635142492426893 a2_x1
+1.4039775670576586 a3_x1
+16.376290478815829 a4_x1
+0.28490577426787828 short_1
-0.28490577426787828 surp_1
= 1348.2929306048229

coupling_2: 
+0.0038700155268042813 a1_x2
+0.083137818923108717 a2_x2
+1.6918990519642572 a3_x2
+41.762765530822989 a4_x2
+0.28490577426787828 short_2
-0.28490577426787828 surp_2
= 3350.940362067694

coupling_3: 
+0.0029799776568488786 a1_x3
+0.03920465209771274 a2_x3
+0.7986782098995332 a3_x3
+20.644321161308167 a4_x3
+0.28490577426787828 short_3
-0.28490577426787828 surp_3
= 612.32594007697571

bounds
  0 <= a1_x1 <= 100
  0 <= a1_x2 <= 100
  0 <= a1_x3 <= 100
  0 <= a1_x4 <= 100
  0 <= a1_x5 <= 100
  0 <= a1_x6 <= 100
  0 <= a2_x1 <= 100
  0 <= a2_x2 <= 100
  0 <= a2_x3 <= 100
  0 <= a2_x4 <= 100
  0 <= a2_x5 <= 100
  0 <= a2_x6 <= 100
  0 <= a3_x1 <= 100
  0 <= a3_x2 <= 100
  0 <= a3_x3 <= 100
  0 <= a3_x4 <= 100
  0 <= a3_x5 <= 100
  0 <= a3_x6 <= 100
  0 <= a4_x1 <= 100
  0 <= a4_x2 <= 100
  0 <= a4_x3 <= 100
  0 <= a4_x4 <= 100
  0 <= a4_x5 <= 100
  0 <= a4_x6 <= 100
  0 <= short_1 <= +inf
  0 <= surp_1 <= +inf
  0 <= short_2 <= +inf
  0 <= surp_2 <= +inf
  0 <= short_3 <= +inf
  0 <= surp_3 <= +inf
 0 <= a1_z1 <= 1
 0 <= a1_z2 <= 1
 0 <= a2_z1 <= 1
 0 <= a2_z2 <= 1
 0 <= a3_z1 <= 1
 0 <= a3_z2 <= 1
 0 <= a4_z1 <= 1
 0 <= a4_z2 <= 1

binary
  a1_z1
  a1_z2
  a2_z1
  a2_z2
  a3_z1
  a3_z2
  a4_z1
  a4_z2
end
