min
obj: 
  +5.2436233239928463 a1_x1
  +8.0695966456126804 a1_x2
  +3.4781022885686368 a1_x3
  +9.412058306823841 a1_x4
  +8.3165688602967034 a1_x5
  +6.8002801919710905 a1_x6
  +10.410503430419741 a1_z1
  +29.396440143420605 a1_z2
  +8.2806614137575387 a2_x1
  +6.0649431138157652 a2_x2
  +8.6541766135972331 a2_x3
  +4.3292904508020413 a2_x4
  +7.270244042047584 a2_x5
  +4.5318516777440347 a2_x6
  +14.3292458598275 a2_z1
  +33.495450643789965 a2_z2
  +3.4667216339522406 a3_x1
  +8.7306868906336064 a3_x2
  +5.7873163324378032 a3_x3
  +5.6599350909197002 a3_x4
  +4.8869920304691288 a3_x5
  +4.3356674135059086 a3_x6
  +5.900585939248967 a3_z1
  +40.303679684732423 a3_z2
  +4.5273516228701549 a4_x1
  +9.793261850532609 a4_x2
  +5.1742521510836195 a4_x3
  +5.4489998276629183 a4_x4
  +4.6550473123840108 a4_x5
  +5.1815797270979749 a4_x6
  +20.492987297835271 a4_z1
  +8.5742214275245221 a4_z2
  +1000000 short_1
  +1000000 surp_1
  +1000000 short_2
  +1000000 surp_2
  +1000000 short_3
  +1000000 surp_3

s.t.

a1_local_1: 
+0.013899837350269163 a1_x4
+0.008477497689183433 a1_x6
+0.010650777214201806 a1_x1
<= 2.1669981916279921

a1_local_2: 
+0.0090677427658082 a1_x5
+0.0050009063877707828 a1_x4
+0.014117513695807094 a1_x1
<= 0.88104914547680757

a1_local_3: 
+0.010315489260569351 a1_x3
+0.0071461148554972462 a1_x6
+0.010204305282558706 a1_x5
<= 0.97159773370105362

a1_local_4: 
+0.0073758039142452119 a1_x3
+0.014156802199848759 a1_x5
+0.014756165375539263 a1_x4
<= 2.0748627187855861

a1_local_5: 
+0.010382173348933012 a1_x5
+0.01367313182647463 a1_x2
+0.014545232606186658 a1_x1
<= 2.384802565748664

a1_local_6: 
+0.0081728509743204981 a1_x3
+0.00594379314738457 a1_x2
+0.0085854696178542505 a1_x5
<= 1.3899891607223041

a1_local_7: 
+0.0063596028887263657 a1_x1
+0.014513754083666612 a1_x5
+0.0072443286057084447 a1_x6
<= 1.7579889910101021

a1_local_8: 
+0.011579374288391541 a1_x1
+0.014877492569468567 a1_x5
+0.010344051335741114 a1_x3
<= 2.1537957061567075

a1_act_1: 
+1 a1_x1
-100 a1_z1
<= 0

a1_act_2: 
+1 a1_x2
-100 a1_z2
<= 0

a2_local_1: 
+0.1554977348418006 a2_x2
+0.28614973564456536 a2_x5
+0.25934583010587481 a2_x6
<= 35.748046363697839

a2_local_2: 
+0.30794502961675574 a2_x5
+0.23277392761240767 a2_x3
+0.15119879793137453 a2_x4
<= 24.139491260836511

a2_local_3: 
+0.2719578648811885 a2_x3
+0.24539620759546835 a2_x1
+0.22085221988508824 a2_x2
<= 36.629717576537779

a2_local_4: 
+0.12919267122959416 a2_x1
+0.29067584955044695 a2_x3
+0.23555800534238677 a2_x4
<= 45.739653460816491

a2_local_5: 
+0.15631377962156742 a2_x4
+0.22345047144837188 a2_x5
+0.26969951593282115 a2_x2
<= 29.35814423041958

a2_local_6: 
+0.15398930945176681 a2_x6
+0.18203223809216323 a2_x1
+0.20677230757795334 a2_x3
<= 20.207359424996437

a2_local_7: 
+0.24136644458441386 a2_x4
+0.15657609303068945 a2_x6
+0.30293116805626724 a2_x2
<= 46.873654904153263

a2_local_8: 
+0.18134795039596788 a2_x6
+0.2213302283506178 a2_x5
+0.16467418003305115 a2_x4
<= 31.067282013198973

a2_act_1: 
+1 a2_x1
-100 a2_z1
<= 0

a2_act_2: 
+1 a2_x2
-100 a2_z2
<= 0

a3_local_1: 
+5.7012028663511325 a3_x4
+3.9053704974037542 a3_x1
+3.1109280528656691 a3_x5
<= 764.36973825873997

a3_local_2: 
+2.5768140377256161 a3_x2
+2.3780187797037864 a3_x4
+6.0855945131806113 a3_x3
<= 600.93621155253254

a3_local_3: 
+6.700427782785102 a3_x4
+5.1406544243299477 a3_x6
+6.0461409014941188 a3_x5
<= 741.6168725261108

a3_local_4: 
+6.7236444549621748 a3_x4
+3.0186971459001173 a3_x2
+4.5490426685417065 a3_x6
<= 832.85701814405797

a3_local_5: 
+5.2868003454581851 a3_x3
+2.7345894389474683 a3_x4
+2.713647323740179 a3_x2
<= 383.5273163134388

a3_local_6: 
+6.6064011107229739 a3_x4
+6.4271910205536287 a3_x1
+4.6569215869080471 a3_x6
<= 905.52999720109358

a3_local_7: 
+6.4339383247955144 a3_x4
+3.9063234880689381 a3_x5
+3.2069680811600976 a3_x2
<= 907.32182793719039

a3_local_8: 
+3.1459812237646929 a3_x2
+5.1551721839880846 a3_x5
+4.5417605921532767 a3_x3
<= 674.20301313095899

a3_act_1: 
+1 a3_x1
-100 a3_z1
<= 0

a3_act_2: 
+1 a3_x2
-100 a3_z2
<= 0

a4_local_1: 
+141.40868601021492 a4_x5
+74.029898216289297 a4_x6
+73.023484852039971 a4_x2
<= 10168.211511718093

a4_local_2: 
+130.68785430691463 a4_x5
+69.913069661309976 a4_x4
+132.55159889234821 a4_x1
<= 17365.449491253021

a4_local_3: 
+87.042591759120839 a4_x6
+86.530039461971526 a4_x2
+128.63043878278387 a4_x3
<= 12836.49432744122

a4_local_4: 
+112.88921474436341 a4_x2
+102.08682802230183 a4_x6
+143.69927713617082 a4_x4
<= 21400.241830472121

a4_local_5: 
+121.86004115751996 a4_x2
+69.16035168262178 a4_x1
+96.949886807471231 a4_x3
<= 13161.6674286382

a4_local_6: 
+121.25653890802934 a4_x3
+122.5695822995239 a4_x5
+119.62325548837214 a4_x2
<= 18282.443735763754

a4_local_7: 
+52.865619798879415 a4_x5
+128.35579708471337 a4_x2
+55.795548015480236 a4_x4
<= 11549.872028691079

a4_local_8: 
+115.45036559333455 a4_x1
+136.37189998905586 a4_x5
+78.033933452139976 a4_x4
<= 19902.277801000888

a4_act_1: 
+1 a4_x1
-100 a4_z1
<= 0

a4_act_2: 
+1 a4_x2
-100 a4_z2
<= 0

coupling_1: 
+2.514137991034505e-05 a1_x1
+0.00039308890075161955 a2_x1
+0.012635551561002904 a3_x1
+0.32546897822232385 a4_x1
+0.0024251109757555704 short_1
-0.0024251109757555704 surp_1
= 9.4667683427998064

coupling_2: 
+2.1401022846824734e-05 a1_x2
+0.00039797636390525654 a2_x2
+0.012934737543323881 a3_x2
+0.28623533075081853 a4_x2
+0.0024251109757555704 short_2
-0.0024251109757555704 surp_2
= 20.145386293886723

coupling_3: 
+2.8424929081623587e-05 a1_x3
+0.00043214845716357786 a2_x3
+0.010393918062383212 a3_x3
+0.17889865554917425 a4_x3
+0.0024251109757555704 short_3
-0.0024251109757555704 surp_3
= 9.6798882893051363

bounds
  0 <= a1_x1 <= 100
  0 <= a1_x2 <= 100
  0 <= a1_x3 <= 100
  0 <= a1_x4 <= 100
  0 <= a1_x5 <= 100
  0 <= a1_x6 <= 100
  0 <= a2_x1 <= 100
  0 <= a2_x2 <= 100
  0 <= a2_x3 <= 100
  0 <= a2_x4 <= 100
  0 <= a2_x5 <= 100
  0 <= a2_x6 <= 100
  0 <= a3_x1 <= 100
  0 <= a3_x2 <= 100
  0 <= a3_x3 <= 100
  0 <= a3_x4 <= 100
  0 <= a3_x5 <= 100
  0 <= a3_x6 <= 100
  0 <= a4_x1 <= 100
  0 <= a4_x2 <= 100
  0 <= a4_x3 <= 100
  0 <= a4_x4 <= 100
  0 <= a4_x5 <= 100
  0 <= a4_x6 <= 100
  0 <= short_1 <= +inf
  0 <= surp_1 <= +inf
  0 <= short_2 <= +inf
  0 <= surp_2 <= +inf
  0 <= short_3 <= +inf
  0 <= surp_3 <= +inf
 0 <= a1_z1 <= 1
 0 <= a1_z2 <= 1
 0 <= a2_z1 <= 1
 0 <= a2_z2 <= 1
 0 <= a3_z1 <= 1
 0 <= a3_z2 <= 1
 0 <= a4_z1 <= 1
 0 <= a4_z2 <= 1

binary
  a1_z1
  a1_z2
  a2_z1
  a2_z2
  a3_z1
  a3_z2
  a4_z1
  a4_z2
end
