min
obj: 
  +1.9679731558453351 a1_x1
  +5.1245063990813229 a1_x2
  +5.3289660462088069 a1_x3
  +7.7326436197250805 a1_x4
  +5.1395422066191525 a1_x5
  +1.4920260738512641 a1_x6
  +49.872667351617643 a1_z1
  +13.869581796168557 a1_z2
  +7.5341317217871078 a2_x1
  +3.4571921689270946 a2_x2
  +4.7657113746642423 a2_x3
  +9.3861788498988687 a2_x4
  +1.7288685547688603 a2_x5
  +5.9081608215551888 a2_x6
  +23.537170412908246 a2_z1
  +38.77106799595807 a2_z2
  +4.9087522557742478 a3_x1
  +9.9244206014586318 a3_x2
  +6.7861238771840311 a3_x3
  +8.6736711514090779 a3_x4
  +9.6443958243312533 a3_x5
  +8.9768883116585663 a3_x6
  +12.682768889922908 a3_z1
  +43.15224448184653 a3_z2
  +4.1276908151999692 a4_x1
  +7.0223714932865171 a4_x2
  +1.0610858298808366 a4_x3
  +7.0927412879620659 a4_x4
  +7.9355051703127861 a4_x5
  +7.5971307832819344 a4_x6
  +17.373101516361629 a4_z1
  +10.310923678881169 a4_z2
  +1000000 short_1
  +1000000 surp_1
  +1000000 short_2
  +1000000 surp_2
  +1000000 short_3
  +1000000 surp_3

s.t.

a1_local_1: 
+0.0057198717635448017 a1_x3
+0.009100731920416558 a1_x6
+0.006950135026497101 a1_x2
<= 1.4923007592461102

a1_local_2: 
+0.013716565153331863 a1_x4
+0.0075990679073451471 a1_x6
+0.0053106824499470897 a1_x2
<= 1.5094326199600758

a1_local_3: 
+0.0050509108310422806 a1_x4
+0.0068063549985981535 a1_x5
+0.01151056097284712 a1_x2
<= 0.79599416585689164

a1_local_4: 
+0.0067027707669014861 a1_x2
+0.0083923798306408341 a1_x1
+0.012086711919743729 a1_x4
<= 1.8232273896889071

a1_local_5: 
+0.013946943376067588 a1_x5
+0.013390078702804705 a1_x2
+0.014882819916661474 a1_x4
<= 2.3726434197149429

a1_local_6: 
+0.013401998514857136 a1_x4
+0.0063400133442159867 a1_x6
+0.014902787308237188 a1_x1
<= 2.2673057611513281

a1_local_7: 
+0.014426630003982435 a1_x5
+0.0086780522488827862 a1_x4
+0.007282401804837144 a1_x3
<= 1.2437504664671992

a1_local_8: 
+0.0082977239447813832 a1_x6
+0.010125555787149859 a1_x3
+0.0064916717066795387 a1_x2
<= 1.1018763356523558

a1_act_1: 
+1 a1_x1
-100 a1_z1
<= 0

a1_act_2: 
+1 a1_x2
-100 a1_z2
<= 0

a2_local_1: 
+0.27052400497488932 a2_x3
+0.27004126065829109 a2_x6
+0.24469931905517708 a2_x4
<= 46.300014253058649

a2_local_2: 
+0.26181799940870254 a2_x6
+0.15353902955927415 a2_x4
+0.11248282876768212 a2_x3
<= 35.246812790463217

a2_local_3: 
+0.25780004780587773 a2_x2
+0.256946694338473 a2_x3
+0.16289098825976708 a2_x4
<= 41.33718823523995

a2_local_4: 
+0.20815163949793866 a2_x6
+0.13299369818753179 a2_x5
+0.2921038679333573 a2_x2
<= 36.443723587723319

a2_local_5: 
+0.21003351276605031 a2_x4
+0.15525151659341857 a2_x5
+0.30342683442680024 a2_x3
<= 42.721358196940365

a2_local_6: 
+0.21889147751454935 a2_x2
+0.28479446613303988 a2_x5
+0.19276213728480676 a2_x1
<= 42.310019912810176

a2_local_7: 
+0.21225220535887915 a2_x4
+0.21272335428503739 a2_x3
+0.24335833656672423 a2_x5
<= 25.723743799675901

a2_local_8: 
+0.19157831694815841 a2_x6
+0.13592175979294546 a2_x4
+0.15561645655807865 a2_x3
<= 29.98814186370101

a2_act_1: 
+1 a2_x1
-100 a2_z1
<= 0

a2_act_2: 
+1 a2_x2
-100 a2_z2
<= 0

a3_local_1: 
+5.0423809935428672 a3_x1
+4.4396420760036541 a3_x3
+3.1064959629391828 a3_x4
<= 750.8147942208152

a3_local_2: 
+6.5450660925703978 a3_x1
+6.6981713436680632 a3_x6
+6.0774949580507345 a3_x5
<= 1341.4948148964156

a3_local_3: 
+2.3692531337975349 a3_x6
+4.7041015212858062 a3_x2
+3.0241505301530158 a3_x3
<= 705.57935178259117

a3_local_4: 
+3.5605355759496549 a3_x1
+6.8417444304552744 a3_x6
+2.6653067255491401 a3_x2
<= 893.58882892379302

a3_local_5: 
+4.0803948625984461 a3_x4
+5.4485880639072066 a3_x6
+6.6283545766964931 a3_x3
<= 824.69348145883976

a3_local_6: 
+4.9935703869960255 a3_x6
+3.8353635332282954 a3_x3
+3.4314454088105926 a3_x1
<= 573.08041024028023

a3_local_7: 
+2.5719787802011176 a3_x6
+5.1899666172100067 a3_x5
+4.8501267669152153 a3_x1
<= 634.32175559143639

a3_local_8: 
+4.1759375764310835 a3_x4
+6.3539104443072167 a3_x6
+5.9826234590146345 a3_x5
<= 1060.3118705904733

a3_act_1: 
+1 a3_x1
-100 a3_z1
<= 0

a3_act_2: 
+1 a3_x2
-100 a3_z2
<= 0

a4_local_1: 
+139.87653336921429 a4_x4
+135.62215274067034 a4_x1
+117.86892864073029 a4_x5
<= 18381.579817927563

a4_local_2: 
+99.768668171715717 a4_x4
+102.30159129434058 a4_x1
+73.896208419132719 a4_x6
<= 12135.511138187721

a4_local_3: 
+74.629685314550358 a4_x3
+78.137982810660716 a4_x5
+140.02043841513358 a4_x1
<= 12361.331053460326

a4_local_4: 
+76.243721813661011 a4_x3
+148.63953104817179 a4_x5
+67.577705913144484 a4_x6
<= 20027.244491709771

a4_local_5: 
+133.19813380499696 a4_x4
+72.128048774247546 a4_x5
+73.482944176643841 a4_x6
<= 14632.980378698558

a4_local_6: 
+72.033024760355175 a4_x5
+91.649182315632288 a4_x2
+121.0141285129571 a4_x1
<= 13753.0000139279

a4_local_7: 
+121.67445157202357 a4_x2
+128.44002327056404 a4_x3
+57.973047238009968 a4_x1
<= 14589.966426457366

a4_local_8: 
+147.96501181840432 a4_x1
+101.29068066987821 a4_x2
+52.153522777517892 a4_x4
<= 10260.103825827542

a4_act_1: 
+1 a4_x1
-100 a4_z1
<= 0

a4_act_2: 
+1 a4_x2
-100 a4_z2
<= 0

coupling_1: 
+0.001423742639718519 a1_x1
+0.026850397843321019 a2_x1
+0.57447088129258794 a3_x1
+14.237276478941972 a4_x1
+0.10143334915417133 short_1
-0.10143334915417133 surp_1
= 636.19932425801619

coupling_2: 
+0.00063889596430518887 a1_x2
+0.017714194071258096 a2_x2
+0.38880416036602022 a3_x2
+6.941843405283084 a4_x2
+0.10143334915417133 short_2
-0.10143334915417133 surp_2
= 181.04551986089061

coupling_3: 
+0.0014448541242843267 a1_x3
+0.019705524649490408 a2_x3
+0.39591720100538358 a3_x3
+7.3922231795292728 a4_x3
+0.10143334915417133 short_3
-0.10143334915417133 surp_3
= 417.6443816086171

bounds
  0 <= a1_x1 <= 100
  0 <= a1_x2 <= 100
  0 <= a1_x3 <= 100
  0 <= a1_x4 <= 100
  0 <= a1_x5 <= 100
  0 <= a1_x6 <= 100
  0 <= a2_x1 <= 100
  0 <= a2_x2 <= 100
  0 <= a2_x3 <= 100
  0 <= a2_x4 <= 100
  0 <= a2_x5 <= 100
  0 <= a2_x6 <= 100
  0 <= a3_x1 <= 100
  0 <= a3_x2 <= 100
  0 <= a3_x3 <= 100
  0 <= a3_x4 <= 100
  0 <= a3_x5 <= 100
  0 <= a3_x6 <= 100
  0 <= a4_x1 <= 100
  0 <= a4_x2 <= 100
  0 <= a4_x3 <= 100
  0 <= a4_x4 <= 100
  0 <= a4_x5 <= 100
  0 <= a4_x6 <= 100
  0 <= short_1 <= +inf
  0 <= surp_1 <= +inf
  0 <= short_2 <= +inf
  0 <= surp_2 <= +inf
  0 <= short_3 <= +inf
  0 <= surp_3 <= +inf
 0 <= a1_z1 <= 1
 0 <= a1_z2 <= 1
 0 <= a2_z1 <= 1
 0 <= a2_z2 <= 1
 0 <= a3_z1 <= 1
 0 <= a3_z2 <= 1
 0 <= a4_z1 <= 1
 0 <= a4_z2 <= 1

binary
  a1_z1
  a1_z2
  a2_z1
  a2_z2
  a3_z1
  a3_z2
  a4_z1
  a4_z2
end
