min
obj: 
  +8.5242104678500681 a1_x1
  +7.6930756521091874 a1_x2
  +6.9189962156082423 a1_x3
  +9.2097073421305335 a1_x4
  +1.6783613276554563 a1_x5
  +5.9914602077021666 a1_x6
  +31.080729858907144 a1_z1
  +20.883867024027893 a1_z2
  +6.9077742042221582 a2_x1
  +5.0875445936298673 a2_x2
  +7.5917023578038236 a2_x3
  +8.2794490372741638 a2_x4
  +1.0351287904006585 a2_x5
  +5.7857723772906011 a2_x6
  +23.934213589769115 a2_z1
  +21.521505149496146 a2_z2
  +3.338751629164217 a3_x1
  +6.1106898664601106 a3_x2
  +6.5508211726549801 a3_x3
  +5.1951326468311683 a3_x4
  +3.9370151452755238 a3_x5
  +3.370609165759376 a3_x6
  +38.539597563502319 a3_z1
  +26.755532445572879 a3_z2
  +8.5438219758017482 a4_x1
  +7.1495610706401269 a4_x2
  +5.5659057933768521 a4_x3
  +2.526471255000704 a4_x4
  +2.3501129539553487 a4_x5
  +8.7808046110821252 a4_x6
  +7.4539102618189466 a4_z1
  +36.014449453139093 a4_z2
  +1000000 short_1
  +1000000 surp_1
  +1000000 short_2
  +1000000 surp_2
  +1000000 short_3
  +1000000 surp_3

s.t.

a1_local_1: 
+0.68131254181031731 a1_x6
+1.4677551617395705 a1_x2
+1.4075499696442431 a1_x4
<= 125.44792113980847

a1_local_2: 
+1.2816727312149629 a1_x5
+0.78023037835255249 a1_x2
+0.96459965814708049 a1_x1
<= 118.14080501464848

a1_local_3: 
+1.2269005791638703 a1_x4
+0.81506196751614324 a1_x2
+1.1539860662704369 a1_x1
<= 134.79527653790547

a1_local_4: 
+0.73019925673316299 a1_x4
+1.3694892055545198 a1_x2
+1.0796426375188082 a1_x6
<= 126.37058760723404

a1_local_5: 
+1.1997501419662158 a1_x5
+1.2760591654780682 a1_x2
+0.78366272274323245 a1_x1
<= 123.04391431181588

a1_local_6: 
+1.5386277469601 a1_x2
+1.0736697344014474 a1_x5
+0.64992978449512662 a1_x6
<= 109.45502016664756

a1_local_7: 
+1.1629397961082455 a1_x3
+0.88376798517439947 a1_x4
+0.85988974093627168 a1_x6
<= 158.32521474464545

a1_local_8: 
+0.85704984940830453 a1_x6
+0.95750103918481122 a1_x2
+1.1667932742656522 a1_x5
<= 191.41258785284259

a1_act_1: 
+0.10000000000000001 a1_x1
-10 a1_z1
<= 0

a1_act_2: 
+0.10000000000000001 a1_x2
-10 a1_z2
<= 0

a2_local_1: 
+0.97149888919247918 a2_x6
+1.0977747947220069 a2_x3
+0.91093364942236055 a2_x2
<= 95.360441162597255

a2_local_2: 
+0.80748412254300839 a2_x5
+1.2384144431852129 a2_x3
+0.98717057528545504 a2_x2
<= 206.16202087953678

a2_local_3: 
+0.86026178831809252 a2_x3
+1.1624368460618382 a2_x5
+1.0721927640696711 a2_x4
<= 139.64832842193201

a2_local_4: 
+1.2116488739475069 a2_x3
+0.82532161049433184 a2_x5
+0.90979569418380701 a2_x4
<= 195.73494370994572

a2_local_5: 
+1.1275326115402597 a2_x3
+0.84431617156280259 a2_x1
+1.1843904377065662 a2_x2
<= 209.1570788209392

a2_local_6: 
+0.91736007905954431 a2_x3
+1.1358860124874326 a2_x6
+0.88037002745560622 a2_x5
<= 115.9006841360291

a2_local_7: 
+1.2692371033946872 a2_x4
+1.2070579491142512 a2_x5
+0.78787485594725459 a2_x2
<= 162.99180417650004

a2_local_8: 
+0.84764868967032581 a2_x4
+1.1797340244682359 a2_x2
+0.96608882126994378 a2_x1
<= 144.88908534958625

a2_act_1: 
+0.10000000000000001 a2_x1
-10 a2_z1
<= 0

a2_act_2: 
+0.10000000000000001 a2_x2
-10 a2_z2
<= 0

a3_local_1: 
+1.0481272860705098 a3_x6
+0.92988072416007139 a3_x1
+1.0754067419810911 a3_x5
<= 137.49770667530458

a3_local_2: 
+0.81908842992306041 a3_x4
+1.2208694000157383 a3_x2
+1.0432195801286097 a3_x6
<= 190.15258067946499

a3_local_3: 
+0.94036714089829343 a3_x3
+1.1036176947923666 a3_x2
+0.90611087944556634 a3_x6
<= 92.204898433924626

a3_local_4: 
+1.0463918515653414 a3_x2
+0.93985697510636634 a3_x3
+1.063991677975074 a3_x5
<= 176.04929117585351

a3_local_5: 
+1.1984064289589704 a3_x6
+0.60950483162535718 a3_x1
+1.6406760834582979 a3_x5
<= 217.55294830350053

a3_local_6: 
+1.5768207900935087 a3_x6
+0.6341874779192237 a3_x2
+1.3379998166686886 a3_x1
<= 233.71888467503422

a3_local_7: 
+0.94180729507703098 a3_x2
+0.84509420335242713 a3_x1
+1.183300034520498 a3_x6
<= 155.45312277543559

a3_local_8: 
+0.83646468463381485 a3_x1
+1.1955077343615257 a3_x5
+1.1212881366714091 a3_x4
<= 100.43263112113523

a3_act_1: 
+0.10000000000000001 a3_x1
-10 a3_z1
<= 0

a3_act_2: 
+0.10000000000000001 a3_x2
-10 a3_z2
<= 0

a4_local_1: 
+0.76039190621515773 a4_x3
+1.3151113153971994 a4_x5
+0.79903043055460921 a4_x6
<= 120.36353528485766

a4_local_2: 
+1.2032528579603108 a4_x4
+0.83108051095357138 a4_x3
+1.1580886590502006 a4_x2
<= 99.057889141679382

a4_local_3: 
+0.9190660601250833 a4_x5
+1.4929066986631576 a4_x6
+0.6698342239976971 a4_x4
<= 169.83712415042606

a4_local_4: 
+0.95882762460478632 a4_x1
+0.75795205839786073 a4_x3
+1.3193446589666553 a4_x6
<= 95.777432738404656

a4_local_5: 
+1.1672897130918265 a4_x6
+0.75999202379546948 a4_x5
+1.3158032830475099 a4_x1
<= 202.64365709613833

a4_local_6: 
+0.59960678824137315 a4_x4
+1.1019815107919566 a4_x1
+1.667759637833599 a4_x3
<= 152.74879636095619

a4_local_7: 
+0.93828398815112501 a4_x6
+0.99838780846361841 a4_x2
+1.065775407689185 a4_x1
<= 159.62318334585026

a4_local_8: 
+0.64935992640976536 a4_x3
+1.5399779988409239 a4_x2
+1.2746993183596316 a4_x6
<= 233.46811531378543

a4_act_1: 
+0.10000000000000001 a4_x1
-10 a4_z1
<= 0

a4_act_2: 
+0.10000000000000001 a4_x2
-10 a4_z2
<= 0

coupling_1: 
+0.010555192956860479 a1_x1
+0.21984375572934209 a2_x1
+10.904432357980081 a3_x1
+94.740096565457591 a4_x1
+1.8834803100148185 short_1
-1.8834803100148185 surp_1
= 7639.4396969499794

coupling_2: 
+0.0078348286399547926 a1_x2
+0.20509710796744887 a2_x2
+6.4038986015975761 a3_x2
+127.63521015639853 a4_x2
+1.0444341581027428 short_2
-1.0444341581027428 surp_2
= 4459.4437301995367

coupling_3: 
+0.0072002496050504279 a1_x3
+0.18153350833265275 a2_x3
+5.7033417725469366 a3_x3
+138.88407414356527 a4_x3
+1.3003984226541234 short_3
-1.3003984226541234 surp_3
= 3368.5023358205112

bounds
  0 <= a1_x1 <= 100
  0 <= a1_x2 <= 100
  0 <= a1_x3 <= 100
  0 <= a1_x4 <= 100
  0 <= a1_x5 <= 100
  0 <= a1_x6 <= 100
  0 <= a2_x1 <= 100
  0 <= a2_x2 <= 100
  0 <= a2_x3 <= 100
  0 <= a2_x4 <= 100
  0 <= a2_x5 <= 100
  0 <= a2_x6 <= 100
  0 <= a3_x1 <= 100
  0 <= a3_x2 <= 100
  0 <= a3_x3 <= 100
  0 <= a3_x4 <= 100
  0 <= a3_x5 <= 100
  0 <= a3_x6 <= 100
  0 <= a4_x1 <= 100
  0 <= a4_x2 <= 100
  0 <= a4_x3 <= 100
  0 <= a4_x4 <= 100
  0 <= a4_x5 <= 100
  0 <= a4_x6 <= 100
  0 <= short_1 <= +inf
  0 <= surp_1 <= +inf
  0 <= short_2 <= +inf
  0 <= surp_2 <= +inf
  0 <= short_3 <= +inf
  0 <= surp_3 <= +inf
 0 <= a1_z1 <= 1
 0 <= a1_z2 <= 1
 0 <= a2_z1 <= 1
 0 <= a2_z2 <= 1
 0 <= a3_z1 <= 1
 0 <= a3_z2 <= 1
 0 <= a4_z1 <= 1
 0 <= a4_z2 <= 1

binary
  a1_z1
  a1_z2
  a2_z1
  a2_z2
  a3_z1
  a3_z2
  a4_z1
  a4_z2
end
