min
obj: 
  +4.6121734767481746 a1_x1
  +8.3726653944305163 a1_x2
  +3.8874111784256438 a1_x3
  +3.5735214707131471 a1_x4
  +7.9063268225890937 a1_x5
  +6.5043346512565909 a1_x6
  +46.9551209495583 a1_z1
  +19.806653497637782 a1_z2
  +7.6567171580139357 a2_x1
  +8.2043744709301158 a2_x2
  +3.6188691473828523 a2_x3
  +5.2859257046209569 a2_x4
  +3.3947769180807601 a2_x5
  +2.5210962766084055 a2_x6
  +31.130882329794158 a2_z1
  +23.010561281727053 a2_z2
  +6.9874663911383514 a3_x1
  +2.0892016241128126 a3_x2
  +9.3610808006140438 a3_x3
  +4.8509819599704116 a3_x4
  +1.7243146015797635 a3_x5
  +7.0038934437638574 a3_x6
  +33.012677472845496 a3_z1
  +8.0010596287278375 a3_z2
  +6.4216192335644386 a4_x1
  +2.3877334915960096 a4_x2
  +7.475862409648836 a4_x3
  +7.4106096914751971 a4_x4
  +8.5860247699785965 a4_x5
  +3.4325757317506875 a4_x6
  +23.317265071624306 a4_z1
  +25.042487194398138 a4_z2
  +1000000 short_1
  +1000000 surp_1
  +1000000 short_2
  +1000000 surp_2
  +1000000 short_3
  +1000000 surp_3

s.t.

a1_local_1: 
+0.012906075671666125 a1_x1
+0.011467248542671235 a1_x6
+0.012535136551582124 a1_x2
<= 2.2465326985334024

a1_local_2: 
+0.010554806069745442 a1_x4
+0.0079273265620465119 a1_x6
+0.0072917640940800832 a1_x2
<= 0.9657602723133949

a1_local_3: 
+0.014722491353981428 a1_x2
+0.014175620560284772 a1_x1
+0.0066704198182762006 a1_x5
<= 1.3668465484708314

a1_local_4: 
+0.014888987575584069 a1_x1
+0.0076569309833190973 a1_x2
+0.0059271134669160236 a1_x4
<= 0.8988817053516216

a1_local_5: 
+0.0092224108861290628 a1_x2
+0.0059949888588088553 a1_x6
+0.0066548486046321747 a1_x3
<= 0.76680658422657233

a1_local_6: 
+0.013144594820566922 a1_x4
+0.01122535029781292 a1_x6
+0.0096610977319489203 a1_x1
<= 1.862938851144037

a1_local_7: 
+0.0098248048786009415 a1_x1
+0.0050034323992626355 a1_x5
+0.013055023507662784 a1_x6
<= 1.5460263350586627

a1_local_8: 
+0.014330935271795202 a1_x2
+0.0084067474227746356 a1_x1
+0.010553827722453194 a1_x4
<= 1.7666060248468904

a1_act_1: 
+1 a1_x1
-100 a1_z1
<= 0

a1_act_2: 
+1 a1_x2
-100 a1_z2
<= 0

a2_local_1: 
+0.24954467943807185 a2_x4
+0.29615767446211622 a2_x2
+0.23637255249569869 a2_x6
<= 29.212235966101673

a2_local_2: 
+0.11907684876301175 a2_x2
+0.2381330155259139 a2_x6
+0.15677499505875972 a2_x5
<= 24.990956332606462

a2_local_3: 
+0.25638747576578313 a2_x2
+0.18962956189367389 a2_x1
+0.27018024201629071 a2_x3
<= 23.920712668155563

a2_local_4: 
+0.20132770131500413 a2_x3
+0.23329173389944624 a2_x2
+0.29658193724858167 a2_x4
<= 44.48459451029661

a2_local_5: 
+0.16664654923996713 a2_x2
+0.23222594331460619 a2_x5
+0.30889450097263521 a2_x6
<= 43.273745889559137

a2_local_6: 
+0.30910520966661253 a2_x6
+0.28154169459691719 a2_x5
+0.24789975651875018 a2_x1
<= 38.569761322941368

a2_local_7: 
+0.15314705749223745 a2_x5
+0.16920873276373505 a2_x4
+0.14687308311607883 a2_x3
<= 24.284047078337569

a2_local_8: 
+0.18113064842450569 a2_x6
+0.14763682098582023 a2_x4
+0.17279948353550612 a2_x3
<= 15.055584106869393

a2_act_1: 
+1 a2_x1
-100 a2_z1
<= 0

a2_act_2: 
+1 a2_x2
-100 a2_z2
<= 0

a3_local_1: 
+5.1790656290444916 a3_x2
+4.568565139109074 a3_x1
+2.6932356810242957 a3_x6
<= 744.78040751396475

a3_local_2: 
+6.4371944819320621 a3_x3
+2.5604514812363197 a3_x5
+3.1725472077380243 a3_x6
<= 695.76459648395155

a3_local_3: 
+3.204654564256503 a3_x4
+3.3673965706799383 a3_x5
+2.483769168201972 a3_x3
<= 573.045042245746

a3_local_4: 
+4.7685471515653193 a3_x1
+2.4541319344894057 a3_x5
+4.8561253921499494 a3_x6
<= 558.88863764203563

a3_local_5: 
+4.7832209274500483 a3_x3
+4.1395112513969403 a3_x5
+3.2125420109647753 a3_x1
<= 434.68818039391965

a3_local_6: 
+5.2800660214055091 a3_x3
+5.529299901587696 a3_x4
+2.8027019281238053 a3_x6
<= 419.15137091336209

a3_local_7: 
+4.5857953932615843 a3_x2
+6.7141791682031551 a3_x3
+5.6022331529840201 a3_x1
<= 902.19383326883747

a3_local_8: 
+4.7124115120798598 a3_x1
+4.7440921449510309 a3_x3
+3.3381519429169497 a3_x5
<= 469.32625905777945

a3_act_1: 
+1 a3_x1
-100 a3_z1
<= 0

a3_act_2: 
+1 a3_x2
-100 a3_z2
<= 0

a4_local_1: 
+146.57794852031415 a4_x4
+129.94366992459976 a4_x2
+53.590349445838314 a4_x6
<= 23069.988633918729

a4_local_2: 
+66.215781913343704 a4_x5
+61.318597815332652 a4_x6
+72.476740719273977 a4_x2
<= 9520.4455254595159

a4_local_3: 
+135.06309721080564 a4_x1
+137.85670775857756 a4_x3
+97.333837597851698 a4_x6
<= 18958.567135804438

a4_local_4: 
+112.65438555262686 a4_x5
+106.16597028209291 a4_x1
+62.308147454909403 a4_x6
<= 13908.637816309663

a4_local_5: 
+50.58192092992001 a4_x5
+92.679728276381951 a4_x1
+110.3606584008928 a4_x6
<= 16763.06165306344

a4_local_6: 
+131.49184448795239 a4_x6
+108.43883221419119 a4_x1
+149.07222653504238 a4_x5
<= 18448.606913460979

a4_local_7: 
+120.74929441352027 a4_x2
+149.2725686799852 a4_x6
+59.032924744218242 a4_x1
<= 17375.446007427217

a4_local_8: 
+92.289612476474929 a4_x2
+104.38199234269862 a4_x3
+98.605144937270111 a4_x6
<= 10702.971342936831

a4_act_1: 
+1 a4_x1
-100 a4_z1
<= 0

a4_act_2: 
+1 a4_x2
-100 a4_z2
<= 0

coupling_1: 
+0.00019464704998921025 a1_x1
+0.0044734331978910228 a2_x1
+0.088435348003669409 a3_x1
+2.0324885786606632 a4_x1
+0.017566369293985664 short_1
-0.017566369293985664 surp_1
= 86.784960054422513

coupling_2: 
+0.00012106113529232372 a1_x2
+0.0030042074006453 a2_x2
+0.066883832471030621 a3_x2
+2.1188175253792516 a4_x2
+0.017566369293985664 short_2
-0.017566369293985664 surp_2
= 87.199519812317817

coupling_3: 
+0.00010549751841246772 a1_x3
+0.0035056771806071291 a2_x3
+0.059346796752480113 a3_x3
+1.4020636722593993 a4_x3
+0.017566369293985664 short_3
-0.017566369293985664 surp_3
= 34.514245974372393

bounds
  0 <= a1_x1 <= 100
  0 <= a1_x2 <= 100
  0 <= a1_x3 <= 100
  0 <= a1_x4 <= 100
  0 <= a1_x5 <= 100
  0 <= a1_x6 <= 100
  0 <= a2_x1 <= 100
  0 <= a2_x2 <= 100
  0 <= a2_x3 <= 100
  0 <= a2_x4 <= 100
  0 <= a2_x5 <= 100
  0 <= a2_x6 <= 100
  0 <= a3_x1 <= 100
  0 <= a3_x2 <= 100
  0 <= a3_x3 <= 100
  0 <= a3_x4 <= 100
  0 <= a3_x5 <= 100
  0 <= a3_x6 <= 100
  0 <= a4_x1 <= 100
  0 <= a4_x2 <= 100
  0 <= a4_x3 <= 100
  0 <= a4_x4 <= 100
  0 <= a4_x5 <= 100
  0 <= a4_x6 <= 100
  0 <= short_1 <= +inf
  0 <= surp_1 <= +inf
  0 <= short_2 <= +inf
  0 <= surp_2 <= +inf
  0 <= short_3 <= +inf
  0 <= surp_3 <= +inf
 0 <= a1_z1 <= 1
 0 <= a1_z2 <= 1
 0 <= a2_z1 <= 1
 0 <= a2_z2 <= 1
 0 <= a3_z1 <= 1
 0 <= a3_z2 <= 1
 0 <= a4_z1 <= 1
 0 <= a4_z2 <= 1

binary
  a1_z1
  a1_z2
  a2_z1
  a2_z2
  a3_z1
  a3_z2
  a4_z1
  a4_z2
end
