min
obj: 
  +5.7129162548306427 a1_x1
  +9.0056358908477314 a1_x2
  +9.0172471176233611 a1_x3
  +9.406385688684578 a1_x4
  +5.7753562095118767 a1_x5
  +7.2881596650216451 a1_x6
  +20.355895911925103 a1_z1
  +36.986322019028464 a1_z2
  +9.5705581106952309 a2_x1
  +1.2604999258751248 a2_x2
  +5.3940318901522675 a2_x3
  +5.1816392623674004 a2_x4
  +3.5951202349319828 a2_x5
  +8.3242993176305013 a2_x6
  +8.2240572055779673 a2_z1
  +9.8483018703506104 a2_z2
  +4.4443242856945142 a3_x1
  +6.878356128261002 a3_x2
  +6.0922718983064614 a3_x3
  +7.9699820931728009 a3_x4
  +3.3886243612057902 a3_x5
  +8.8768505579425145 a3_x6
  +46.436857763791892 a3_z1
  +46.775047481358833 a3_z2
  +2.1426688948262615 a4_x1
  +3.7175386403807593 a4_x2
  +7.4752828100284079 a4_x3
  +1.4623010448148774 a4_x4
  +9.334818787187654 a4_x5
  +5.5099843569690403 a4_x6
  +29.024926983261683 a4_z1
  +40.430546823103057 a4_z2
  +1000000 short_1
  +1000000 surp_1
  +1000000 short_2
  +1000000 surp_2
  +1000000 short_3
  +1000000 surp_3

s.t.

a1_local_1: 
+0.69479125208272063 a1_x1
+0.45749835068840977 a1_x3
+0.55494177635740338 a1_x4
<= 59.663310787211692

a1_local_2: 
+0.70495917278386289 a1_x3
+0.31528735967011723 a1_x4
+0.63531602021367128 a1_x5
<= 69.54675831381239

a1_local_3: 
+0.62596231467382157 a1_x2
+0.38556695188663004 a1_x4
+0.67787115753736316 a1_x1
<= 71.026871524236896

a1_local_4: 
+0.56438140470326137 a1_x2
+0.69233475721564841 a1_x3
+0.44960673257450545 a1_x4
<= 55.951589752315293

a1_local_5: 
+0.68580351629667835 a1_x1
+0.35780747295462434 a1_x3
+0.63375653790153286 a1_x2
<= 58.087174475243643

a1_local_6: 
+0.60301586421584152 a1_x2
+0.59136723368593402 a1_x3
+0.53540327084046435 a1_x4
<= 107.99982323166802

a1_local_7: 
+0.42300015015955056 a1_x1
+0.61028157461119648 a1_x2
+0.6697964412081302 a1_x4
<= 112.47732344150536

a1_local_8: 
+0.66879392168088614 a1_x2
+0.63988053821378033 a1_x6
+0.37850705031471144 a1_x5
<= 100.04771328409407

a1_act_1: 
+0.0099995000374968751 a1_x1
-0.99995000374968757 a1_z1
<= 0

a1_act_2: 
+0.0099995000374968751 a1_x2
-0.99995000374968757 a1_z2
<= 0

a2_local_1: 
+0.4195121262784024 a2_x5
+0.6050476311289571 a2_x6
+0.67670299243509424 a2_x2
<= 64.41778923340425

a2_local_2: 
+0.49808411253051998 a2_x4
+0.61231807063367316 a2_x6
+0.61398599106179963 a2_x2
<= 77.394567667428817

a2_local_3: 
+0.65685081750642238 a2_x6
+0.27909380208489848 a2_x1
+0.70046673952368388 a2_x2
<= 80.03674398983857

a2_local_4: 
+0.47024367953840585 a2_x6
+0.59236091067204399 a2_x2
+0.65420137065124517 a2_x5
<= 92.447487843316736

a2_local_5: 
+0.77440698609889347 a2_x2
+0.53778542616001102 a2_x5
+0.33328764647241826 a2_x1
<= 103.86364945294807

a2_local_6: 
+0.48921620474191685 a2_x2
+0.40300497356516035 a2_x4
+0.77346913079945179 a2_x3
<= 69.321936392207206

a2_local_7: 
+0.63196563393785588 a2_x5
+0.56559031981327079 a2_x1
+0.52983679341382639 a2_x6
<= 88.17703162578006

a2_local_8: 
+0.37493635232564698 a2_x3
+0.51980718651910018 a2_x2
+0.76760876789405919 a2_x5
<= 100.5688147205236

a2_act_1: 
+0.0099995000374968751 a2_x1
-0.99995000374968757 a2_z1
<= 0

a2_act_2: 
+0.0099995000374968751 a2_x2
-0.99995000374968757 a2_z2
<= 0

a3_local_1: 
+0.59681975406716736 a3_x6
+0.47404587273329102 a3_x4
+0.64736905370873132 a3_x5
<= 99.289265654578458

a3_local_2: 
+0.71391929117014497 a3_x3
+0.52624283011482498 a3_x6
+0.46193909711980119 a3_x5
<= 56.297317275952267

a3_local_3: 
+0.56584994127175092 a3_x3
+0.46492350293259033 a3_x5
+0.68092582590444128 a3_x2
<= 59.885259882048189

a3_local_4: 
+0.39007143722254972 a3_x1
+0.81479049376990476 a3_x4
+0.42890642933550155 a3_x2
<= 88.919332644725827

a3_local_5: 
+0.42092793148085306 a3_x2
+0.68675080476973382 a3_x5
+0.59261539690373666 a3_x3
<= 89.267444731402364

a3_local_6: 
+0.51844749248734756 a3_x5
+0.58289053460030926 a3_x3
+0.62566030895922053 a3_x2
<= 84.242005577066152

a3_local_7: 
+0.5334357792667388 a3_x5
+0.45790889845894628 a3_x6
+0.7111720678641712 a3_x1
<= 77.050840596529355

a3_local_8: 
+0.63608518661876157 a3_x4
+0.71580316063459848 a3_x2
+0.28813446616067029 a3_x1
<= 80.742037538558179

a3_act_1: 
+0.0099995000374968751 a3_x1
-0.99995000374968757 a3_z1
<= 0

a3_act_2: 
+0.0099995000374968751 a3_x2
-0.99995000374968757 a3_z2
<= 0

a4_local_1: 
+0.66069904971540949 a4_x2
+0.69336261653351272 a4_x5
+0.28761962328560969 a4_x4
<= 71.083344955417047

a4_local_2: 
+0.6248901242335827 a4_x2
+0.56750506185175642 a4_x4
+0.53614395213223454 a4_x3
<= 98.441513249438827

a4_local_3: 
+0.44264131437622811 a4_x6
+0.69653321876731578 a4_x4
+0.56472129582735575 a4_x1
<= 64.784194818679225

a4_local_4: 
+0.66120517301568904 a4_x1
+0.42771909264954822 a4_x6
+0.61633115851816211 a4_x3
<= 58.087168187582861

a4_local_5: 
+0.52425265155470124 a4_x1
+0.6430442305293278 a4_x3
+0.55825914674173494 a4_x6
<= 85.567547861153557

a4_local_6: 
+0.63287532907092336 a4_x6
+0.49128380707661329 a4_x2
+0.59842212422142271 a4_x4
<= 111.86894092999503

a4_local_7: 
+0.74216029705005382 a4_x3
+0.46473330202124569 a4_x6
+0.48292965478939642 a4_x4
<= 92.670670360304285

a4_local_8: 
+0.37257535466557801 a4_x4
+0.56933622475909484 a4_x5
+0.73283276964999355 a4_x6
<= 82.630082006648806

a4_act_1: 
+0.0099995000374968751 a4_x1
-0.99995000374968757 a4_z1
<= 0

a4_act_2: 
+0.0099995000374968751 a4_x2
-0.99995000374968757 a4_z2
<= 0

coupling_1: 
+0.00022619572471865369 a1_x1
+0.0021674110476976676 a2_x1
+0.085393133764153001 a3_x1
+0.99604352393524731 a4_x1
+0.017328622239472978 short_1
-0.017328622239472978 surp_1
= 82.006266537213932

coupling_2: 
+9.2586213155736318e-05 a1_x2
+0.0019889883569728724 a2_x2
+0.040476976171851163 a3_x2
+0.99913198916872559 a4_x2
+0.006816082923431617 short_2
-0.006816082923431617 surp_2
= 80.167864052667952

coupling_3: 
+0.0001442129537103102 a1_x3
+0.001897268815154402 a2_x3
+0.038651210504534267 a3_x3
+0.99906068932230629 a4_x3
+0.013787721911895272 short_3
-0.013787721911895272 surp_3
= 29.63288407515105

bounds
  0 <= a1_x1 <= 100
  0 <= a1_x2 <= 100
  0 <= a1_x3 <= 100
  0 <= a1_x4 <= 100
  0 <= a1_x5 <= 100
  0 <= a1_x6 <= 100
  0 <= a2_x1 <= 100
  0 <= a2_x2 <= 100
  0 <= a2_x3 <= 100
  0 <= a2_x4 <= 100
  0 <= a2_x5 <= 100
  0 <= a2_x6 <= 100
  0 <= a3_x1 <= 100
  0 <= a3_x2 <= 100
  0 <= a3_x3 <= 100
  0 <= a3_x4 <= 100
  0 <= a3_x5 <= 100
  0 <= a3_x6 <= 100
  0 <= a4_x1 <= 100
  0 <= a4_x2 <= 100
  0 <= a4_x3 <= 100
  0 <= a4_x4 <= 100
  0 <= a4_x5 <= 100
  0 <= a4_x6 <= 100
  0 <= short_1 <= +inf
  0 <= surp_1 <= +inf
  0 <= short_2 <= +inf
  0 <= surp_2 <= +inf
  0 <= short_3 <= +inf
  0 <= surp_3 <= +inf
 0 <= a1_z1 <= 1
 0 <= a1_z2 <= 1
 0 <= a2_z1 <= 1
 0 <= a2_z2 <= 1
 0 <= a3_z1 <= 1
 0 <= a3_z2 <= 1
 0 <= a4_z1 <= 1
 0 <= a4_z2 <= 1

binary
  a1_z1
  a1_z2
  a2_z1
  a2_z2
  a3_z1
  a3_z2
  a4_z1
  a4_z2
end
