min
obj: 
  +4.1029321056614965 a1_x1
  +3.3290118192963942 a1_x2
  +9.1017647242801925 a1_x3
  +1.0276781995025082 a1_x4
  +7.5015228430107515 a1_x5
  +9.6952211771409225 a1_x6
  +46.462393702811802 a1_z1
  +20.976939063031899 a1_z2
  +8.736124438174345 a2_x1
  +2.0422875685559534 a2_x2
  +7.9141637375248139 a2_x3
  +8.8510497644699591 a2_x4
  +5.3589026031734779 a2_x5
  +4.4651025961117679 a2_x6
  +43.599104627831977 a2_z1
  +13.736336737274122 a2_z2
  +8.7712175698219141 a3_x1
  +5.7628145052800139 a3_x2
  +8.5270938060320436 a3_x3
  +1.138926571582954 a3_x4
  +2.911442950069294 a3_x5
  +3.0275728231625529 a3_x6
  +21.64888772902043 a3_z1
  +37.443506250957391 a3_z2
  +3.737467766634015 a4_x1
  +6.3047039607963935 a4_x2
  +7.2324424815448989 a4_x3
  +3.5312943582825165 a4_x4
  +2.1943254476366931 a4_x5
  +2.7966711705726111 a4_x6
  +25.767819676338174 a4_z1
  +25.233732022591987 a4_z2
  +1000000 short_1
  +1000000 surp_1
  +1000000 short_2
  +1000000 surp_2
  +1000000 short_3
  +1000000 surp_3

s.t.

a1_local_1: 
+1.2041777867072401 a1_x6
+0.83872608849912589 a1_x1
+0.83044215815876044 a1_x4
<= 129.86298344926269

a1_local_2: 
+0.7912772818185142 a1_x6
+0.95132572721491082 a1_x5
+1.2637794904231283 a1_x4
<= 134.0818325030215

a1_local_3: 
+0.84779226898492166 a1_x1
+1.1795342285880002 a1_x5
+0.95405298954288487 a1_x6
<= 136.28943695122013

a1_local_4: 
+1.2204185021412697 a1_x4
+0.66749459622215124 a1_x5
+1.4981394690829626 a1_x3
<= 232.28685734164043

a1_local_5: 
+0.69446161690029007 a1_x6
+1.4399643920760832 a1_x2
+1.2476968376640414 a1_x1
<= 131.0985030813049

a1_local_6: 
+1.0117625467347757 a1_x5
+0.81085699927352517 a1_x1
+1.2332630795515542 a1_x6
<= 185.10694327030726

a1_local_7: 
+0.85980559423271741 a1_x5
+1.4564398877909841 a1_x1
+0.6866057489792613 a1_x3
<= 154.20011628430882

a1_local_8: 
+0.78020740659332 a1_x1
+1.2817104676900946 a1_x3
+1.2803793918286293 a1_x4
<= 188.46962539496786

a1_act_1: 
+0.10000000000000001 a1_x1
-10 a1_z1
<= 0

a1_act_2: 
+0.10000000000000001 a1_x2
-10 a1_z2
<= 0

a2_local_1: 
+0.73916055019772742 a2_x4
+1.3528860539601273 a2_x5
+1.1830936634866278 a2_x1
<= 98.550881914501531

a2_local_2: 
+1.526994172307057 a2_x4
+1.3566522091594302 a2_x5
+0.65488134672390486 a2_x2
<= 169.88361088258884

a2_local_3: 
+1.0108625163443228 a2_x6
+1.1628453244489469 a2_x3
+0.85995959993551474 a2_x4
<= 196.8486063897796

a2_local_4: 
+0.97514189800706996 a2_x3
+0.87068399744261094 a2_x2
+1.148522314567878 a2_x5
<= 133.76578572403415

a2_local_5: 
+1.3661582270586312 a2_x3
+1.4051186717543704 a2_x4
+0.7116836606771747 a2_x5
<= 242.04265309659417

a2_local_6: 
+1.1676942050733041 a2_x1
+0.76385431948245119 a2_x4
+1.3091501540209254 a2_x5
<= 213.69036362782131

a2_local_7: 
+0.91834465565122481 a2_x6
+1.0889157941370833 a2_x2
+0.9947896136078318 a2_x4
<= 136.45799483735473

a2_local_8: 
+1.2997666980484293 a2_x5
+1.0793690020897906 a2_x1
+0.76936884250187199 a2_x3
<= 114.67195801884232

a2_act_1: 
+0.10000000000000001 a2_x1
-10 a2_z1
<= 0

a2_act_2: 
+0.10000000000000001 a2_x2
-10 a2_z2
<= 0

a3_local_1: 
+0.61429344521114027 a3_x4
+1.6278864894224736 a3_x2
+0.93847288697137221 a3_x6
<= 193.76844974750236

a3_local_2: 
+1.2764871512342224 a3_x1
+1.1300622834895513 a3_x4
+0.78339997314748555 a3_x2
<= 205.19234442804282

a3_local_3: 
+0.88477969202124318 a3_x3
+0.9669861835386756 a3_x6
+1.1302248559927284 a3_x5
<= 160.04672032342782

a3_local_4: 
+0.67075172309388542 a3_x6
+1.1578944045729345 a3_x4
+1.4908646009695443 a3_x1
<= 226.82156605280724

a3_local_5: 
+0.77105964192811849 a3_x6
+1.4897751726194706 a3_x4
+0.67124222391335775 a3_x3
<= 98.235366834742678

a3_local_6: 
+0.85697083930190243 a3_x2
+0.77085299826763687 a3_x6
+1.2972642024449961 a3_x5
<= 149.19762842240459

a3_local_7: 
+0.86810364730747824 a3_x3
+0.72508344933876956 a3_x4
+1.3791516009804621 a3_x5
<= 205.44745439860378

a3_local_8: 
+0.74498068518282523 a3_x5
+1.3423166800016979 a3_x1
+1.1088145958657545 a3_x6
<= 142.95209130377995

a3_act_1: 
+0.10000000000000001 a3_x1
-10 a3_z1
<= 0

a3_act_2: 
+0.10000000000000001 a3_x2
-10 a3_z2
<= 0

a4_local_1: 
+1.2976113601752111 a4_x5
+0.98083288263523827 a4_x2
+0.77064676735334225 a4_x1
<= 156.37711231560766

a4_local_2: 
+1.0956350590866086 a4_x4
+0.87455836031251577 a4_x6
+1.1434342696611564 a4_x2
<= 217.58092030283149

a4_local_3: 
+1.5283503300854906 a4_x3
+0.65430024799619313 a4_x6
+0.69173224552651791 a4_x4
<= 95.27052618979431

a4_local_4: 
+1.1978618530193388 a4_x6
+1.3719312645416184 a4_x1
+0.72889949070015103 a4_x2
<= 103.1482489705174

a4_local_5: 
+1.1138170199062043 a4_x5
+0.76463134789556009 a4_x6
+1.3078197784490893 a4_x1
<= 216.07036466661668

a4_local_6: 
+1.1675709563473498 a4_x1
+0.85647899561360985 a4_x3
+0.93398829146063678 a4_x6
<= 151.54206918921787

a4_local_7: 
+1.3585805422730297 a4_x1
+0.69017285802046835 a4_x3
+1.4489123824257126 a4_x6
<= 211.4281327269681

a4_local_8: 
+1.0792574816586566 a4_x1
+1.2427153290244111 a4_x3
+0.80468951870501693 a4_x4
<= 196.22479628204516

a4_act_1: 
+0.10000000000000001 a4_x1
-10 a4_z1
<= 0

a4_act_2: 
+0.10000000000000001 a4_x2
-10 a4_z2
<= 0

coupling_1: 
+0.0092082848591205618 a1_x1
+0.33767467453399497 a2_x1
+2.9267607112435856 a3_x1
+108.59785674522509 a4_x1
+1.1960666016501678 short_1
-1.1960666016501678 surp_1
= 4625.7999787595072

coupling_2: 
+0.0095193013112198216 a1_x2
+0.34355636293603259 a2_x2
+4.8455160433530082 a3_x2
+105.049726582492 a4_x2
+1.4648122583752929 short_2
-1.4648122583752929 surp_2
= 5218.6015145826877

coupling_3: 
+0.010668326939782117 a1_x3
+0.28740251217334956 a2_x3
+2.9481425281230225 a3_x3
+93.735410026759368 a4_x3
+1.1892703720972446 short_3
-1.1892703720972446 surp_3
= 3742.4662243261946

bounds
  0 <= a1_x1 <= 100
  0 <= a1_x2 <= 100
  0 <= a1_x3 <= 100
  0 <= a1_x4 <= 100
  0 <= a1_x5 <= 100
  0 <= a1_x6 <= 100
  0 <= a2_x1 <= 100
  0 <= a2_x2 <= 100
  0 <= a2_x3 <= 100
  0 <= a2_x4 <= 100
  0 <= a2_x5 <= 100
  0 <= a2_x6 <= 100
  0 <= a3_x1 <= 100
  0 <= a3_x2 <= 100
  0 <= a3_x3 <= 100
  0 <= a3_x4 <= 100
  0 <= a3_x5 <= 100
  0 <= a3_x6 <= 100
  0 <= a4_x1 <= 100
  0 <= a4_x2 <= 100
  0 <= a4_x3 <= 100
  0 <= a4_x4 <= 100
  0 <= a4_x5 <= 100
  0 <= a4_x6 <= 100
  0 <= short_1 <= +inf
  0 <= surp_1 <= +inf
  0 <= short_2 <= +inf
  0 <= surp_2 <= +inf
  0 <= short_3 <= +inf
  0 <= surp_3 <= +inf
 0 <= a1_z1 <= 1
 0 <= a1_z2 <= 1
 0 <= a2_z1 <= 1
 0 <= a2_z2 <= 1
 0 <= a3_z1 <= 1
 0 <= a3_z2 <= 1
 0 <= a4_z1 <= 1
 0 <= a4_z2 <= 1

binary
  a1_z1
  a1_z2
  a2_z1
  a2_z2
  a3_z1
  a3_z2
  a4_z1
  a4_z2
end
