min
obj: 
  +2.6204029212029933 a1_x1
  +1.0229393332967094 a1_x2
  +7.1910932224071349 a1_x3
  +4.2632745770435907 a1_x4
  +6.0246265469097295 a1_x5
  +8.5542054222394626 a1_x6
  +28.114118371176183 a1_z1
  +36.337199795344134 a1_z2
  +2.3925011221889392 a2_x1
  +1.8354708126815493 a2_x2
  +3.2680190161516656 a2_x3
  +8.5745129304172316 a2_x4
  +5.2855415708546367 a2_x5
  +8.0750857020565832 a2_x6
  +37.679921062184903 a2_z1
  +30.786063311884963 a2_z2
  +6.9098336189226917 a3_x1
  +7.224692972136415 a3_x2
  +2.7635056217757095 a3_x3
  +4.5804152664090756 a3_x4
  +5.5391766018428115 a3_x5
  +2.5280261257879362 a3_x6
  +24.719908715545547 a3_z1
  +39.060952627342751 a3_z2
  +7.8772143187643042 a4_x1
  +7.8222341244321543 a4_x2
  +1.2624357252124174 a4_x3
  +2.9341291076023293 a4_x4
  +4.8680356039416175 a4_x5
  +9.5043443020751539 a4_x6
  +34.587285029007681 a4_z1
  +29.505942671624879 a4_z2
  +1000000 short_1
  +1000000 surp_1
  +1000000 short_2
  +1000000 surp_2
  +1000000 short_3
  +1000000 surp_3

s.t.

a1_local_1: 
+0.013625371621266162 a1_x3
+0.006330781645516469 a1_x5
+0.009996675918692955 a1_x4
<= 1.9599123627352151

a1_local_2: 
+0.013833621076180008 a1_x6
+0.0096983152520084166 a1_x5
+0.014112807870089153 a1_x4
<= 1.9946548826271999

a1_local_3: 
+0.014490156228902406 a1_x4
+0.010648424990039342 a1_x3
+0.014049519571401553 a1_x1
<= 2.7351140850984601

a1_local_4: 
+0.0055163413817395871 a1_x4
+0.0086355839508213995 a1_x2
+0.011944012359281815 a1_x5
<= 1.0910744030543844

a1_local_5: 
+0.0057194387692118499 a1_x2
+0.0097784473755248864 a1_x4
+0.0084170843634640176 a1_x3
<= 0.77689438991941706

a1_local_6: 
+0.012896460877189351 a1_x6
+0.0089569905112334685 a1_x1
+0.0066757840725946453 a1_x4
<= 1.7564974374887226

a1_local_7: 
+0.014698989791395141 a1_x2
+0.0078620916609128937 a1_x5
+0.013987701313116347 a1_x1
<= 1.9227249881300841

a1_local_8: 
+0.011997749428466223 a1_x3
+0.012215878816147049 a1_x4
+0.0054827081577141987 a1_x5
<= 0.9033349327246385

a1_act_1: 
+1 a1_x1
-100 a1_z1
<= 0

a1_act_2: 
+1 a1_x2
-100 a1_z2
<= 0

a2_local_1: 
+0.19775327389823391 a2_x1
+0.15865874568316388 a2_x5
+0.3215695257261037 a2_x6
<= 31.85521333872142

a2_local_2: 
+0.23536455053351349 a2_x5
+0.11724893835949013 a2_x2
+0.27839700916158899 a2_x4
<= 36.493849490240478

a2_local_3: 
+0.18604714376703479 a2_x4
+0.28507183284513432 a2_x5
+0.12736590262433992 a2_x1
<= 20.212210416214667

a2_local_4: 
+0.15378435012825487 a2_x6
+0.2310395269526814 a2_x1
+0.19050854249174104 a2_x3
<= 31.053983731479239

a2_local_5: 
+0.23179674955958429 a2_x4
+0.15679463874693714 a2_x5
+0.30887493394326648 a2_x3
<= 21.606476640539185

a2_local_6: 
+0.12024136573207493 a2_x5
+0.1096905762912203 a2_x3
+0.10832012905446609 a2_x1
<= 22.946091920082722

a2_local_7: 
+0.2668640327132496 a2_x3
+0.26792380827117596 a2_x1
+0.25363749939521402 a2_x4
<= 31.003208917505287

a2_local_8: 
+0.12392552684329783 a2_x6
+0.10936647926759209 a2_x1
+0.13858567819400364 a2_x3
<= 23.182647824902894

a2_act_1: 
+1 a2_x1
-100 a2_z1
<= 0

a2_act_2: 
+1 a2_x2
-100 a2_z2
<= 0

a3_local_1: 
+6.8709433651285234 a3_x2
+4.1293175390384809 a3_x1
+5.3398654910277603 a3_x3
<= 872.61548928828938

a3_local_2: 
+3.2865487424789639 a3_x6
+2.9132891957397864 a3_x5
+5.6567012441970457 a3_x2
<= 454.93376137177921

a3_local_3: 
+5.3207444704705678 a3_x3
+2.6726659925369791 a3_x6
+4.3826415627008179 a3_x4
<= 655.68686023259329

a3_local_4: 
+4.9655660403295574 a3_x1
+3.6721337827898903 a3_x4
+6.0083822242332046 a3_x3
<= 708.2208334884125

a3_local_5: 
+6.589228067503992 a3_x1
+6.0359874449508251 a3_x2
+5.1477575757720899 a3_x3
<= 848.4332397450454

a3_local_6: 
+2.375362008170101 a3_x5
+6.799278495981012 a3_x1
+4.9016342552779877 a3_x2
<= 881.95417154597169

a3_local_7: 
+6.1366624666369267 a3_x5
+2.8884586127780931 a3_x6
+4.992555086611465 a3_x3
<= 638.04135122155481

a3_local_8: 
+5.3937416212345175 a3_x2
+2.4819109571545908 a3_x6
+5.9199810849687822 a3_x4
<= 585.14057063876407

a3_act_1: 
+1 a3_x1
-100 a3_z1
<= 0

a3_act_2: 
+1 a3_x2
-100 a3_z2
<= 0

a4_local_1: 
+130.74359603982782 a4_x5
+98.401070193230893 a4_x4
+112.76050402093225 a4_x6
<= 11136.964639783524

a4_local_2: 
+80.952130996422866 a4_x6
+136.44171156052758 a4_x4
+70.08391871167909 a4_x2
<= 11023.701728086775

a4_local_3: 
+57.234232897860501 a4_x1
+86.07371982655043 a4_x6
+136.8213124288589 a4_x5
<= 17844.394860364042

a4_local_4: 
+107.54849126130321 a4_x3
+74.865572510366135 a4_x5
+71.587907857141587 a4_x4
<= 14505.758425526934

a4_local_5: 
+136.73089241876855 a4_x2
+57.820455843654706 a4_x1
+135.16439990407969 a4_x5
<= 10705.261716256457

a4_local_6: 
+141.94314221294366 a4_x6
+91.851659711587686 a4_x5
+75.761965385007485 a4_x4
<= 21349.901234570651

a4_local_7: 
+136.92673384369633 a4_x6
+106.19080401981864 a4_x1
+92.241033128097769 a4_x4
<= 12960.373218575232

a4_local_8: 
+143.07669664222931 a4_x6
+131.43295814786623 a4_x1
+56.054617785610553 a4_x2
<= 13050.111133076452

a4_act_1: 
+1 a4_x1
-100 a4_z1
<= 0

a4_act_2: 
+1 a4_x2
-100 a4_z2
<= 0

coupling_1: 
+0.24573530669464183 a1_x1
+9.4849623388764268 a2_x1
+211.53523231530855 a3_x1
+4145.3555591571521 a4_x1
+33.218788942728928 short_1
-33.218788942728928 surp_1
= 246830.3833209782

coupling_2: 
+0.16704306669342056 a1_x2
+8.0641837754403518 a2_x2
+105.53059129677551 a3_x2
+3926.5668827951249 a4_x2
+33.218788942728928 short_2
-33.218788942728928 surp_2
= 282744.13931717986

coupling_3: 
+0.39822059348117861 a1_x3
+8.7970991431558652 a2_x3
+192.16683067526884 a3_x3
+4310.6150529418055 a4_x3
+33.218788942728928 short_3
-33.218788942728928 surp_3
= 160420.44791768567

bounds
  0 <= a1_x1 <= 100
  0 <= a1_x2 <= 100
  0 <= a1_x3 <= 100
  0 <= a1_x4 <= 100
  0 <= a1_x5 <= 100
  0 <= a1_x6 <= 100
  0 <= a2_x1 <= 100
  0 <= a2_x2 <= 100
  0 <= a2_x3 <= 100
  0 <= a2_x4 <= 100
  0 <= a2_x5 <= 100
  0 <= a2_x6 <= 100
  0 <= a3_x1 <= 100
  0 <= a3_x2 <= 100
  0 <= a3_x3 <= 100
  0 <= a3_x4 <= 100
  0 <= a3_x5 <= 100
  0 <= a3_x6 <= 100
  0 <= a4_x1 <= 100
  0 <= a4_x2 <= 100
  0 <= a4_x3 <= 100
  0 <= a4_x4 <= 100
  0 <= a4_x5 <= 100
  0 <= a4_x6 <= 100
  0 <= short_1 <= +inf
  0 <= surp_1 <= +inf
  0 <= short_2 <= +inf
  0 <= surp_2 <= +inf
  0 <= short_3 <= +inf
  0 <= surp_3 <= +inf
 0 <= a1_z1 <= 1
 0 <= a1_z2 <= 1
 0 <= a2_z1 <= 1
 0 <= a2_z2 <= 1
 0 <= a3_z1 <= 1
 0 <= a3_z2 <= 1
 0 <= a4_z1 <= 1
 0 <= a4_z2 <= 1

binary
  a1_z1
  a1_z2
  a2_z1
  a2_z2
  a3_z1
  a3_z2
  a4_z1
  a4_z2
end
