min
obj: 
  +1.8591431952918778 a1_x1
  +3.3231109040519993 a1_x2
  +9.2087059181463786 a1_x3
  +9.6203246603591985 a1_x4
  +2.6522167369866532 a1_x5
  +9.1942431803836406 a1_x6
  +15.231591264695247 a1_z1
  +37.870536168888826 a1_z2
  +9.5099240901526567 a2_x1
  +7.5753998333245365 a2_x2
  +7.2545869758953661 a2_x3
  +4.0776176539598987 a2_x4
  +7.0823179577413251 a2_x5
  +8.348071264940085 a2_x6
  +13.295788449057502 a2_z1
  +34.639218331961018 a2_z2
  +8.7650426689296079 a3_x1
  +7.7797720123238729 a3_x2
  +6.0483854765360672 a3_x3
  +6.4868155236610479 a3_x4
  +7.5914186799784584 a3_x5
  +2.6670787193002194 a3_x6
  +17.076428731733131 a3_z1
  +32.166931894716356 a3_z2
  +3.9578684115063361 a4_x1
  +4.7726522238702849 a4_x2
  +6.6226528859876028 a4_x3
  +9.5073045520096944 a4_x4
  +5.1085987408368467 a4_x5
  +6.1990863498809015 a4_x6
  +14.100841079092167 a4_z1
  +36.135322859790648 a4_z2
  +1000000 short_1
  +1000000 surp_1
  +1000000 short_2
  +1000000 surp_2
  +1000000 short_3
  +1000000 surp_3

s.t.

a1_local_1: 
+0.64217508433350889 a1_x5
+0.45606040268985232 a1_x4
+0.61613315943846125 a1_x3
<= 61.201218878626854

a1_local_2: 
+0.69617846452001109 a1_x2
+0.47322524293868901 a1_x4
+0.53980868368726553 a1_x3
<= 115.09745279685556

a1_local_3: 
+0.60081817168806717 a1_x1
+0.35679507331936433 a1_x6
+0.71534243563795197 a1_x3
<= 69.397213100709166

a1_local_4: 
+0.56570818785161281 a1_x3
+0.56531348531914016 a1_x6
+0.60032900106022746 a1_x5
<= 103.13451505582371

a1_local_5: 
+0.59849190138408204 a1_x2
+0.58422942869783412 a1_x3
+0.54816367867733518 a1_x5
<= 57.525146708585766

a1_local_6: 
+0.55633618212553693 a1_x4
+0.61227312293390845 a1_x3
+0.5617932674843481 a1_x2
<= 113.05533271663205

a1_local_7: 
+0.61042867510448773 a1_x6
+0.61617297127101389 a1_x4
+0.49770242322619829 a1_x5
<= 115.15975688111656

a1_local_8: 
+0.54283426556040593 a1_x3
+0.75383860267237268 a1_x4
+0.37021388582069598 a1_x2
<= 114.43508715881073

a1_act_1: 
+0.0099995000374968751 a1_x1
-0.99995000374968757 a1_z1
<= 0

a1_act_2: 
+0.0099995000374968751 a1_x2
-0.99995000374968757 a1_z2
<= 0

a2_local_1: 
+0.60263711553627797 a2_x5
+0.73565016830327423 a2_x1
+0.30926903636393838 a2_x3
<= 106.010487106621

a2_local_2: 
+0.56051942051105386 a2_x3
+0.51711376901831951 a2_x1
+0.64684722239615466 a2_x2
<= 103.23246911280521

a2_local_3: 
+0.45906282976003393 a2_x4
+0.62136517053484563 a2_x6
+0.63495404808451472 a2_x2
<= 56.466885028751079

a2_local_4: 
+0.69823877586255589 a2_x5
+0.56985261146242583 a2_x2
+0.43327890912368783 a2_x3
<= 92.518195269278806

a2_local_5: 
+0.63861542181410968 a2_x2
+0.56816630194893947 a2_x1
+0.51899652826474008 a2_x5
<= 57.358889792003389

a2_local_6: 
+0.28162261257256377 a2_x4
+0.79265699798367506 a2_x3
+0.54072505733996812 a2_x2
<= 112.80156495772549

a2_local_7: 
+0.63793935172220284 a2_x1
+0.69240931032943254 a2_x4
+0.33705004152703361 a2_x6
<= 83.669090655680392

a2_local_8: 
+0.52855387079303418 a2_x4
+0.5264145793655638 a2_x5
+0.66597184347469007 a2_x1
<= 106.75380784339532

a2_act_1: 
+0.0099995000374968751 a2_x1
-0.99995000374968757 a2_z1
<= 0

a2_act_2: 
+0.0099995000374968751 a2_x2
-0.99995000374968757 a2_z2
<= 0

a3_local_1: 
+0.7769557140214689 a3_x3
+0.47583175159447938 a3_x2
+0.41221834338602531 a3_x1
<= 96.493872676141393

a3_local_2: 
+0.77979534648255466 a3_x3
+0.30241108023066765 a3_x5
+0.54814848002879057 a3_x1
<= 95.866071971202715

a3_local_3: 
+0.63630279733364237 a3_x1
+0.5629136170202117 a3_x6
+0.527491241518382 a3_x5
<= 98.309013205715786

a3_local_4: 
+0.57773816832688885 a3_x4
+0.41282279688239409 a3_x5
+0.7041277918336194 a3_x3
<= 57.563283397923719

a3_local_5: 
+0.54344592295898009 a3_x5
+0.65962931481753484 a3_x2
+0.51918753437713772 a3_x3
<= 59.644155392226317

a3_local_6: 
+0.42660488367981053 a3_x1
+0.54746771533748928 a3_x4
+0.71992178317070343 a3_x6
<= 84.273384808586599

a3_local_7: 
+0.54867801238597669 a3_x2
+0.6118516092718308 a3_x6
+0.56972804648853737 a3_x3
<= 103.27595107167618

a3_local_8: 
+0.7174798108035142 a3_x4
+0.627654598160032 a3_x3
+0.30211326766284546 a3_x1
<= 71.929204771733978

a3_act_1: 
+0.0099995000374968751 a3_x1
-0.99995000374968757 a3_z1
<= 0

a3_act_2: 
+0.0099995000374968751 a3_x2
-0.99995000374968757 a3_z2
<= 0

a4_local_1: 
+0.39877525037721628 a4_x4
+0.8007892052641874 a4_x1
+0.44689478450630804 a4_x2
<= 57.786610640649606

a4_local_2: 
+0.67577792912305945 a4_x5
+0.62138450550508584 a4_x4
+0.39649147131855045 a4_x1
<= 54.97721133264573

a4_local_3: 
+0.80611437834912791 a4_x1
+0.3632852151083048 a4_x2
+0.46712253371306278 a4_x4
<= 64.92363368218237

a4_local_4: 
+0.63025010675943838 a4_x6
+0.31107417644316249 a4_x3
+0.71134918266623781 a4_x4
<= 71.425081188681105

a4_local_5: 
+0.26310618070075403 a4_x6
+0.72166925237012958 a4_x3
+0.64028792574950255 a4_x5
<= 50.748351878976244

a4_local_6: 
+0.47891534164462468 a4_x4
+0.49226515065902815 a4_x1
+0.72685288537919202 a4_x5
<= 84.692241084951007

a4_local_7: 
+0.37713455303123267 a4_x1
+0.38279576408675503 a4_x2
+0.84334864196675485 a4_x3
<= 82.104108191080655

a4_local_8: 
+0.51651382982070904 a4_x2
+0.70082942250654712 a4_x3
+0.49198738210759363 a4_x4
<= 112.30831402729419

a4_act_1: 
+0.0099995000374968751 a4_x1
-0.99995000374968757 a4_z1
<= 0

a4_act_2: 
+0.0099995000374968751 a4_x2
-0.99995000374968757 a4_z2
<= 0

coupling_1: 
+5.6760718898609823e-05 a1_x1
+0.0015916133124334677 a2_x1
+0.040490959025059614 a3_x1
+0.99910078181432904 a4_x1
+0.0088196814146403856 short_1
-0.0088196814146403856 surp_1
= 80.589052833107672

coupling_2: 
+9.4487876187707639e-05 a1_x2
+0.0018888839079455621 a2_x2
+0.048167006404868103 a3_x2
+0.99873713012282883 a4_x2
+0.010012681899286186 short_2
-0.010012681899286186 surp_2
= 46.462085603458355

coupling_3: 
+9.2435600341495515e-05 a1_x3
+0.0020979971807280622 a2_x3
+0.028195478690329633 a3_x3
+0.9995555543213287 a4_x3
+0.0066820157996655147 short_3
-0.0066820157996655147 surp_3
= 72.057638008298085

bounds
  0 <= a1_x1 <= 100
  0 <= a1_x2 <= 100
  0 <= a1_x3 <= 100
  0 <= a1_x4 <= 100
  0 <= a1_x5 <= 100
  0 <= a1_x6 <= 100
  0 <= a2_x1 <= 100
  0 <= a2_x2 <= 100
  0 <= a2_x3 <= 100
  0 <= a2_x4 <= 100
  0 <= a2_x5 <= 100
  0 <= a2_x6 <= 100
  0 <= a3_x1 <= 100
  0 <= a3_x2 <= 100
  0 <= a3_x3 <= 100
  0 <= a3_x4 <= 100
  0 <= a3_x5 <= 100
  0 <= a3_x6 <= 100
  0 <= a4_x1 <= 100
  0 <= a4_x2 <= 100
  0 <= a4_x3 <= 100
  0 <= a4_x4 <= 100
  0 <= a4_x5 <= 100
  0 <= a4_x6 <= 100
  0 <= short_1 <= +inf
  0 <= surp_1 <= +inf
  0 <= short_2 <= +inf
  0 <= surp_2 <= +inf
  0 <= short_3 <= +inf
  0 <= surp_3 <= +inf
 0 <= a1_z1 <= 1
 0 <= a1_z2 <= 1
 0 <= a2_z1 <= 1
 0 <= a2_z2 <= 1
 0 <= a3_z1 <= 1
 0 <= a3_z2 <= 1
 0 <= a4_z1 <= 1
 0 <= a4_z2 <= 1

binary
  a1_z1
  a1_z2
  a2_z1
  a2_z2
  a3_z1
  a3_z2
  a4_z1
  a4_z2
end
