min
obj: 
  +4.0871141162290519 a1_x1
  +7.6613663727576089 a1_x2
  +4.8999168943267346 a1_x3
  +9.1856075433138287 a1_x4
  +7.8055232956727103 a1_x5
  +3.4861746229099309 a1_x6
  +23.402378726140935 a1_z1
  +18.267560866392444 a1_z2
  +9.867310978744726 a2_x1
  +9.2615292817302226 a2_x2
  +3.5007890513184758 a2_x3
  +7.1637373168446201 a2_x4
  +7.9245284991421201 a2_x5
  +2.4582106797035337 a2_x6
  +33.658905491272137 a2_z1
  +35.254409520378104 a2_z2
  +2.6732854397558619 a3_x1
  +9.8971817318039896 a3_x2
  +5.2211213282041085 a3_x3
  +8.0114291145185241 a3_x4
  +2.5829750625381869 a3_x5
  +9.9025128730968675 a3_x6
  +27.0926152551414 a3_z1
  +47.996135855740022 a3_z2
  +8.2046274155609638 a4_x1
  +7.1214056561276049 a4_x2
  +6.2664722965402984 a4_x3
  +7.507966634456313 a4_x4
  +5.5736057519875928 a4_x5
  +1.8081083701963157 a4_x6
  +27.561079601884479 a4_z1
  +34.985951557117836 a4_z2
  +1000000 short_1
  +1000000 surp_1
  +1000000 short_2
  +1000000 surp_2
  +1000000 short_3
  +1000000 surp_3

s.t.

a1_local_1: 
+0.0094617666374969475 a1_x6
+0.0052600100211459165 a1_x4
+0.014987129748420234 a1_x2
<= 2.0591128460916965

a1_local_2: 
+0.013536689756057896 a1_x6
+0.0080495281021142479 a1_x3
+0.007918605924700511 a1_x2
<= 0.91379310738096597

a1_local_3: 
+0.0098919809361693641 a1_x6
+0.012946813061984646 a1_x4
+0.014975850057512069 a1_x1
<= 2.0190417515810957

a1_local_4: 
+0.014474765578933678 a1_x4
+0.0057702725861034001 a1_x5
+0.0074904898324300393 a1_x2
<= 1.8466552360293722

a1_local_5: 
+0.010746080283071417 a1_x5
+0.011548177741338388 a1_x1
+0.008371339331382642 a1_x4
<= 2.075140749113932

a1_local_6: 
+0.0092431027187921816 a1_x2
+0.011549181048212117 a1_x6
+0.0064879091030806335 a1_x1
<= 1.3394618648771286

a1_local_7: 
+0.012579723798032077 a1_x2
+0.01247218607757229 a1_x1
+0.007308610695168808 a1_x3
<= 1.4419186127311778

a1_local_8: 
+0.010805879833041243 a1_x2
+0.01252387394653014 a1_x4
+0.014900163456101852 a1_x3
<= 2.1896594249650772

a1_act_1: 
+1 a1_x1
-100 a1_z1
<= 0

a1_act_2: 
+1 a1_x2
-100 a1_z2
<= 0

a2_local_1: 
+0.29556235574817136 a2_x6
+0.31344939745007699 a2_x2
+0.3118780395330516 a2_x4
<= 44.250267420435669

a2_local_2: 
+0.23374049545133882 a2_x2
+0.16689094321363124 a2_x3
+0.17892800383980506 a2_x6
<= 40.00388267812378

a2_local_3: 
+0.14447145449044582 a2_x4
+0.28726585180506514 a2_x6
+0.23982480548185381 a2_x2
<= 20.395916448303112

a2_local_4: 
+0.26873415981474785 a2_x6
+0.29696561877591282 a2_x2
+0.29016983171215266 a2_x4
<= 46.620116817192674

a2_local_5: 
+0.16646155626945464 a2_x2
+0.27535253944301363 a2_x3
+0.1549006281823998 a2_x1
<= 33.297140754100717

a2_local_6: 
+0.21657116516128166 a2_x4
+0.2491190640545001 a2_x6
+0.23886743794679924 a2_x2
<= 44.177244617873654

a2_local_7: 
+0.29937277191517903 a2_x5
+0.28927494988876151 a2_x2
+0.20574120077446423 a2_x3
<= 53.604994589388049

a2_local_8: 
+0.10949767788503528 a2_x5
+0.22234263135448182 a2_x4
+0.25041337400341351 a2_x6
<= 25.42026722762165

a2_act_1: 
+1 a2_x1
-100 a2_z1
<= 0

a2_act_2: 
+1 a2_x2
-100 a2_z2
<= 0

a3_local_1: 
+2.9394425393264112 a3_x3
+4.0236404222222735 a3_x5
+6.5968668927138685 a3_x6
<= 849.66431322679807

a3_local_2: 
+5.8541513505817591 a3_x4
+4.6916262260088581 a3_x1
+3.7973528662153946 a3_x2
<= 933.46709003448711

a3_local_3: 
+4.2118481974984556 a3_x3
+4.9555769682219735 a3_x5
+4.1039151690862692 a3_x2
<= 528.15669234798531

a3_local_4: 
+5.3751645210713948 a3_x2
+4.2696264774210002 a3_x6
+3.3771154832502472 a3_x4
<= 885.89120935357437

a3_local_5: 
+4.0482235548135668 a3_x2
+5.4404144240483783 a3_x3
+5.5746100494509196 a3_x1
<= 850.6189748642297

a3_local_6: 
+5.7763215754802006 a3_x1
+4.6806285027902526 a3_x5
+6.7975982297256907 a3_x4
<= 770.19658046610436

a3_local_7: 
+3.0768184526287481 a3_x2
+6.7067324674273143 a3_x1
+3.7584146116754544 a3_x3
<= 522.09263556312703

a3_local_8: 
+3.8382068045215805 a3_x4
+4.0441020909506289 a3_x5
+4.9319959807219922 a3_x2
<= 705.44204367480927

a3_act_1: 
+1 a3_x1
-100 a3_z1
<= 0

a3_act_2: 
+1 a3_x2
-100 a3_z2
<= 0

a4_local_1: 
+141.80083872888764 a4_x3
+66.140910047170934 a4_x2
+72.88430142142299 a4_x6
<= 17818.415850361936

a4_local_2: 
+118.6378350859548 a4_x6
+107.39476495699036 a4_x1
+66.428148799993508 a4_x5
<= 13130.374305726195

a4_local_3: 
+50.120137467573919 a4_x4
+100.36271652007171 a4_x5
+109.46242063801409 a4_x6
<= 13084.235982064994

a4_local_4: 
+102.46754041028119 a4_x6
+129.83287565988826 a4_x2
+82.467085275985966 a4_x4
<= 17222.772369105005

a4_local_5: 
+54.29091819898435 a4_x3
+59.012186490742927 a4_x6
+74.805862973737192 a4_x1
<= 13065.770805821825

a4_local_6: 
+82.682086774620501 a4_x5
+147.41064643450255 a4_x6
+108.11702067915914 a4_x2
<= 19819.650451765865

a4_local_7: 
+113.92564358033277 a4_x4
+51.199038198756533 a4_x3
+80.69626157826383 a4_x2
<= 15651.859912257478

a4_local_8: 
+131.06179207900942 a4_x3
+61.395194443455203 a4_x6
+109.08214583770122 a4_x2
<= 20078.860931460204

a4_act_1: 
+1 a4_x1
-100 a4_z1
<= 0

a4_act_2: 
+1 a4_x2
-100 a4_z2
<= 0

coupling_1: 
+6.3012756282464035e-05 a1_x1
+0.0018764402101866396 a2_x1
+0.047264894378916116 a3_x1
+1.0558664823144961 a4_x1
+0.0081946311923734045 short_1
-0.0081946311923734045 surp_1
= 65.436634773556563

coupling_2: 
+0.00011564989498936222 a1_x2
+0.0019905342917886652 a2_x2
+0.056537357938929556 a3_x2
+0.99519448817229295 a4_x2
+0.0081946311923734045 short_2
-0.0081946311923734045 surp_2
= 69.077527159983816

coupling_3: 
+9.4938969768820292e-05 a1_x3
+0.0019113210248756585 a2_x3
+0.030640894399872103 a3_x3
+0.83051984357092212 a4_x3
+0.0081946311923734045 short_3
-0.0081946311923734045 surp_3
= 57.533703200746757

bounds
  0 <= a1_x1 <= 100
  0 <= a1_x2 <= 100
  0 <= a1_x3 <= 100
  0 <= a1_x4 <= 100
  0 <= a1_x5 <= 100
  0 <= a1_x6 <= 100
  0 <= a2_x1 <= 100
  0 <= a2_x2 <= 100
  0 <= a2_x3 <= 100
  0 <= a2_x4 <= 100
  0 <= a2_x5 <= 100
  0 <= a2_x6 <= 100
  0 <= a3_x1 <= 100
  0 <= a3_x2 <= 100
  0 <= a3_x3 <= 100
  0 <= a3_x4 <= 100
  0 <= a3_x5 <= 100
  0 <= a3_x6 <= 100
  0 <= a4_x1 <= 100
  0 <= a4_x2 <= 100
  0 <= a4_x3 <= 100
  0 <= a4_x4 <= 100
  0 <= a4_x5 <= 100
  0 <= a4_x6 <= 100
  0 <= short_1 <= +inf
  0 <= surp_1 <= +inf
  0 <= short_2 <= +inf
  0 <= surp_2 <= +inf
  0 <= short_3 <= +inf
  0 <= surp_3 <= +inf
 0 <= a1_z1 <= 1
 0 <= a1_z2 <= 1
 0 <= a2_z1 <= 1
 0 <= a2_z2 <= 1
 0 <= a3_z1 <= 1
 0 <= a3_z2 <= 1
 0 <= a4_z1 <= 1
 0 <= a4_z2 <= 1

binary
  a1_z1
  a1_z2
  a2_z1
  a2_z2
  a3_z1
  a3_z2
  a4_z1
  a4_z2
end
