min
obj: 
  +1.8591431952918778 a1_x1
  +3.3231109040519993 a1_x2
  +9.2087059181463786 a1_x3
  +9.6203246603591985 a1_x4
  +2.6522167369866532 a1_x5
  +9.1942431803836406 a1_x6
  +15.231591264695247 a1_z1
  +37.870536168888826 a1_z2
  +9.5099240901526567 a2_x1
  +7.5753998333245365 a2_x2
  +7.2545869758953661 a2_x3
  +4.0776176539598987 a2_x4
  +7.0823179577413251 a2_x5
  +8.348071264940085 a2_x6
  +13.295788449057502 a2_z1
  +34.639218331961018 a2_z2
  +8.7650426689296079 a3_x1
  +7.7797720123238729 a3_x2
  +6.0483854765360672 a3_x3
  +6.4868155236610479 a3_x4
  +7.5914186799784584 a3_x5
  +2.6670787193002194 a3_x6
  +17.076428731733131 a3_z1
  +32.166931894716356 a3_z2
  +3.9578684115063361 a4_x1
  +4.7726522238702849 a4_x2
  +6.6226528859876028 a4_x3
  +9.5073045520096944 a4_x4
  +5.1085987408368467 a4_x5
  +6.1990863498809015 a4_x6
  +14.100841079092167 a4_z1
  +36.135322859790648 a4_z2
  +1000000 short_1
  +1000000 surp_1
  +1000000 short_2
  +1000000 surp_2
  +1000000 short_3
  +1000000 surp_3

s.t.

a1_local_1: 
+0.0089464331444935648 a1_x5
+0.0063535848743651972 a1_x4
+0.008583631245585777 a1_x3
<= 0.85262201293190565

a1_local_2: 
+0.012771120422091706 a1_x2
+0.0086811311644212474 a1_x4
+0.0099025782261363202 a1_x3
<= 2.1114175529088151

a1_local_3: 
+0.011067179300559849 a1_x1
+0.0065722297294827769 a1_x6
+0.013176736938999683 a1_x3
<= 1.2783092065721604

a1_local_4: 
+0.013139489388724201 a1_x3
+0.013130321782795032 a1_x6
+0.013943613878262111 a1_x5
<= 2.3954662408787133

a1_local_5: 
+0.011988124675651492 a1_x2
+0.011702439438557387 a1_x3
+0.010980022465551173 a1_x5
<= 1.1522605888782222

a1_local_6: 
+0.013613608138366118 a1_x4
+0.0149823912897958 a1_x3
+0.013747143622915471 a1_x2
<= 2.7664765424326405

a1_local_7: 
+0.008074061641326593 a1_x6
+0.0081500407085396947 a1_x4
+0.0065830459938306368 a1_x5
<= 1.5232033054462315

a1_local_8: 
+0.0097705757572827071 a1_x3
+0.013568482395949521 a1_x4
+0.0066635491664750156 a1_x2
<= 2.0597385966822119

a1_act_1: 
+1 a1_x1
-100 a1_z1
<= 0

a1_act_2: 
+1 a1_x2
-100 a1_z2
<= 0

a2_local_1: 
+0.23737388165685852 a2_x5
+0.28976664644406114 a2_x1
+0.12181856999075731 a2_x3
<= 41.756672750631687

a2_local_2: 
+0.24134323456578641 a2_x3
+0.22265403318157642 a2_x1
+0.2785134559310134 a2_x2
<= 44.448875625364195

a2_local_3: 
+0.1732156098999541 a2_x4
+0.23445624434686604 a2_x6
+0.23958365950668661 a2_x2
<= 21.306333894466043

a2_local_4: 
+0.31041178322239127 a2_x5
+0.25333592377402947 a2_x2
+0.19262018017774893 a2_x3
<= 41.130253670855069

a2_local_5: 
+0.29600719351001215 a2_x2
+0.26335303962612805 a2_x1
+0.24056216077068612 a2_x5
<= 26.586648881653858

a2_local_6: 
+0.11364057087252194 a2_x4
+0.31985355484817302 a2_x3
+0.21819378649986132 a2_x2
<= 45.517773306668865

a2_local_7: 
+0.22612710883421266 a2_x1
+0.24543479729224604 a2_x4
+0.11947240943391202 a2_x6
<= 29.657755894318125

a2_local_8: 
+0.16147518977143038 a2_x4
+0.16082162821731882 a2_x5
+0.20345689578652906 a2_x1
<= 32.613688656695111

a2_act_1: 
+1 a2_x1
-100 a2_z1
<= 0

a2_act_2: 
+1 a2_x2
-100 a2_z2
<= 0

a3_local_1: 
+5.1281749379621875 a3_x3
+3.1406532176504878 a3_x2
+2.7207828443386592 a3_x1
<= 636.89274767471397

a3_local_2: 
+6.3991692032322689 a3_x3
+2.4816507049668379 a3_x5
+4.4982249355822335 a3_x1
<= 786.69771262438894

a3_local_3: 
+3.4453775320906828 a3_x1
+3.0479984320615761 a3_x6
+2.8561975202964649 a3_x5
<= 532.31207959530241

a3_local_4: 
+4.4067115065997076 a3_x4
+3.148815620883485 a3_x5
+5.370751341175394 a3_x3
<= 439.06530192023735

a3_local_5: 
+2.8600179564467707 a3_x5
+3.4714616584201123 a3_x2
+2.7323522145441133 a3_x3
<= 313.89205109878901

a3_local_6: 
+3.7004426218688944 a3_x1
+4.7488271827955835 a3_x4
+6.2447228167603956 a3_x6
<= 731.00153553073585

a3_local_7: 
+4.4886668814324437 a3_x2
+5.0054822553334093 a3_x6
+4.6608746039877982 a3_x3
<= 844.88776797886942

a3_local_8: 
+6.5138522941788013 a3_x4
+5.6983475808161002 a3_x3
+2.742824497686676 a3_x1
<= 653.03052220535221

a3_act_1: 
+1 a3_x1
-100 a3_z1
<= 0

a3_act_2: 
+1 a3_x2
-100 a3_z2
<= 0

a4_local_1: 
+67.45984459005038 a4_x4
+135.46757298857304 a4_x1
+75.600109792124769 a4_x2
<= 9775.621153811453

a4_local_2: 
+92.143012424365708 a4_x5
+84.726413431944266 a4_x4
+54.062017999417954 a4_x1
<= 7496.1990449357754

a4_local_3: 
+147.4917304923558 a4_x1
+66.468936019158107 a4_x2
+85.4676615375719 a4_x4
<= 11878.834243407629

a4_local_4: 
+126.31070872433253 a4_x6
+62.343503429776291 a4_x3
+142.56406853310159 a4_x4
<= 14314.559456439465

a4_local_5: 
+50.03204168375408 a4_x6
+137.2319951599012 a4_x3
+121.75659311910547 a4_x5
<= 9650.2623002937416

a4_local_6: 
+71.494825736606842 a4_x4
+73.487750552554786 a4_x1
+108.50815552886657 a4_x5
<= 12643.272184219093

a4_local_7: 
+58.902308851630195 a4_x1
+59.786498325616222 a4_x2
+131.71739841778646 a4_x3
<= 12823.331884570614

a4_local_8: 
+75.310121957964711 a4_x2
+102.18419378822585 a4_x3
+71.734051653881039 a4_x4
<= 16375.07524091819

a4_act_1: 
+1 a4_x1
-100 a4_z1
<= 0

a4_act_2: 
+1 a4_x2
-100 a4_z2
<= 0

coupling_1: 
+1.5844074315419076e-05 a1_x1
+0.00044427977821513833 a2_x1
+0.011302565864988469 a3_x1
+0.27888700747317757 a4_x1
+0.0024619083493550541 short_1
-0.0024619083493550541 surp_1
= 22.495468113746263

coupling_2: 
+2.323258579860884e-05 a1_x2
+0.00046443691217885435 a2_x2
+0.011843256025145174 a3_x2
+0.24556850044697692 a4_x2
+0.0024619083493550541 short_2
-0.0024619083493550541 surp_2
= 11.424051780148737

coupling_3: 
+3.4056785120107945e-05 a1_x3
+0.00077298182629504286 a2_x3
+0.010388284985087847 a3_x3
+0.36827422122394277 a4_x3
+0.0024619083493550541 short_3
-0.0024619083493550541 surp_3
= 26.548770006846336

bounds
  0 <= a1_x1 <= 100
  0 <= a1_x2 <= 100
  0 <= a1_x3 <= 100
  0 <= a1_x4 <= 100
  0 <= a1_x5 <= 100
  0 <= a1_x6 <= 100
  0 <= a2_x1 <= 100
  0 <= a2_x2 <= 100
  0 <= a2_x3 <= 100
  0 <= a2_x4 <= 100
  0 <= a2_x5 <= 100
  0 <= a2_x6 <= 100
  0 <= a3_x1 <= 100
  0 <= a3_x2 <= 100
  0 <= a3_x3 <= 100
  0 <= a3_x4 <= 100
  0 <= a3_x5 <= 100
  0 <= a3_x6 <= 100
  0 <= a4_x1 <= 100
  0 <= a4_x2 <= 100
  0 <= a4_x3 <= 100
  0 <= a4_x4 <= 100
  0 <= a4_x5 <= 100
  0 <= a4_x6 <= 100
  0 <= short_1 <= +inf
  0 <= surp_1 <= +inf
  0 <= short_2 <= +inf
  0 <= surp_2 <= +inf
  0 <= short_3 <= +inf
  0 <= surp_3 <= +inf
 0 <= a1_z1 <= 1
 0 <= a1_z2 <= 1
 0 <= a2_z1 <= 1
 0 <= a2_z2 <= 1
 0 <= a3_z1 <= 1
 0 <= a3_z2 <= 1
 0 <= a4_z1 <= 1
 0 <= a4_z2 <= 1

binary
  a1_z1
  a1_z2
  a2_z1
  a2_z2
  a3_z1
  a3_z2
  a4_z1
  a4_z2
end
