min
obj: 
  +9.9278906915658744 a1_x1
  +4.1029321056614965 a1_x2
  +3.3290118192963942 a1_x3
  +9.1017647242801925 a1_x4
  +1.0276781995025082 a1_x5
  +7.5015228430107515 a1_x6
  +48.476105885704612 a1_z1
  +46.462393702811802 a1_z2
  +6.9375805284658387 a2_x1
  +8.736124438174345 a2_x2
  +2.0422875685559534 a2_x3
  +7.9141637375248139 a2_x4
  +8.8510497644699591 a2_x5
  +5.3589026031734779 a2_x6
  +22.325512980558837 a2_z1
  +43.599104627831977 a2_z2
  +2.4447445858231625 a3_x1
  +8.7712175698219141 a3_x2
  +5.7628145052800139 a3_x3
  +8.5270938060320436 a3_x4
  +1.138926571582954 a3_x5
  +2.911442950069294 a3_x6
  +15.137864115812766 a3_z1
  +21.64888772902043 a3_z2
  +4.3135462509833289 a4_x1
  +3.737467766634015 a4_x2
  +6.3047039607963935 a4_x3
  +7.2324424815448989 a4_x4
  +3.5312943582825165 a4_x5
  +2.1943254476366931 a4_x6
  +13.983355852863056 a4_z1
  +25.767819676338174 a4_z2
  +1000000 short_1
  +1000000 surp_1
  +1000000 short_2
  +1000000 surp_2
  +1000000 short_3
  +1000000 surp_3

s.t.

a1_local_1: 
+1.2150186794697522 a1_x4
+1.1816463149053793 a1_x6
+0.8230326141458264 a1_x1
<= 128.37354550348243

a1_local_2: 
+1.0514811634811225 a1_x4
+0.91201026733257162 a1_x3
+1.0964788838669317 a1_x5
<= 154.3460762621153

a1_local_3: 
+0.75664890650966599 a1_x4
+0.9499144519564835 a1_x3
+1.3216169235119686 a1_x2
<= 162.94102728533699

a1_local_4: 
+1.0719248017899368 a1_x4
+1.3521675661163248 a1_x5
+0.73955331059462159 a1_x2
<= 207.25997348784546

a1_local_5: 
+1.5255472106778936 a1_x2
+0.65550249313860254 a1_x1
+1.3591827482845733 a1_x6
<= 178.36323294927729

a1_local_6: 
+0.70229148870958713 a1_x3
+1.4239101798562754 a1_x5
+1.1411645345041117 a1_x4
<= 223.83103243504118

a1_local_7: 
+0.72880026951819588 a1_x6
+0.81002640736533738 a1_x4
+1.3721180436185789 a1_x3
<= 97.55820581342779

a1_local_8: 
+1.3512753128595731 a1_x1
+0.74004164102117487 a1_x3
+1.2157268821184195 a1_x4
<= 201.19612775408683

a1_act_1: 
+0.10000000000000001 a1_x1
-10 a1_z1
<= 0

a1_act_2: 
+0.10000000000000001 a1_x2
-10 a1_z2
<= 0

a2_local_1: 
+0.76527659051235031 a2_x3
+0.73916055019772731 a2_x1
+1.3528860539601273 a2_x6
<= 171.85302778181691

a2_local_2: 
+0.3813026756641269 a2_x4
+0.68075693279386518 a2_x1
+0.60481592760766745 a2_x5
<= 58.60734399874783

a2_local_3: 
+0.60709627354040507 a2_x2
+1.4318996228979741 a2_x5
+1.6471852053518581 a2_x1
<= 190.27326391381482

a2_local_4: 
+1.0769540369010855 a2_x2
+1.0399443164295965 a2_x1
+0.92854473425577266 a2_x4
<= 169.61908749502484

a2_local_5: 
+0.47763629274461006 a2_x4
+0.64121848835429274 a2_x5
+0.65950491884133822 a2_x2
<= 68.975934691239729

a2_local_6: 
+1.067872085934868 a2_x1
+1.2364008445569172 a2_x2
+0.80879918871162304 a2_x3
<= 203.36934612121806

a2_local_7: 
+0.51088020975890436 a2_x1
+0.57675983587326018 a2_x2
+0.6838858274412688 a2_x4
<= 113.09614929843849

a2_local_8: 
+0.65568429538975681 a2_x6
+1.5251242206519107 a2_x3
+1.2665132985632828 a2_x5
<= 155.20640027269215

a2_act_1: 
+0.10000000000000001 a2_x1
-10 a2_z1
<= 0

a2_act_2: 
+0.10000000000000001 a2_x2
-10 a2_z2
<= 0

a3_local_1: 
+3.0061824249687961 a3_x4
+1.1581055774321589 a3_x6
+3.0689964829083189 a3_x3
<= 309.93819002676588

a3_local_2: 
+1.0701667257215923 a3_x6
+1.0555106601991862 a3_x4
+0.93443383723757589 a3_x3
<= 122.10131017064742

a3_local_3: 
+2.0793892970764065 a3_x2
+1.5201124465753453 a3_x1
+1.6613488606474933 a3_x4
<= 242.2738793850522

a3_local_4: 
+1.0861403804340262 a3_x5
+1.1672567539753518 a3_x3
+2.0149930556926021 a3_x2
<= 248.28885493163668

a3_local_5: 
+1.1307812498367373 a3_x1
+1.5355926626115477 a3_x2
+2.9669401685901997 a3_x5
<= 196.14948658432644

a3_local_6: 
+2.0225394535899142 a3_x6
+1.7311647581495242 a3_x4
+1.5571983119074455 a3_x2
<= 311.51097172368242

a3_local_7: 
+2.3359099451502074 a3_x2
+1.4345584942930032 a3_x3
+1.1982147806272001 a3_x5
<= 259.93230619523081

a3_local_8: 
+1.2695846040162078 a3_x5
+1.700665130994679 a3_x2
+3.0642823603825406 a3_x3
<= 343.9432060996852

a3_act_1: 
+0.10000000000000001 a3_x1
-10 a3_z1
<= 0

a3_act_2: 
+0.10000000000000001 a3_x2
-10 a3_z2
<= 0

a4_local_1: 
+0.7032452915378874 a4_x1
+1.4219789482175651 a4_x4
+1.0748393190997763 a4_x6
<= 137.38206198648376

a4_local_2: 
+1.1200986268678286 a4_x6
+1.1184610386543066 a4_x3
+0.89277852504500899 a4_x4
<= 209.44773083947234

a4_local_3: 
+0.80718506019082659 a4_x1
+1.5283503300854906 a4_x2
+0.65430024799619313 a4_x5
<= 105.25152796402332

a4_local_4: 
+1.095807914429124 a4_x4
+0.91256869642245975 a4_x5
+1.0451802288454282 a4_x1
<= 111.20350858209643

a4_local_5: 
+0.67531843618071807 a4_x4
+1.4807829113262885 a4_x6
+1.0165521025378834 a4_x2
<= 216.06201268263754

a4_local_6: 
+1.2173894089617721 a4_x6
+1.1197911925884614 a4_x2
+0.82142985033263227 a4_x3
<= 159.54991379566491

a4_local_7: 
+1.4965610970058061 a4_x6
+1.3153249634514557 a4_x3
+0.66819858006513477 a4_x4
<= 216.63157024739056

a4_local_8: 
+0.9480302323184725 a4_x2
+0.93191586716542862 a4_x4
+1.0730582397332284 a4_x3
<= 134.27362408230897

a4_act_1: 
+0.10000000000000001 a4_x1
-10 a4_z1
<= 0

a4_act_2: 
+0.10000000000000001 a4_x2
-10 a4_z2
<= 0

coupling_1: 
+0.15817354185894703 a1_x1
+0.4285396623611929 a2_x1
+3.3856659095331159 a3_x1
+6.3221698663848658 a4_x1
+1.199225830106019 short_1
-1.199225830106019 surp_1
= 457.87576573371729

coupling_2: 
+0.095193013112198216 a1_x2
+0.74016974629057286 a2_x2
+2.2490893159918901 a3_x2
+10.504972658249201 a4_x2
+1.4648122583752929 short_2
-1.4648122583752929 surp_2
= 643.2550953811193

coupling_3: 
+0.11769093313076825 a1_x3
+0.26009634857366082 a2_x3
+1.7816516582519142 a3_x3
+8.4968312630241822 a4_x3
+1.0492195621433142 short_3
-1.0492195621433142 surp_3
= 719.11541746348405

bounds
  0 <= a1_x1 <= 100
  0 <= a1_x2 <= 100
  0 <= a1_x3 <= 100
  0 <= a1_x4 <= 100
  0 <= a1_x5 <= 100
  0 <= a1_x6 <= 100
  0 <= a2_x1 <= 100
  0 <= a2_x2 <= 100
  0 <= a2_x3 <= 100
  0 <= a2_x4 <= 100
  0 <= a2_x5 <= 100
  0 <= a2_x6 <= 100
  0 <= a3_x1 <= 100
  0 <= a3_x2 <= 100
  0 <= a3_x3 <= 100
  0 <= a3_x4 <= 100
  0 <= a3_x5 <= 100
  0 <= a3_x6 <= 100
  0 <= a4_x1 <= 100
  0 <= a4_x2 <= 100
  0 <= a4_x3 <= 100
  0 <= a4_x4 <= 100
  0 <= a4_x5 <= 100
  0 <= a4_x6 <= 100
  0 <= short_1 <= +inf
  0 <= surp_1 <= +inf
  0 <= short_2 <= +inf
  0 <= surp_2 <= +inf
  0 <= short_3 <= +inf
  0 <= surp_3 <= +inf
 0 <= a1_z1 <= 1
 0 <= a1_z2 <= 1
 0 <= a2_z1 <= 1
 0 <= a2_z2 <= 1
 0 <= a3_z1 <= 1
 0 <= a3_z2 <= 1
 0 <= a4_z1 <= 1
 0 <= a4_z2 <= 1

binary
  a1_z1
  a1_z2
  a2_z1
  a2_z2
  a3_z1
  a3_z2
  a4_z1
  a4_z2
end
