min
obj: 
  +3.0571104005516858 a1_x1
  +8.0556013187453051 a1_x2
  +1.9742345173811016 a1_x3
  +4.4385591714508195 a1_x4
  +2.091774352732247 a1_x5
  +8.3606733491801819 a1_x6
  +15.666425601953888 a1_z1
  +12.324732571684713 a1_z2
  +9.2229319073823621 a2_x1
  +7.6338140335244935 a2_x2
  +9.9611693691396663 a2_x3
  +9.9407775368738864 a2_x4
  +8.2998138303753102 a2_x5
  +5.1593396215897407 a2_x6
  +11.18650581061075 a2_z1
  +36.513419228591097 a2_z2
  +6.077667458974199 a3_x1
  +8.7735643157403977 a3_x2
  +3.6647749932252576 a3_x3
  +8.9894067496513301 a3_x4
  +1.8313374509796332 a3_x5
  +5.9661400049633215 a3_x6
  +11.771775193454559 a3_z1
  +18.836022336426041 a3_z2
  +3.5739044594919878 a4_x1
  +7.8515457332568142 a4_x2
  +9.0641405667365316 a4_x3
  +3.8803458463891136 a4_x4
  +5.5605295549433134 a4_x5
  +7.2488159045117166 a4_x6
  +49.908526082373854 a4_z1
  +15.565550238545768 a4_z2
  +1000000 short_1
  +1000000 surp_1
  +1000000 short_2
  +1000000 surp_2
  +1000000 short_3
  +1000000 surp_3

s.t.

a1_local_1: 
+0.48857595054224545 a1_x5
+0.80417678527912262 a1_x1
+0.33851623088099797 a1_x6
<= 63.817730170114579

a1_local_2: 
+0.67309119458220146 a1_x6
+0.33142601855963494 a1_x4
+0.66113919714203429 a1_x1
<= 80.653422748388252

a1_local_3: 
+0.40330417868328156 a1_x3
+0.54721373165195375 a1_x1
+0.73341861944468456 a1_x2
<= 51.618405206867315

a1_local_4: 
+0.35176995555940394 a1_x4
+0.35747604295752744 a1_x5
+0.8651409001296626 a1_x2
<= 109.93866245782998

a1_local_5: 
+0.64571765334937969 a1_x4
+0.56571260956593783 a1_x1
+0.51285276203903507 a1_x2
<= 77.669573041095745

a1_local_6: 
+0.56583557274525664 a1_x4
+0.47743481647668351 a1_x2
+0.67222473967559604 a1_x6
<= 60.535702090541029

a1_local_7: 
+0.49241074600632256 a1_x3
+0.40631931242742997 a1_x5
+0.76969882003677081 a1_x6
<= 56.392093594483221

a1_local_8: 
+0.41206750505630674 a1_x4
+0.53935444834359436 a1_x6
+0.73436853849320616 a1_x3
<= 52.378034375473398

a1_act_1: 
+0.0099995000374968751 a1_x1
-0.99995000374968757 a1_z1
<= 0

a1_act_2: 
+0.0099995000374968751 a1_x2
-0.99995000374968757 a1_z2
<= 0

a2_local_1: 
+0.44028653661007133 a2_x3
+0.26797659064423018 a2_x4
+0.34218035095632082 a2_x1
<= 46.376115248398271

a2_local_2: 
+0.68928687508009412 a2_x5
+0.66975995717254755 a2_x1
+0.28384346900607854 a2_x6
<= 107.80175308567136

a2_local_3: 
+0.2389364134804535 a2_x1
+0.61303451322557734 a2_x5
+0.67357377337805568 a2_x3
<= 92.894293331365645

a2_local_4: 
+0.56087033282076082 a2_x2
+0.60820612403187646 a2_x5
+0.6321795638927119 a2_x3
<= 109.29135441874713

a2_local_5: 
+0.39821460213516391 a2_x5
+0.34356407514661369 a2_x6
+0.27228723824384471 a2_x4
<= 35.118704485643562

a2_local_6: 
+0.6139140812097067 a2_x4
+0.3581645312550133 a2_x5
+0.28479957911726389 a2_x1
<= 78.480068247685963

a2_local_7: 
+0.45707893606967953 a2_x4
+0.43239067335974063 a2_x5
+0.61975983238952714 a2_x1
<= 73.552852376689586

a2_local_8: 
+0.46377004711846187 a2_x4
+0.65595381900059357 a2_x2
+0.54071318072203889 a2_x6
<= 73.380928425897352

a2_act_1: 
+0.0099995000374968751 a2_x1
-0.99995000374968757 a2_z1
<= 0

a2_act_2: 
+0.0099995000374968751 a2_x2
-0.99995000374968757 a2_z2
<= 0

a3_local_1: 
+0.38935504944354188 a3_x3
+0.76106422488616876 a3_x1
+0.51882934677139469 a3_x2
<= 73.797714400590792

a3_local_2: 
+0.47117552203127405 a3_x1
+0.68043027825278202 a3_x3
+0.56125597001314653 a3_x2
<= 99.58319639729136

a3_local_3: 
+0.7060188498908182 a3_x4
+0.51651010903940942 a3_x5
+0.48451490261801439 a3_x1
<= 105.95534125188668

a3_local_4: 
+0.65165291567723282 a3_x4
+0.63018723906727958 a3_x5
+0.42215224884645697 a3_x2
<= 107.23872434558952

a3_local_5: 
+0.42301046648128976 a3_x6
+0.59503761023033963 a3_x3
+0.68336841283355199 a3_x2
<= 73.231018564554176

a3_local_6: 
+0.38721326104395398 a3_x3
+0.66670280261942272 a3_x4
+0.63684634210389701 a3_x5
<= 104.38079887352129

a3_local_7: 
+0.33392485473398842 a3_x6
+0.62470608810755324 a3_x2
+0.70585869327524953 a3_x3
<= 81.276940731360241

a3_local_8: 
+0.41818308283620931 a3_x5
+0.53634170675183135 a3_x3
+0.73311696394786596 a3_x4
<= 76.962588285840852

a3_act_1: 
+0.0099995000374968751 a3_x1
-0.99995000374968757 a3_z1
<= 0

a3_act_2: 
+0.0099995000374968751 a3_x2
-0.99995000374968757 a3_z2
<= 0

a4_local_1: 
+0.52496234318269286 a4_x2
+0.74472763505073414 a4_x5
+0.41206223781350942 a4_x1
<= 85.140001488987807

a4_local_2: 
+0.57980497964627653 a4_x2
+0.50540677745012974 a4_x6
+0.63905412516065963 a4_x3
<= 112.88553036798265

a4_local_3: 
+0.70498937722588939 a4_x5
+0.58937948088498149 a4_x2
+0.39448929707965752 a4_x1
<= 85.548466674539412

a4_local_4: 
+0.66500127634266981 a4_x6
+0.64697927483056983 a4_x4
+0.37308326202381459 a4_x2
<= 89.619991584943932

a4_local_5: 
+0.48611403238797785 a4_x6
+0.77820125541204055 a4_x4
+0.3976128186950515 a4_x1
<= 73.74550564647852

a4_local_6: 
+0.64146942402042184 a4_x5
+0.25791486802359692 a4_x2
+0.72249352862103799 a4_x3
<= 50.790250617853474

a4_local_7: 
+0.65410535763238409 a4_x6
+0.6105652280791708 a4_x2
+0.44649331840156475 a4_x3
<= 91.675213501022952

a4_local_8: 
+0.36932026857460587 a4_x3
+0.63509260875151219 a4_x2
+0.67842458499761038 a4_x1
<= 77.26813572286045

a4_act_1: 
+0.0099995000374968751 a4_x1
-0.99995000374968757 a4_z1
<= 0

a4_act_2: 
+0.0099995000374968751 a4_x2
-0.99995000374968757 a4_z2
<= 0

coupling_1: 
+0.0050129124934080501 a1_x1
+0.028610815096830795 a2_x1
+0.23857799816012232 a3_x1
+0.96414849798907221 a4_x1
+0.079544027390976477 short_1
-0.079544027390976477 surp_1
= 46.521548325287682

coupling_2: 
+0.015529790224010707 a1_x2
+0.037323347651459081 a2_x2
+0.32987191162299595 a3_x2
+0.92874781202205536 a4_x2
+0.11614176019443287 short_2
-0.11614176019443287 surp_2
= 102.87589416570061

coupling_3: 
+0.0058827407616365655 a1_x3
+0.038773252909956063 a2_x3
+0.25445817300275742 a3_x3
+0.9595220941043503 a4_x3
+0.080716842534916039 short_3
-0.080716842534916039 surp_3
= 42.660698300766086

bounds
  0 <= a1_x1 <= 100
  0 <= a1_x2 <= 100
  0 <= a1_x3 <= 100
  0 <= a1_x4 <= 100
  0 <= a1_x5 <= 100
  0 <= a1_x6 <= 100
  0 <= a2_x1 <= 100
  0 <= a2_x2 <= 100
  0 <= a2_x3 <= 100
  0 <= a2_x4 <= 100
  0 <= a2_x5 <= 100
  0 <= a2_x6 <= 100
  0 <= a3_x1 <= 100
  0 <= a3_x2 <= 100
  0 <= a3_x3 <= 100
  0 <= a3_x4 <= 100
  0 <= a3_x5 <= 100
  0 <= a3_x6 <= 100
  0 <= a4_x1 <= 100
  0 <= a4_x2 <= 100
  0 <= a4_x3 <= 100
  0 <= a4_x4 <= 100
  0 <= a4_x5 <= 100
  0 <= a4_x6 <= 100
  0 <= short_1 <= +inf
  0 <= surp_1 <= +inf
  0 <= short_2 <= +inf
  0 <= surp_2 <= +inf
  0 <= short_3 <= +inf
  0 <= surp_3 <= +inf
 0 <= a1_z1 <= 1
 0 <= a1_z2 <= 1
 0 <= a2_z1 <= 1
 0 <= a2_z2 <= 1
 0 <= a3_z1 <= 1
 0 <= a3_z2 <= 1
 0 <= a4_z1 <= 1
 0 <= a4_z2 <= 1

binary
  a1_z1
  a1_z2
  a2_z1
  a2_z2
  a3_z1
  a3_z2
  a4_z1
  a4_z2
end
