min
obj: 
  +7.7820756929973847 a1_x1
  +2.6204029212029933 a1_x2
  +1.0229393332967094 a1_x3
  +7.1910932224071349 a1_x4
  +4.2632745770435907 a1_x5
  +6.0246265469097295 a1_x6
  +42.771027111197313 a1_z1
  +28.114118371176183 a1_z2
  +1.0942907269569377 a2_x1
  +2.3925011221889392 a2_x2
  +1.8354708126815493 a2_x3
  +3.2680190161516656 a2_x4
  +8.5745129304172316 a2_x5
  +5.2855415708546367 a2_x6
  +40.375428510282923 a2_z1
  +37.679921062184903 a2_z2
  +8.2763747483341881 a3_x1
  +6.9098336189226917 a3_x2
  +7.224692972136415 a3_x3
  +2.7635056217757095 a3_x4
  +4.5804152664090756 a3_x5
  +5.5391766018428115 a3_x6
  +12.640130628939682 a3_z1
  +24.719908715545547 a3_z2
  +3.7933549198548668 a4_x1
  +7.8772143187643042 a4_x2
  +7.8222341244321543 a4_x3
  +1.2624357252124174 a4_x4
  +2.9341291076023293 a4_x5
  +4.8680356039416175 a4_x6
  +47.52172151037577 a4_z1
  +34.587285029007681 a4_z2
  +1000000 short_1
  +1000000 surp_1
  +1000000 short_2
  +1000000 surp_2
  +1000000 short_3
  +1000000 surp_3

s.t.

a1_local_1: 
+0.50830128584377543 a1_x4
+0.78099407126304776 a1_x6
+0.36287472144189675 a1_x3
<= 82.58653613673934

a1_local_2: 
+0.3903966645294667 a1_x6
+0.75384461784374823 a1_x2
+0.52849667593304728 a1_x4
<= 111.15549727338853

a1_local_3: 
+0.62639781087864554 a1_x2
+0.6281340354460031 a1_x5
+0.4615987608743764 a1_x4
<= 113.60454828368596

a1_local_4: 
+0.70345461954399757 a1_x2
+0.38261364980276913 a1_x1
+0.59896443402493738 a1_x3
<= 97.354532773179784

a1_local_5: 
+0.79739452556466106 a1_x3
+0.30467483961233111 a1_x2
+0.52089846679243512 a1_x6
<= 70.87230696319412

a1_local_6: 
+0.57704193843430318 a1_x4
+0.67079760420600565 a1_x5
+0.46588966019806116 a1_x2
<= 62.899236496578531

a1_local_7: 
+0.43601959552897118 a1_x1
+0.79355433946322196 a1_x5
+0.42445073051396875 a1_x3
<= 109.08425859757106

a1_local_8: 
+0.52337360990039961 a1_x1
+0.5970759107765411 a1_x5
+0.6079312635735955 a1_x4
<= 55.188637544292874

a1_act_1: 
+0.0099995000374968751 a1_x1
-0.99995000374968757 a1_z1
<= 0

a1_act_2: 
+0.0099995000374968751 a1_x2
-0.99995000374968757 a1_z2
<= 0

a2_local_1: 
+0.36895158926387844 a2_x2
+0.42604651335373184 a2_x3
+0.34181990557675468 a2_x4
<= 79.240467772696675

a2_local_2: 
+0.29120345298346606 a2_x1
+0.50707755247316377 a2_x4
+0.25260518017109557 a2_x5
<= 64.827254036206284

a2_local_3: 
+0.40291535306523185 a2_x5
+0.40082642051304895 a2_x2
+0.61416864583252806 a2_x6
<= 47.708724051100162

a2_local_4: 
+0.23894902557216491 a2_x5
+0.33131833870032146 a2_x4
+0.49775957163541323 a2_x6
<= 48.456908556941698

a2_local_5: 
+0.39269259062802003 a2_x1
+0.49939095828780122 a2_x3
+0.33780380892741874 a2_x2
<= 82.82899977239326

a2_local_6: 
+0.65271866371194209 a2_x5
+0.55969707700688853 a2_x6
+0.51058547573549484 a2_x1
<= 51.881462030414582

a2_local_7: 
+0.68646956292704464 a2_x5
+0.5749411295992285 a2_x6
+0.57722434682487278 a2_x3
<= 104.96995319922827

a2_local_8: 
+0.55644931175132029 a2_x5
+0.62297550105928134 a2_x2
+0.54978694830945118 a2_x4
<= 61.785271340046847

a2_act_1: 
+0.0099995000374968751 a2_x1
-0.99995000374968757 a2_z1
<= 0

a2_act_2: 
+0.0099995000374968751 a2_x2
-0.99995000374968757 a2_z2
<= 0

a3_local_1: 
+0.65465585444098084 a3_x1
+0.64792105361424934 a3_x5
+0.38938929174997883 a3_x3
<= 94.779827955862089

a3_local_2: 
+0.60569249579577089 a3_x1
+0.59543971388029249 a3_x3
+0.5278145011941654 a3_x5
<= 101.57211566822713

a3_local_3: 
+0.721538857307648 a3_x5
+0.61870520967028309 a3_x2
+0.31078214382751268 a3_x4
<= 78.866979619823823

a3_local_4: 
+0.7474031725064878 a3_x6
+0.53417170670805181 a3_x3
+0.39503048677265906 a3_x4
<= 103.57844690850574

a3_local_5: 
+0.53324428707979954 a3_x2
+0.62379898786634991 a3_x4
+0.57142396960022046 a3_x1
<= 93.962988182120114

a3_local_6: 
+0.36973940424554808 a3_x6
+0.30643624498288274 a3_x4
+0.87714856250747952 a3_x5
<= 81.147215596963477

a3_local_7: 
+0.35353124402877606 a3_x6
+0.84635515733245292 a3_x5
+0.3983699375608365 a3_x3
<= 84.746799952446153

a3_local_8: 
+0.66594347090824579 a3_x4
+0.67769820192539976 a3_x6
+0.31184040896227466 a3_x2
<= 101.01230261613425

a3_act_1: 
+0.0099995000374968751 a3_x1
-0.99995000374968757 a3_z1
<= 0

a3_act_2: 
+0.0099995000374968751 a3_x2
-0.99995000374968757 a3_z2
<= 0

a4_local_1: 
+0.33817599434806372 a4_x2
+0.75191735880741373 a4_x3
+0.56591278689457214 a4_x4
<= 91.252896206021347

a4_local_2: 
+0.57959863448861615 a4_x4
+0.41581070377661744 a4_x6
+0.70083299117815923 a4_x1
<= 64.514147107241882

a4_local_3: 
+0.67875539047922617 a4_x3
+0.40662264837098572 a4_x2
+0.61151381155878981 a4_x5
<= 109.83730651320782

a4_local_4: 
+0.56066381900763096 a4_x2
+0.6795993704778367 a4_x1
+0.47307586886450526 a4_x5
<= 66.195134038379578

a4_local_5: 
+0.56383581487734236 a4_x6
+0.76066913785552082 a4_x2
+0.32167007410659421 a4_x3
<= 105.46345412432956

a4_local_6: 
+0.38801516538316294 a4_x5
+0.77377718471345081 a4_x6
+0.50071259206215579 a4_x2
<= 67.00690617368231

a4_local_7: 
+0.6086309010442561 a4_x6
+0.62699660985340733 a4_x5
+0.48625474550526621 a4_x3
<= 80.750101866247832

a4_local_8: 
+0.49529887827268865 a4_x5
+0.63976000449694514 a4_x6
+0.58769563366413169 a4_x4
<= 55.854883547189274

a4_act_1: 
+0.0099995000374968751 a4_x1
-0.99995000374968757 a4_z1
<= 0

a4_act_2: 
+0.0099995000374968751 a4_x2
-0.99995000374968757 a4_z2
<= 0

coupling_1: 
+0.0052307853036268085 a1_x1
+0.024371096999023598 a2_x1
+0.20266393132429011 a3_x1
+0.97377113594760389 a4_x1
+0.070978145409935231 short_1
-0.070978145409935231 surp_1
= 78.240068285182261

coupling_2: 
+0.0041880004012229089 a1_x2
+0.043558409138850097 a2_x2
+0.12280704977896896 a3_x2
+0.98444455110223872 a4_x2
+0.083284092045328523 short_2
-0.083284092045328523 surp_2
= 80.827314444521463

coupling_3: 
+0.01492709477587993 a1_x3
+0.070250199948693776 a2_x3
+0.33950151108297644 a3_x3
+0.92200144623322777 a4_x3
+0.12143753201735526 short_3
-0.12143753201735526 surp_3
= 68.976214792865605

bounds
  0 <= a1_x1 <= 100
  0 <= a1_x2 <= 100
  0 <= a1_x3 <= 100
  0 <= a1_x4 <= 100
  0 <= a1_x5 <= 100
  0 <= a1_x6 <= 100
  0 <= a2_x1 <= 100
  0 <= a2_x2 <= 100
  0 <= a2_x3 <= 100
  0 <= a2_x4 <= 100
  0 <= a2_x5 <= 100
  0 <= a2_x6 <= 100
  0 <= a3_x1 <= 100
  0 <= a3_x2 <= 100
  0 <= a3_x3 <= 100
  0 <= a3_x4 <= 100
  0 <= a3_x5 <= 100
  0 <= a3_x6 <= 100
  0 <= a4_x1 <= 100
  0 <= a4_x2 <= 100
  0 <= a4_x3 <= 100
  0 <= a4_x4 <= 100
  0 <= a4_x5 <= 100
  0 <= a4_x6 <= 100
  0 <= short_1 <= +inf
  0 <= surp_1 <= +inf
  0 <= short_2 <= +inf
  0 <= surp_2 <= +inf
  0 <= short_3 <= +inf
  0 <= surp_3 <= +inf
 0 <= a1_z1 <= 1
 0 <= a1_z2 <= 1
 0 <= a2_z1 <= 1
 0 <= a2_z2 <= 1
 0 <= a3_z1 <= 1
 0 <= a3_z2 <= 1
 0 <= a4_z1 <= 1
 0 <= a4_z2 <= 1

binary
  a1_z1
  a1_z2
  a2_z1
  a2_z2
  a3_z1
  a3_z2
  a4_z1
  a4_z2
end
