min
obj: 
  +3.043052453503527 a1_x1
  +8.5242104678500681 a1_x2
  +7.6930756521091874 a1_x3
  +6.9189962156082423 a1_x4
  +9.2097073421305335 a1_x5
  +1.6783613276554563 a1_x6
  +29.957301038510835 a1_z1
  +31.080729858907144 a1_z2
  +8.695776775262491 a2_x1
  +6.9077742042221582 a2_x2
  +5.0875445936298673 a2_x3
  +7.5917023578038236 a2_x4
  +8.2794490372741638 a2_x5
  +1.0351287904006585 a2_x6
  +28.928861886453006 a2_z1
  +23.934213589769115 a2_z2
  +5.1403805558345264 a3_x1
  +3.338751629164217 a3_x2
  +6.1106898664601106 a3_x3
  +6.5508211726549801 a3_x4
  +5.1951326468311683 a3_x5
  +3.9370151452755238 a3_x6
  +16.85304582879688 a3_z1
  +38.539597563502319 a3_z2
  +1.4163415069349607 a4_x1
  +8.5438219758017482 a4_x2
  +7.1495610706401269 a4_x3
  +5.5659057933768521 a4_x4
  +2.526471255000704 a4_x5
  +2.3501129539553487 a4_x6
  +43.904023055410626 a4_z1
  +7.4539102618189466 a4_z2
  +1000000 short_1
  +1000000 surp_1
  +1000000 short_2
  +1000000 surp_2
  +1000000 short_3
  +1000000 surp_3

s.t.

a1_local_1: 
+0.32057420966845834 a1_x4
+0.39881655547319073 a1_x3
+0.85917258520971374 a1_x1
<= 98.060632019235285

a1_local_2: 
+0.44020292127886679 a1_x6
+0.76696171523614198 a1_x4
+0.4668951868027631 a1_x2
<= 74.836805004755632

a1_local_3: 
+0.81574044103210464 a1_x3
+0.48179282396386125 a1_x1
+0.32006750481995982 a1_x4
<= 67.94473741562723

a1_local_4: 
+0.64260247416647343 a1_x3
+0.36048964248785254 a1_x1
+0.67609857110787241 a1_x2
<= 83.32081883976754

a1_local_5: 
+0.3701180977001175 a1_x3
+0.6363425943164378 a1_x2
+0.67681658993664717 a1_x4
<= 66.484282117220658

a1_local_6: 
+0.39889648326338084 a1_x3
+0.75200527944347917 a1_x5
+0.52475675825018409 a1_x4
<= 58.21750904981667

a1_local_7: 
+0.68680950089366721 a1_x5
+0.57869639946617268 a1_x6
+0.43977629168371418 a1_x1
<= 75.345730114436847

a1_local_8: 
+0.63546041559223032 a1_x2
+0.51496752828059766 a1_x3
+0.57532469530859021 a1_x6
<= 86.098527282309306

a1_act_1: 
+0.0099995000374968751 a1_x1
-0.99995000374968757 a1_z1
<= 0

a1_act_2: 
+0.0099995000374968751 a1_x2
-0.99995000374968757 a1_z2
<= 0

a2_local_1: 
+0.24026449497753916 a2_x6
+0.2945042390359015 a2_x3
+0.33278404550840773 a2_x1
<= 29.32101885387651

a2_local_2: 
+0.32430602841509387 a2_x4
+0.40380059267734619 a2_x1
+0.61929698947330036 a2_x5
<= 70.795357540623158

a2_local_3: 
+0.40249111583787184 a2_x6
+0.47796984006598681 a2_x5
+0.64586124938231404 a2_x3
<= 93.621030339727895

a2_local_4: 
+0.38560099038809897 a2_x4
+0.60129482230625231 a2_x3
+0.40957543212242459 a2_x6
<= 68.299738591350007

a2_local_5: 
+0.57172464644889898 a2_x6
+0.51949070718464119 a2_x2
+0.38900374194358983 a2_x5
<= 84.410789649329715

a2_local_6: 
+0.44799715800580298 a2_x2
+0.38103395351105929 a2_x1
+0.47180071158067677 a2_x4
<= 54.000738992284127

a2_local_7: 
+0.38064717660259567 a2_x6
+0.66515308649609706 a2_x2
+0.63256764105431829 a2_x5
<= 76.503236746947607

a2_local_8: 
+0.65693477383290733 a2_x2
+0.3411979747605165 a2_x4
+0.47486991345575968 a2_x5
<= 64.093358192450566

a2_act_1: 
+0.0099995000374968751 a2_x1
-0.99995000374968757 a2_z1
<= 0

a2_act_2: 
+0.0099995000374968751 a2_x2
-0.99995000374968757 a2_z2
<= 0

a3_local_1: 
+0.43916412540896549 a3_x6
+0.67204660813131256 a3_x5
+0.596228334996733 a3_x2
<= 113.89811782152447

a3_local_2: 
+0.76425937996545013 a3_x4
+0.35930134111975726 a3_x3
+0.53554658658642362 a3_x1
<= 71.417708978819817

a3_local_3: 
+0.55605910967858829 a3_x2
+0.53905068947928647 a3_x4
+0.63263150468132834 a3_x3
<= 93.475562299258925

a3_local_4: 
+0.50218270487831196 a3_x5
+0.64335141499858828 a3_x2
+0.57785074867167607 a3_x1
<= 114.45244424013075

a3_local_5: 
+0.60492717680726626 a3_x6
+0.7097580138962275 a3_x2
+0.36098015523027449 a3_x3
<= 116.53785360552823

a3_local_6: 
+0.6646913406111149 a3_x1
+0.69315613126423536 a3_x4
+0.27878306872440656 a3_x3
<= 92.59431201939239

a3_local_7: 
+0.6580352043409412 a3_x2
+0.56043963372902361 a3_x6
+0.50288874196352173 a3_x5
<= 120.30235159497799

a3_local_8: 
+0.58872131469057198 a3_x2
+0.46340501164364856 a3_x3
+0.66231639630357508 a3_x4
<= 78.105449569679806

a3_act_1: 
+0.0099995000374968751 a3_x1
-0.99995000374968757 a3_z1
<= 0

a3_act_2: 
+0.0099995000374968751 a3_x2
-0.99995000374968757 a3_z2
<= 0

a4_local_1: 
+0.51602702371966702 a4_x4
+0.42875634124771345 a4_x5
+0.74154171199663244 a4_x6
<= 62.213505269642646

a4_local_2: 
+0.5774745961366714 a4_x3
+0.67175147683171188 a4_x1
+0.46397526247764792 a4_x2
<= 113.62231781999404

a4_local_3: 
+0.38039709920775339 a4_x4
+0.48483302235681563 a4_x6
+0.78754999037945661 a4_x2
<= 51.235526999622749

a4_local_4: 
+0.65355168662442209 a4_x2
+0.59376740934225092 a4_x3
+0.46937240706433203 a4_x1
<= 101.87652858896055

a4_local_5: 
+0.42022637349550407 a4_x4
+0.76044650119543955 a4_x5
+0.49510697211656313 a4_x2
<= 115.09185861552946

a4_local_6: 
+0.75499499136017845 a4_x6
+0.31340401870487733 a4_x5
+0.57598653116255849 a4_x3
<= 112.9200426844295

a4_local_7: 
+0.27999188131792924 a4_x4
+0.65744062282580895 a4_x3
+0.69955441093202964 a4_x5
<= 107.46880002059514

a4_local_8: 
+0.55105963022109283 a4_x1
+0.32422238895329442 a4_x6
+0.76890384733203865 a4_x4
<= 90.824733720910203

a4_act_1: 
+0.0099995000374968751 a4_x1
-0.99995000374968757 a4_z1
<= 0

a4_act_2: 
+0.0099995000374968751 a4_x2
-0.99995000374968757 a4_z2
<= 0

coupling_1: 
+0.011378776037805833 a1_x1
+0.0206268480996111 a2_x1
+0.092558042569106477 a3_x1
+0.98909139353710795 a4_x1
+0.079297794988114734 short_1
-0.079297794988114734 surp_1
= 22.47392699706522

coupling_2: 
+0.0059374213006582344 a1_x2
+0.033485842778894527 a2_x2
+0.22525761284617349 a3_x2
+0.96725027479473158 a4_x2
+0.079149728761522167 short_2
-0.079149728761522167 surp_2
= 40.920999205326197

coupling_3: 
+0.010479274943032134 a1_x3
+0.070931176748074365 a2_x3
+0.37212902812995885 a3_x3
+0.89669799364374692 a4_x3
+0.16172762222349812 short_3
-0.16172762222349812 surp_3
= 28.13853478449435

bounds
  0 <= a1_x1 <= 100
  0 <= a1_x2 <= 100
  0 <= a1_x3 <= 100
  0 <= a1_x4 <= 100
  0 <= a1_x5 <= 100
  0 <= a1_x6 <= 100
  0 <= a2_x1 <= 100
  0 <= a2_x2 <= 100
  0 <= a2_x3 <= 100
  0 <= a2_x4 <= 100
  0 <= a2_x5 <= 100
  0 <= a2_x6 <= 100
  0 <= a3_x1 <= 100
  0 <= a3_x2 <= 100
  0 <= a3_x3 <= 100
  0 <= a3_x4 <= 100
  0 <= a3_x5 <= 100
  0 <= a3_x6 <= 100
  0 <= a4_x1 <= 100
  0 <= a4_x2 <= 100
  0 <= a4_x3 <= 100
  0 <= a4_x4 <= 100
  0 <= a4_x5 <= 100
  0 <= a4_x6 <= 100
  0 <= short_1 <= +inf
  0 <= surp_1 <= +inf
  0 <= short_2 <= +inf
  0 <= surp_2 <= +inf
  0 <= short_3 <= +inf
  0 <= surp_3 <= +inf
 0 <= a1_z1 <= 1
 0 <= a1_z2 <= 1
 0 <= a2_z1 <= 1
 0 <= a2_z2 <= 1
 0 <= a3_z1 <= 1
 0 <= a3_z2 <= 1
 0 <= a4_z1 <= 1
 0 <= a4_z2 <= 1

binary
  a1_z1
  a1_z2
  a2_z1
  a2_z2
  a3_z1
  a3_z2
  a4_z1
  a4_z2
end
