min
obj: 
  +4.6820518769511636 a1_x1
  +5.7129162548306427 a1_x2
  +9.0056358908477314 a1_x3
  +9.0172471176233611 a1_x4
  +9.406385688684578 a1_x5
  +5.7753562095118767 a1_x6
  +36.440798325108226 a1_z1
  +20.355895911925103 a1_z2
  +7.5922132430360731 a2_x1
  +9.5705581106952309 a2_x2
  +1.2604999258751248 a2_x3
  +5.3940318901522675 a2_x4
  +5.1816392623674004 a2_x5
  +3.5951202349319828 a2_x6
  +41.62149658815251 a2_z1
  +8.2240572055779673 a2_z2
  +7.862026295743088 a3_x1
  +4.4443242856945142 a3_x2
  +6.878356128261002 a3_x3
  +6.0922718983064614 a3_x4
  +7.9699820931728009 a3_x5
  +3.3886243612057902 a3_x6
  +44.384252789712569 a3_z1
  +46.436857763791892 a3_z2
  +5.3272595951622712 a4_x1
  +2.1426688948262615 a4_x2
  +3.7175386403807593 a4_x3
  +7.4752828100284079 a4_x4
  +1.4623010448148774 a4_x5
  +9.334818787187654 a4_x6
  +27.5499217848452 a4_z1
  +29.024926983261683 a4_z2
  +1000000 short_1
  +1000000 surp_1
  +1000000 short_2
  +1000000 surp_2
  +1000000 short_3
  +1000000 surp_3

s.t.

a1_local_1: 
+1.362394545421445 a1_x4
+1.1147100401026737 a1_x2
+0.73400176429116448 a1_x6
<= 140.8764437183722

a1_local_2: 
+1.3467348846124501 a1_x5
+1.4953012733070599 a1_x4
+0.66876155183655095 a1_x1
<= 185.47096455479564

a1_local_3: 
+1.4330482335106731 a1_x6
+1.1328895676478425 a1_x2
+0.69781321843592514 a1_x1
<= 172.46219117441262

a1_local_4: 
+1.2295591084724917 a1_x5
+0.81329965603875842 a1_x2
+0.99768634333942341 a1_x6
<= 110.16495393604798

a1_local_5: 
+1.4047267356973552 a1_x6
+1.3644525977358506 a1_x2
+0.71188222918215149 a1_x1
<= 185.46426185141632

a1_local_6: 
+1.2219337977674274 a1_x5
+0.83449512309744422 a1_x4
+0.81837494128330135 a1_x2
<= 115.6471358510021

a1_local_7: 
+1.3052020581294264 a1_x1
+0.76616489666984444 a1_x4
+1.1053809777020955 a1_x3
<= 206.11978677914007

a1_local_8: 
+0.88331928695941897 a1_x5
+1.1320934737451753 a1_x6
+1.0831506654063452 a1_x4
<= 117.36880800237243

a1_act_1: 
+0.10000000000000001 a1_x1
-10 a1_z1
<= 0

a1_act_2: 
+0.10000000000000001 a1_x2
-10 a1_z2
<= 0

a2_local_1: 
+0.71738022542854685 a2_x3
+0.96650822179958484 a2_x4
+1.3939609213546726 a2_x5
<= 175.48056789954654

a2_local_2: 
+0.75297574241402365 a2_x3
+1.0803006250785947 a2_x2
+1.3280640313777197 a2_x5
<= 199.67082859374094

a2_local_3: 
+1.4637838707851338 a2_x4
+1.5341162717158956 a2_x6
+0.65184107517581358 a2_x5
<= 248.61562947084457

a2_local_4: 
+0.42255881376663601 a2_x1
+0.49578885918991755 a2_x4
+0.62453989901379936 a2_x5
<= 107.13806446876518

a2_local_5: 
+0.80313275925127958 a2_x2
+1.2451241572218392 a2_x5
+0.86467405063951819 a2_x1
<= 96.148905727096576

a2_local_6: 
+1.2722247474885473 a2_x5
+0.9541718260742662 a2_x4
+0.78602464067301314 a2_x3
<= 201.96397044768588

a2_local_7: 
+0.93868271683434545 a2_x3
+1.065322693244469 a2_x5
+0.95343191214686251 a2_x6
<= 95.087048747937629

a2_local_8: 
+1.2617309616240644 a2_x2
+0.79256198858180371 a2_x6
+1.0987982756840557 a2_x4
<= 198.06489820075328

a2_act_1: 
+0.10000000000000001 a2_x1
-10 a2_z1
<= 0

a2_act_2: 
+0.10000000000000001 a2_x2
-10 a2_z2
<= 0

a3_local_1: 
+0.82649462397420292 a3_x2
+1.209929225179343 a3_x6
+0.96103044778089963 a3_x5
<= 204.85287211885014

a3_local_2: 
+0.8012735515680145 a3_x4
+1.2480132384790406 a3_x5
+0.91993314476980059 a3_x3
<= 144.11344346285196

a3_local_3: 
+1.873135227481185 a3_x4
+2.080595401812972 a3_x5
+1.7094951008076016 a3_x1
<= 319.88729818161971

a3_local_4: 
+1.4537893726584799 a3_x3
+0.68785755268752902 a3_x4
+1.4368132129548044 a3_x5
<= 145.95395188053894

a3_local_5: 
+1.7887476652276182 a3_x5
+1.5470686367818622 a3_x3
+2.5240677842550991 a3_x2
<= 295.56724889390847

a3_local_6: 
+1.427090241879986 a3_x1
+1.9495150529372376 a3_x3
+2.1918398446987744 a3_x5
<= 298.91662604855543

a3_local_7: 
+1.1650654479032094 a3_x6
+2.3681113776681495 a3_x4
+2.0328206590617306 a3_x1
<= 381.92035441695481

a3_local_8: 
+1.0924727581138489 a3_x4
+0.91535463248209226 a3_x3
+1.0300723123503677 a3_x5
<= 98.839578007343292

a3_act_1: 
+0.10000000000000001 a3_x1
-10 a3_z1
<= 0

a3_act_2: 
+0.10000000000000001 a3_x2
-10 a3_z2
<= 0

a4_local_1: 
+0.7835900686782663 a4_x1
+1.2160581330374509 a4_x4
+1.2761774810224009 a4_x6
<= 112.08483752172417

a4_local_2: 
+1.1734836830357429 a4_x3
+0.93833273239640747 a4_x5
+0.85216353193173555 a4_x2
<= 134.44717167629722

a4_local_3: 
+1.1622859835192203 a4_x5
+0.79717754452400935 a4_x1
+1.2544257008607722 a4_x3
<= 181.42595913746112

a4_local_4: 
+1.3583610685933274 a4_x3
+1.1380527167455263 a4_x1
+0.73618128722988674 a4_x5
<= 167.55118976815916

a4_local_5: 
+0.89143083019680402 a4_x6
+0.91455986686477886 a4_x4
+1.12179202931452 a4_x2
<= 153.57211145863789

a4_local_6: 
+1.3238509402629128 a4_x1
+0.97307570182124925 a4_x4
+0.7553720510266837 a4_x5
<= 125.69807457766224

a4_local_7: 
+1.3825046113227295 a4_x2
+1.1551206145270552 a4_x5
+0.72332489295875602 a4_x4
<= 128.15956426980591

a4_local_8: 
+1.0603434445624413 a4_x5
+0.80895181388735826 a4_x6
+1.23616757244733 a4_x2
<= 179.83674765656602

a4_act_1: 
+0.10000000000000001 a4_x1
-10 a4_z1
<= 0

a4_act_2: 
+0.10000000000000001 a4_x2
-10 a4_z2
<= 0

coupling_1: 
+0.096246536565688892 a1_x1
+0.59293851792536556 a2_x1
+1.2240520551331313 a3_x1
+10.389984260030943 a4_x1
+0.97863927045052734 short_1
-0.97863927045052734 surp_1
= 301.27886422187777

coupling_2: 
+0.096263517913382876 a1_x2
+0.4455341329129428 a2_x2
+1.953395284732008 a3_x2
+10.388151416820149 a4_x2
+0.7086801568341391 short_2
-0.7086801568341391 surp_2
= 991.49426726455727

coupling_3: 
+0.099769373211002502 a1_x3
+0.43788977952086 a2_x3
+2.4385233186270381 a3_x3
+10.02311599056654 a4_x3
+1.5620474570612675 short_3
-1.5620474570612675 surp_3
= 503.43900082042745

bounds
  0 <= a1_x1 <= 100
  0 <= a1_x2 <= 100
  0 <= a1_x3 <= 100
  0 <= a1_x4 <= 100
  0 <= a1_x5 <= 100
  0 <= a1_x6 <= 100
  0 <= a2_x1 <= 100
  0 <= a2_x2 <= 100
  0 <= a2_x3 <= 100
  0 <= a2_x4 <= 100
  0 <= a2_x5 <= 100
  0 <= a2_x6 <= 100
  0 <= a3_x1 <= 100
  0 <= a3_x2 <= 100
  0 <= a3_x3 <= 100
  0 <= a3_x4 <= 100
  0 <= a3_x5 <= 100
  0 <= a3_x6 <= 100
  0 <= a4_x1 <= 100
  0 <= a4_x2 <= 100
  0 <= a4_x3 <= 100
  0 <= a4_x4 <= 100
  0 <= a4_x5 <= 100
  0 <= a4_x6 <= 100
  0 <= short_1 <= +inf
  0 <= surp_1 <= +inf
  0 <= short_2 <= +inf
  0 <= surp_2 <= +inf
  0 <= short_3 <= +inf
  0 <= surp_3 <= +inf
 0 <= a1_z1 <= 1
 0 <= a1_z2 <= 1
 0 <= a2_z1 <= 1
 0 <= a2_z2 <= 1
 0 <= a3_z1 <= 1
 0 <= a3_z2 <= 1
 0 <= a4_z1 <= 1
 0 <= a4_z2 <= 1

binary
  a1_z1
  a1_z2
  a2_z1
  a2_z2
  a3_z1
  a3_z2
  a4_z1
  a4_z2
end
