min
obj: 
  +1.5869078218103445 a1_x1
  +1.8591431952918778 a1_x2
  +3.3231109040519993 a1_x3
  +9.2087059181463786 a1_x4
  +9.6203246603591985 a1_x5
  +2.6522167369866532 a1_x6
  +45.971215901918207 a1_z1
  +15.231591264695247 a1_z2
  +9.6966969925339086 a2_x1
  +9.5099240901526567 a2_x2
  +7.5753998333245365 a2_x3
  +7.2545869758953661 a2_x4
  +4.0776176539598987 a2_x5
  +7.0823179577413251 a2_x6
  +41.740356324700421 a2_z1
  +13.295788449057502 a2_z2
  +8.20725746769123 a3_x1
  +8.7650426689296079 a3_x2
  +7.7797720123238729 a3_x3
  +6.0483854765360672 a3_x4
  +6.4868155236610479 a3_x5
  +7.5914186799784584 a3_x6
  +13.335393596501099 a3_z1
  +17.076428731733131 a3_z2
  +4.0749166189662294 a4_x1
  +3.9578684115063361 a4_x2
  +4.7726522238702849 a4_x3
  +6.6226528859876028 a4_x4
  +9.5073045520096944 a4_x5
  +5.1085987408368467 a4_x6
  +30.995431749404506 a4_z1
  +14.100841079092167 a4_z2
  +1000000 short_1
  +1000000 surp_1
  +1000000 short_2
  +1000000 surp_2
  +1000000 short_3
  +1000000 surp_3

s.t.

a1_local_1: 
+0.53246830785528032 a1_x4
+0.69012198110526712 a1_x1
+0.4901113672677625 a1_x3
<= 75.931814365354413

a1_local_2: 
+0.68323481545607501 a1_x3
+0.60389170852950547 a1_x5
+0.41049359473445879 a1_x2
<= 84.219465282752452

a1_local_3: 
+0.50958828296615233 a1_x1
+0.73980277515074655 a1_x2
+0.43933089550231103 a1_x5
<= 105.8945993200079

a1_local_4: 
+0.45062289360061847 a1_x3
+0.63146466142478874 a1_x5
+0.63102407967896335 a1_x6
<= 112.6789850057483

a1_local_5: 
+0.53247556794846995 a1_x4
+0.6057008827722048 a1_x5
+0.59126661511278178 a1_x6
<= 93.251725521306767

a1_local_6: 
+0.53883637614146029 a1_x4
+0.56651283452979528 a1_x6
+0.62347298903782145 a1_x1
<= 112.35369030863208

a1_local_7: 
+0.62936826550831781 a1_x5
+0.54691841509895278 a1_x2
+0.5520650628292838 a1_x4
<= 62.794793516606347

a1_local_8: 
+0.58622759388607082 a1_x2
+0.47341285231839836 a1_x6
+0.65743249039449403 a1_x3
<= 62.937929107792947

a1_act_1: 
+0.0099995000374968751 a1_x1
-0.99995000374968757 a1_z1
<= 0

a1_act_2: 
+0.0099995000374968751 a1_x2
-0.99995000374968757 a1_z2
<= 0

a2_local_1: 
+0.2879492240492586 a2_x5
+0.51140652514905904 a2_x3
+0.62428331511328938 a2_x6
<= 46.43521770430737

a2_local_2: 
+0.6032488459139066 a2_x5
+0.51995823675303232 a2_x1
+0.47969357296189841 a2_x4
<= 98.91467548444102

a2_local_3: 
+0.62289672442239286 a2_x6
+0.37318171882349138 a2_x1
+0.50512066611548001 a2_x3
<= 81.788260141463326

a2_local_4: 
+0.28299181123901129 a2_x4
+0.66876191396897688 a2_x2
+0.54579570241004216 a2_x5
<= 68.531676212445149

a2_local_5: 
+0.50756335340291669 a2_x5
+0.63772816619695083 a2_x3
+0.56737692429587161 a2_x1
<= 93.620666540820096

a2_local_6: 
+0.58817597891522488 a2_x6
+0.24483118808278814 a2_x2
+0.68910359429491985 a2_x1
<= 76.882779143808094

a2_local_7: 
+0.55093367411952043 a2_x2
+0.48717608762904308 a2_x1
+0.52877324142735838 a2_x3
<= 50.424914967933553

a2_local_8: 
+0.41715187926631236 a2_x6
+0.34788775042305126 a2_x3
+0.34647969473880214 a2_x5
<= 53.102313559643399

a2_act_1: 
+0.0099995000374968751 a2_x1
-0.99995000374968757 a2_z1
<= 0

a2_act_2: 
+0.0099995000374968751 a2_x2
-0.99995000374968757 a2_z2
<= 0

a3_local_1: 
+0.70503740847773999 a3_x2
+0.60476653688604631 a3_x3
+0.37037776459967331 a3_x1
<= 56.197030555299683

a3_local_2: 
+0.49574343623345007 a3_x6
+0.80971240511796694 a3_x2
+0.31401316282845304 a3_x3
<= 78.972640593996573

a3_local_3: 
+0.69477170374508634 a3_x4
+0.5386882900824892 a3_x2
+0.47655766262138111 a3_x3
<= 59.190489731768615

a3_local_4: 
+0.58951766107536552 a3_x4
+0.65721552065197231 a3_x1
+0.4696133374323897 a3_x3
<= 96.602387510134022

a3_local_5: 
+0.53447684292787678 a3_x3
+0.53741971666554778 a3_x4
+0.65231476490492857 a3_x6
<= 57.841595876608118

a3_local_6: 
+0.67314669660253013 a3_x3
+0.45454329667832333 a3_x4
+0.58332145194386853 a3_x5
<= 109.18886243920754

a3_local_7: 
+0.46365429726410096 a3_x5
+0.59152824592302933 a3_x6
+0.65963552580478635 a3_x2
<= 86.025905751169987

a3_local_8: 
+0.55179200407085471 a3_x4
+0.62769603711190181 a3_x6
+0.54911134502711179 a3_x5
<= 58.144802456674114

a3_act_1: 
+0.0099995000374968751 a3_x1
-0.99995000374968757 a3_z1
<= 0

a3_act_2: 
+0.0099995000374968751 a3_x2
-0.99995000374968757 a3_z2
<= 0

a4_local_1: 
+0.68273213045907311 a4_x4
+0.32570646856175339 a4_x6
+0.65405820411936333 a4_x5
<= 66.898944369983809

a4_local_2: 
+0.44104166329832906 a4_x5
+0.66064954687021404 a4_x4
+0.60747380804049844 a4_x2
<= 54.052014173447489

a4_local_3: 
+0.601163321723993 a4_x4
+0.72855972185531837 a4_x2
+0.32833426915854536 a4_x1
<= 73.264685613368627

a4_local_4: 
+0.6203397902695782 a4_x6
+0.70332783652929676 a4_x1
+0.34714334066969321 a4_x5
<= 111.98715338350438

a4_local_5: 
+0.53199719226271058 a4_x3
+0.29003253091656633 a4_x6
+0.79552505833237186 a4_x1
<= 94.954731567267444

a4_local_6: 
+0.69856826325990218 a4_x5
+0.49896348130808549 a4_x2
+0.51287213405190923 a4_x1
<= 91.341146817584701

a4_local_7: 
+0.82597002230669159 a4_x2
+0.39562557118909619 a4_x4
+0.40156435308924626 a4_x1
<= 101.75096161790388

a4_local_8: 
+0.75775525407884992 a4_x6
+0.38714041844742525 a4_x5
+0.52528970227889493 a4_x4
<= 64.625519327184008

a4_act_1: 
+0.0099995000374968751 a4_x1
-0.99995000374968757 a4_z1
<= 0

a4_act_2: 
+0.0099995000374968751 a4_x2
-0.99995000374968757 a4_z2
<= 0

coupling_1: 
+0.013708410999804502 a1_x1
+0.029405558584441438 a2_x1
+0.17764477676633794 a3_x1
+0.97365764019045731 a4_x1
+0.098439132408268584 short_1
-0.098439132408268584 surp_1
= 69.238519918887548

coupling_2: 
+0.0091376645251948635 a1_x2
+0.039354801136512504 a2_x2
+0.21620983454489093 a3_x2
+0.96585140995110641 a4_x2
+0.096829912878358029 short_2
-0.096829912878358029 surp_2
= 54.509269457333382

coupling_3: 
+0.010567217415448448 a1_x3
+0.030596274473267841 a2_x3
+0.23368419812532643 a3_x3
+0.96634805412012448 a4_x3
+0.072509777786251228 short_3
-0.072509777786251228 surp_3
= 54.584616965808642

bounds
  0 <= a1_x1 <= 100
  0 <= a1_x2 <= 100
  0 <= a1_x3 <= 100
  0 <= a1_x4 <= 100
  0 <= a1_x5 <= 100
  0 <= a1_x6 <= 100
  0 <= a2_x1 <= 100
  0 <= a2_x2 <= 100
  0 <= a2_x3 <= 100
  0 <= a2_x4 <= 100
  0 <= a2_x5 <= 100
  0 <= a2_x6 <= 100
  0 <= a3_x1 <= 100
  0 <= a3_x2 <= 100
  0 <= a3_x3 <= 100
  0 <= a3_x4 <= 100
  0 <= a3_x5 <= 100
  0 <= a3_x6 <= 100
  0 <= a4_x1 <= 100
  0 <= a4_x2 <= 100
  0 <= a4_x3 <= 100
  0 <= a4_x4 <= 100
  0 <= a4_x5 <= 100
  0 <= a4_x6 <= 100
  0 <= short_1 <= +inf
  0 <= surp_1 <= +inf
  0 <= short_2 <= +inf
  0 <= surp_2 <= +inf
  0 <= short_3 <= +inf
  0 <= surp_3 <= +inf
 0 <= a1_z1 <= 1
 0 <= a1_z2 <= 1
 0 <= a2_z1 <= 1
 0 <= a2_z2 <= 1
 0 <= a3_z1 <= 1
 0 <= a3_z2 <= 1
 0 <= a4_z1 <= 1
 0 <= a4_z2 <= 1

binary
  a1_z1
  a1_z2
  a2_z1
  a2_z2
  a3_z1
  a3_z2
  a4_z1
  a4_z2
end
