min
obj: 
  +2.370294118728955 a1_x1
  +4.0871141162290519 a1_x2
  +7.6613663727576089 a1_x3
  +4.8999168943267346 a1_x4
  +9.1856075433138287 a1_x5
  +7.8055232956727103 a1_x6
  +17.430873114549655 a1_z1
  +23.402378726140935 a1_z2
  +7.1371158046195609 a2_x1
  +9.867310978744726 a2_x2
  +9.2615292817302226 a2_x3
  +3.5007890513184758 a2_x4
  +7.1637373168446201 a2_x5
  +7.9245284991421201 a2_x6
  +12.291053398517668 a2_z1
  +33.658905491272137 a2_z2
  +4.0731411682260328 a3_x1
  +2.6732854397558619 a3_x2
  +9.8971817318039896 a3_x3
  +5.2211213282041085 a3_x4
  +8.0114291145185241 a3_x5
  +2.5829750625381869 a3_x6
  +49.512564365484344 a3_z1
  +27.0926152551414 a3_z2
  +6.6365056560112565 a4_x1
  +8.2046274155609638 a4_x2
  +7.1214056561276049 a4_x3
  +6.2664722965402984 a4_x4
  +7.507966634456313 a4_x5
  +5.5736057519875928 a4_x6
  +9.0405418509815796 a4_z1
  +27.561079601884479 a4_z2
  +1000000 short_1
  +1000000 surp_1
  +1000000 short_2
  +1000000 surp_2
  +1000000 short_3
  +1000000 surp_3

s.t.

a1_local_1: 
+0.13165649039376712 a1_x3
+0.094617666374969475 a1_x2
+0.052600100211459166 a1_x1
<= 19.506841261227876

a1_local_2: 
+0.11184374746816522 a1_x2
+0.13536689756057896 a1_x1
+0.080495281021142479 a1_x5
<= 13.656955610811268

a1_local_3: 
+0.050525508031605881 a1_x4
+0.098919809361693645 a1_x1
+0.12946813061984647 a1_x2
<= 19.496998386005703

a1_local_4: 
+0.083718510275228586 a1_x2
+0.14474765578933677 a1_x5
+0.057702725861034004 a1_x1
<= 11.435869620561883

a1_local_5: 
+0.0623024576618533 a1_x6
+0.10746080283071419 a1_x2
+0.11548177741338389 a1_x5
<= 12.403982398674803

a1_local_6: 
+0.13582696462030638 a1_x1
+0.09243102718792183 a1_x6
+0.11549181048212116 a1_x5
<= 12.358367908750395

a1_local_7: 
+0.1219067942332943 a1_x5
+0.12579723798032078 a1_x4
+0.12472186077572289 a1_x1
<= 14.611922388532058

a1_local_8: 
+0.14226835532643789 a1_x6
+0.10805879833041243 a1_x5
+0.1252387394653014 a1_x2
<= 26.139631715449269

a1_act_1: 
+1 a1_x1
-100 a1_z1
<= 0

a1_act_2: 
+1 a1_x2
-100 a1_z2
<= 0

a2_local_1: 
+0.60985066598053461 a2_x6
+0.63676979229140496 a2_x1
+0.67530625543603739 a2_x3
<= 130.50725156673516

a2_local_2: 
+0.5555978414804591 a2_x5
+0.50357863186560414 a2_x4
+0.35955563751158837 a2_x2
<= 61.318182072467856

a2_local_3: 
+0.62574011307514898 a2_x1
+0.31125431327357905 a2_x6
+0.61889551639039064 a2_x3
<= 84.83758391850651

a2_local_4: 
+0.24485312310460663 a2_x6
+0.57897019630146507 a2_x2
+0.6397930308376103 a2_x1
<= 93.486975180572074

a2_local_5: 
+0.56302103162346795 a2_x1
+0.35863055138360755 a2_x6
+0.59322906296440114 a2_x2
<= 58.715866490458815

a2_local_6: 
+0.53503371603710126 a2_x2
+0.46658843108408976 a2_x3
+0.53671075354728992 a2_x5
<= 83.606819909815428

a2_local_7: 
+0.32317965245299313 a2_x1
+0.64497908506506463 a2_x4
+0.62322398699758264 a2_x3
<= 76.702486868668288

a2_local_8: 
+0.26993552749676358 a2_x1
+0.23590559571345707 a2_x5
+0.47902267806306648 a2_x3
<= 55.637553044920999

a2_act_1: 
+1 a2_x1
-100 a2_z1
<= 0

a2_act_2: 
+1 a2_x2
-100 a2_z2
<= 0

a3_local_1: 
+1.6763874277378319 a3_x2
+1.3643683667583864 a3_x1
+1.8676084454259916 a3_x5
<= 328.12452010247773

a3_local_2: 
+2.6372436084152158 a3_x6
+2.7172563539139465 a3_x5
+2.1776599902127582 a3_x3
<= 321.80848330495735

a3_local_3: 
+1.7920371967166298 a3_x5
+1.9549667562380943 a3_x1
+2.3001750719807785 a3_x4
<= 274.33915868919797

a3_local_4: 
+1.6039414231461964 a3_x5
+2.4949303619836569 a3_x2
+1.981785058129478 a3_x6
<= 237.77252651138497

a3_local_5: 
+3.2221165873253357 a3_x5
+1.8790189247990881 a3_x1
+2.5252166840888854 a3_x6
<= 442.63754704416186

a3_local_6: 
+1.8939576489926808 a3_x2
+2.6811309724105477 a3_x3
+2.1725552992840935 a3_x1
<= 462.75291900124824

a3_local_7: 
+2.6974727865652746 a3_x4
+1.4281326172775348 a3_x3
+3.1129894530838906 a3_x6
<= 306.83705273651492

a3_local_8: 
+1.7312505579004307 a3_x5
+1.7815377844963955 a3_x6
+1.8771059107346533 a3_x4
<= 282.98374729003535

a3_act_1: 
+1 a3_x1
-100 a3_z1
<= 0

a3_act_2: 
+1 a3_x2
-100 a3_z2
<= 0

a4_local_1: 
+9.8089186016257628 a4_x2
+14.180083872888765 a4_x3
+6.6140910047170927 a4_x1
<= 1198.2249706196369

a4_local_2: 
+9.2965329186269692 a4_x2
+11.86378350859548 a4_x1
+10.739476495699037 a4_x6
<= 1166.6156056183379

a4_local_3: 
+7.722199737767605 a4_x5
+5.0120137467573924 a4_x3
+10.036271652007171 a4_x2
<= 1224.7098202240143

a4_local_4: 
+13.312279907713648 a4_x2
+10.246754041028119 a4_x3
+12.983287565988826 a4_x4
<= 1570.8387129624195

a4_local_5: 
+7.5805903955648706 a4_x1
+5.429091819898435 a4_x3
+5.9012186490742922 a4_x2
<= 754.96751215838697

a4_local_6: 
+5.4657744812032352 a4_x2
+8.2682086774620505 a4_x6
+14.741064643450255 a4_x3
<= 1516.2054108457037

a4_local_7: 
+14.226332100497306 a4_x4
+11.392564358033276 a4_x2
+5.1199038198756526 a4_x5
<= 1299.5905099313736

a4_local_8: 
+13.370298958141117 a4_x5
+13.106179207900944 a4_x2
+6.1395194443455203 a4_x4
<= 1749.2891792952405

a4_act_1: 
+1 a4_x1
-100 a4_z1
<= 0

a4_act_2: 
+1 a4_x2
-100 a4_z2
<= 0

coupling_1: 
+9.8546078304585834 a1_x1
+24.862305915465654 a2_x1
+159.50745776172465 a3_x1
+865.60207228898037 a4_x1
+69.658749673692057 short_1
-69.658749673692057 surp_1
= 71336.006389272006

coupling_2: 
+11.277844287351439 a1_x2
+41.819982653503601 a2_x2
+255.90750782201951 a3_x2
+970.48496881643621 a4_x2
+79.911680497730785 short_2
-79.911680497730785 surp_2
= 83868.700554906784

coupling_3: 
+164.08760953072652 a1_x3
+566.73093915030097 a2_x3
+3309.4729151660122 a3_x3
+19363.755282521437 a4_x3
+1515.670845320858 short_3
-1515.670845320858 surp_3
= 1708839.7132237013

bounds
  0 <= a1_x1 <= 100
  0 <= a1_x2 <= 100
  0 <= a1_x3 <= 100
  0 <= a1_x4 <= 100
  0 <= a1_x5 <= 100
  0 <= a1_x6 <= 100
  0 <= a2_x1 <= 100
  0 <= a2_x2 <= 100
  0 <= a2_x3 <= 100
  0 <= a2_x4 <= 100
  0 <= a2_x5 <= 100
  0 <= a2_x6 <= 100
  0 <= a3_x1 <= 100
  0 <= a3_x2 <= 100
  0 <= a3_x3 <= 100
  0 <= a3_x4 <= 100
  0 <= a3_x5 <= 100
  0 <= a3_x6 <= 100
  0 <= a4_x1 <= 100
  0 <= a4_x2 <= 100
  0 <= a4_x3 <= 100
  0 <= a4_x4 <= 100
  0 <= a4_x5 <= 100
  0 <= a4_x6 <= 100
  0 <= short_1 <= +inf
  0 <= surp_1 <= +inf
  0 <= short_2 <= +inf
  0 <= surp_2 <= +inf
  0 <= short_3 <= +inf
  0 <= surp_3 <= +inf
 0 <= a1_z1 <= 1
 0 <= a1_z2 <= 1
 0 <= a2_z1 <= 1
 0 <= a2_z2 <= 1
 0 <= a3_z1 <= 1
 0 <= a3_z2 <= 1
 0 <= a4_z1 <= 1
 0 <= a4_z2 <= 1

binary
  a1_z1
  a1_z2
  a2_z1
  a2_z2
  a3_z1
  a3_z2
  a4_z1
  a4_z2
end
