min
obj: 
  +2.8670230128866887 a1_x1
  +4.6121734767481746 a1_x2
  +8.3726653944305163 a1_x3
  +3.8874111784256438 a1_x4
  +3.5735214707131471 a1_x5
  +7.9063268225890937 a1_x6
  +32.521673256282952 a1_z1
  +46.9551209495583 a1_z2
  +6.1895710982011405 a2_x1
  +7.6567171580139357 a2_x2
  +8.2043744709301158 a2_x3
  +3.6188691473828523 a2_x4
  +5.2859257046209569 a2_x5
  +3.3947769180807601 a2_x6
  +12.605481383042026 a2_z1
  +31.130882329794158 a2_z2
  +1.0038469274140069 a3_x1
  +6.9874663911383514 a3_x2
  +2.0892016241128126 a3_x3
  +9.3610808006140438 a3_x4
  +4.8509819599704116 a3_x5
  +1.7243146015797635 a3_x6
  +35.019467218819287 a3_z1
  +33.012677472845496 a3_z2
  +2.5033216672460403 a4_x1
  +6.4216192335644386 a4_x2
  +2.3877334915960096 a4_x3
  +7.475862409648836 a4_x4
  +7.4106096914751971 a4_x5
  +8.5860247699785965 a4_x6
  +17.162878658753439 a4_z1
  +23.317265071624306 a4_z2
  +1000000 short_1
  +1000000 surp_1
  +1000000 short_2
  +1000000 surp_2
  +1000000 short_3
  +1000000 surp_3

s.t.

a1_local_1: 
+0.073514418900838638 a1_x3
+0.12906075671666126 a1_x1
+0.11467248542671236 a1_x2
<= 19.079447617879087

a1_local_2: 
+0.073593099284625638 a1_x6
+0.10554806069745443 a1_x4
+0.079273265620465119 a1_x3
<= 10.121332376029322

a1_local_3: 
+0.10894601873436649 a1_x5
+0.14722491353981429 a1_x6
+0.14175620560284771 a1_x4
<= 14.596635645669712

a1_local_4: 
+0.1290768417036508 a1_x3
+0.1488898757558407 a1_x6
+0.076569309833190977 a1_x4
<= 11.950861320420286

a1_local_5: 
+0.11600272033728763 a1_x4
+0.092224108861290621 a1_x5
+0.059949888588088557 a1_x2
<= 9.820469002496413

a1_local_6: 
+0.13554193383096022 a1_x5
+0.13144594820566921 a1_x4
+0.11225350297812919 a1_x2
<= 18.44796618865659

a1_local_7: 
+0.077147845633171369 a1_x2
+0.098248048786009415 a1_x3
+0.050034323992626355 a1_x6
<= 14.026289386932866

a1_local_8: 
+0.1490946175735853 a1_x2
+0.14330935271795203 a1_x5
+0.084067474227746353 a1_x1
<= 19.657573516711299

a1_act_1: 
+1 a1_x1
-100 a1_z1
<= 0

a1_act_2: 
+1 a1_x2
-100 a1_z2
<= 0

a2_local_1: 
+0.63988352588496811 a2_x4
+0.53762771409426813 a2_x3
+0.63805236758035289 a2_x1
<= 97.833039363380507

a2_local_2: 
+0.43438668290792909 a2_x6
+0.25654329375471274 a2_x2
+0.51304202949093014 a2_x5
<= 47.084218033821507

a2_local_3: 
+0.66540499150489674 a2_x6
+0.55237007187951215 a2_x4
+0.40854450639927925 a2_x5
<= 97.843652416807359

a2_local_4: 
+0.69308902132071393 a2_x3
+0.43374738377742261 a2_x4
+0.50261180441065423 a2_x1
<= 106.01916186529681

a2_local_5: 
+0.36956895117403649 a2_x5
+0.35902910665669163 a2_x4
+0.50031562820236541 a2_x3
<= 82.767890575537081

a2_local_6: 
+0.33937885670187712 a2_x6
+0.6659469865753288 a2_x4
+0.60656319352996069 a2_x3
<= 90.307614047381875

a2_local_7: 
+0.31442704344611638 a2_x6
+0.32994533333758369 a2_x3
+0.36454916372252538 a2_x5
<= 37.601475203326125

a2_local_8: 
+0.2384429695329385 a2_x5
+0.39023415239372405 a2_x3
+0.31807388865787833 a2_x4
<= 39.841712010904047

a2_act_1: 
+1 a2_x1
-100 a2_z1
<= 0

a2_act_2: 
+1 a2_x2
-100 a2_z2
<= 0

a3_local_1: 
+2.0848139143656588 a3_x4
+2.4039093192320662 a3_x2
+2.1205400935321292 a3_x6
<= 219.49100142496042

a3_local_2: 
+1.7183218729568717 a3_x4
+2.9878810027129661 a3_x6
+1.1884563004313804 a3_x3
<= 220.10765259673701

a3_local_3: 
+1.7834629822441519 a3_x4
+1.4874688841039212 a3_x2
+1.5630070320813967 a3_x3
<= 151.80730764133057

a3_local_4: 
+1.6992291059808562 a3_x2
+2.2133635211261615 a3_x4
+1.1391071383338554 a3_x3
<= 261.92467191306253

a3_local_5: 
+1.8089600665273875 a3_x4
+2.2201744845555105 a3_x6
+1.9213909201098502 a3_x1
<= 224.24464675017916

a3_local_6: 
+2.1084320316722964 a3_x3
+2.4507895485694067 a3_x4
+2.5664736680905693 a3_x1
<= 243.36353518706406

a3_local_7: 
+2.6332714695491748 a3_x4
+2.1285376690595892 a3_x1
+3.1164459054007305 a3_x6
<= 459.13353091124088

a3_local_8: 
+2.2250708128550247 a3_x2
+2.1873076653858194 a3_x3
+2.2020125125634804 a3_x1
<= 256.42222131099442

a3_act_1: 
+1 a3_x1
-100 a3_z1
<= 0

a3_act_2: 
+1 a3_x2
-100 a3_z2
<= 0

a4_local_1: 
+11.776413034405611 a4_x1
+14.657794852031413 a4_x4
+12.994366992459977 a4_x5
<= 1239.4821911535669

a4_local_2: 
+5.6442982571877298 a4_x6
+6.621578191334371 a4_x2
+6.1318597815332652 a4_x3
<= 717.34054572748005

a4_local_3: 
+13.858583500901766 a4_x1
+13.506309721080566 a4_x4
+13.785670775857755 a4_x5
<= 2013.6425652687087

a4_local_4: 
+5.6816998098916223 a4_x2
+11.265438555262685 a4_x6
+10.616597028209291 a4_x5
<= 962.61546965275772

a4_local_5: 
+5.8069692442736267 a4_x2
+5.0581920929920008 a4_x5
+9.2679728276381965 a4_x1
<= 1090.093718493956

a4_local_6: 
+9.3054395096373099 a4_x5
+13.149184448795239 a4_x6
+10.843883221419119 a4_x4
<= 2318.5381140359495

a4_local_7: 
+7.5185613369095483 a4_x1
+12.074929441352026 a4_x5
+14.927256867998519 a4_x2
<= 1160.3517556289294

a4_local_8: 
+9.9559283898788227 a4_x1
+9.2289612476474918 a4_x6
+10.438199234269863 a4_x5
<= 1464.6264773951996

a4_act_1: 
+1 a4_x1
-100 a4_z1
<= 0

a4_act_2: 
+1 a4_x2
-100 a4_z2
<= 0

coupling_1: 
+0.00096104831661338573 a1_x1
+0.0075327546826569015 a2_x1
+0.037297548532723823 a3_x1
+0.15885414589605584 a4_x1
+0.014646077907122034 short_1
-0.014646077907122034 surp_1
= 12.160452414575897

coupling_2: 
+1.109446415186314e-06 a1_x2
+5.9315040851665209e-06 a2_x2
+2.8450467420961471e-05 a3_x2
+0.00019417581887777013 a4_x2
+1.6098432741434152e-05 short_2
-1.6098432741434152e-05 surp_2
= 0.0091495929938346342

coupling_3: 
+79347.764367074153 a1_x3
+289396.57666047459 a2_x3
+1472981.1079188541 a3_x3
+4791087.6787319975 a4_x3
+856600.08900491858 short_3
-856600.08900491858 surp_3
= 293709198.95713365

bounds
  0 <= a1_x1 <= 100
  0 <= a1_x2 <= 100
  0 <= a1_x3 <= 100
  0 <= a1_x4 <= 100
  0 <= a1_x5 <= 100
  0 <= a1_x6 <= 100
  0 <= a2_x1 <= 100
  0 <= a2_x2 <= 100
  0 <= a2_x3 <= 100
  0 <= a2_x4 <= 100
  0 <= a2_x5 <= 100
  0 <= a2_x6 <= 100
  0 <= a3_x1 <= 100
  0 <= a3_x2 <= 100
  0 <= a3_x3 <= 100
  0 <= a3_x4 <= 100
  0 <= a3_x5 <= 100
  0 <= a3_x6 <= 100
  0 <= a4_x1 <= 100
  0 <= a4_x2 <= 100
  0 <= a4_x3 <= 100
  0 <= a4_x4 <= 100
  0 <= a4_x5 <= 100
  0 <= a4_x6 <= 100
  0 <= short_1 <= +inf
  0 <= surp_1 <= +inf
  0 <= short_2 <= +inf
  0 <= surp_2 <= +inf
  0 <= short_3 <= +inf
  0 <= surp_3 <= +inf
 0 <= a1_z1 <= 1
 0 <= a1_z2 <= 1
 0 <= a2_z1 <= 1
 0 <= a2_z2 <= 1
 0 <= a3_z1 <= 1
 0 <= a3_z2 <= 1
 0 <= a4_z1 <= 1
 0 <= a4_z2 <= 1

binary
  a1_z1
  a1_z2
  a2_z1
  a2_z2
  a3_z1
  a3_z2
  a4_z1
  a4_z2
end
