min
obj: 
  +2.8670230128866887 a1_x1
  +4.6121734767481746 a1_x2
  +8.3726653944305163 a1_x3
  +3.8874111784256438 a1_x4
  +3.5735214707131471 a1_x5
  +7.9063268225890937 a1_x6
  +32.521673256282952 a1_z1
  +46.9551209495583 a1_z2
  +6.1895710982011405 a2_x1
  +7.6567171580139357 a2_x2
  +8.2043744709301158 a2_x3
  +3.6188691473828523 a2_x4
  +5.2859257046209569 a2_x5
  +3.3947769180807601 a2_x6
  +12.605481383042026 a2_z1
  +31.130882329794158 a2_z2
  +1.0038469274140069 a3_x1
  +6.9874663911383514 a3_x2
  +2.0892016241128126 a3_x3
  +9.3610808006140438 a3_x4
  +4.8509819599704116 a3_x5
  +1.7243146015797635 a3_x6
  +35.019467218819287 a3_z1
  +33.012677472845496 a3_z2
  +2.5033216672460403 a4_x1
  +6.4216192335644386 a4_x2
  +2.3877334915960096 a4_x3
  +7.475862409648836 a4_x4
  +7.4106096914751971 a4_x5
  +8.5860247699785965 a4_x6
  +17.162878658753439 a4_z1
  +23.317265071624306 a4_z2
  +1000000 short_1
  +1000000 surp_1
  +1000000 short_2
  +1000000 surp_2
  +1000000 short_3
  +1000000 surp_3

s.t.

a1_local_1: 
+0.75472573801036946 a1_x3
+1.3249846263839233 a1_x1
+1.1772694049299155 a1_x2
<= 195.87654231011965

a1_local_2: 
+0.83501334719060138 a1_x6
+1.1975856474204818 a1_x4
+0.89946252450197961 a1_x3
<= 114.84021881794075

a1_local_3: 
+0.86023087927746555 a1_x5
+1.1624786136948846 a1_x6
+1.1192980414098284 a1_x4
<= 115.25411264988588

a1_local_4: 
+1.2088944405769926 a1_x3
+1.394457291360454 a1_x6
+0.71712486728394864 a1_x4
<= 111.92813226351255

a1_local_5: 
+1.3910408911842473 a1_x4
+1.1059008461704698 a1_x5
+0.71888612788992923 a1_x2
<= 117.76166897948887

a1_local_6: 
+1.0988461415938029 a1_x5
+1.0656397539234903 a1_x4
+0.91004551242230036 a1_x2
<= 149.55870772759963

a1_local_7: 
+1.1003423225542699 a1_x2
+1.4012897612417592 a1_x3
+0.71362827850383004 a1_x6
<= 200.05380207532272

a1_local_8: 
+1.3317324523348846 a1_x2
+1.2800577166604272 a1_x5
+0.75090157805100533 a1_x1
<= 175.58399499863111

a1_act_1: 
+0.10000000000000001 a1_x1
-10 a1_z1
<= 0

a1_act_2: 
+0.10000000000000001 a1_x2
-10 a1_z2
<= 0

a2_local_1: 
+0.63988352588496811 a2_x4
+0.53762771409426813 a2_x3
+0.63805236758035289 a2_x1
<= 97.833039363380507

a2_local_2: 
+1.1973460805676299 a2_x6
+0.70713748685113864 a2_x2
+1.4141521537105453 a2_x5
<= 129.78322342201537

a2_local_3: 
+0.66540499150489674 a2_x6
+0.55237007187951215 a2_x4
+0.40854450639927925 a2_x5
<= 97.843652416807359

a2_local_4: 
+0.69308902132071393 a2_x3
+0.43374738377742261 a2_x4
+0.50261180441065423 a2_x1
<= 106.01916186529681

a2_local_5: 
+0.87198419583563425 a2_x5
+0.84711582467920143 a2_x4
+1.1804761177477647 a2_x3
<= 195.28775963253005

a2_local_6: 
+0.71387563931575104 a2_x6
+1.4008042086412957 a2_x4
+1.2758917623055606 a2_x3
<= 189.95999438405278

a2_local_7: 
+0.92871378714409636 a2_x6
+0.97454969749439158 a2_x3
+1.076757999980938 a2_x5
<= 111.06235664576441

a2_local_8: 
+0.78168112142113433 a2_x5
+1.2792940402372148 a2_x3
+1.0427330043233893 a2_x4
<= 130.61200414097001

a2_act_1: 
+0.10000000000000001 a2_x1
-10 a2_z1
<= 0

a2_act_2: 
+0.10000000000000001 a2_x2
-10 a2_z2
<= 0

a3_local_1: 
+0.93126784523215722 a3_x4
+1.0738049263911915 a3_x2
+0.94722641192316093 a3_x6
<= 98.04467944903611

a3_local_2: 
+1.7183218729568717 a3_x4
+2.9878810027129661 a3_x6
+1.1884563004313804 a3_x3
<= 220.10765259673701

a3_local_3: 
+1.7834629822441519 a3_x4
+1.4874688841039212 a3_x2
+1.5630070320813967 a3_x3
<= 151.80730764133057

a3_local_4: 
+1.6992291059808562 a3_x2
+2.2133635211261615 a3_x4
+1.1391071383338554 a3_x3
<= 261.92467191306253

a3_local_5: 
+0.90265322112945079 a3_x4
+1.1078451575775061 a3_x6
+0.95875510752176007 a3_x1
<= 111.89586572723854

a3_local_6: 
+0.90638225907679659 a3_x3
+1.0535564505687587 a3_x4
+1.103287260960468 a3_x1
<= 104.61821272218765

a3_local_7: 
+1.0224101848897673 a3_x4
+0.82643913357730203 a3_x1
+1.2100104646199741 a3_x6
<= 178.26601003975495

a3_local_8: 
+1.008595395148393 a3_x2
+0.99147785604639971 a3_x3
+0.99814337026916711 a3_x1
<= 116.23282734815236

a3_act_1: 
+0.10000000000000001 a3_x1
-10 a3_z1
<= 0

a3_act_2: 
+0.10000000000000001 a3_x2
-10 a3_z2
<= 0

a4_local_1: 
+0.89633879767285585 a4_x1
+1.1156495764729557 a4_x4
+0.98904099682245017 a4_x5
<= 94.340778784648009

a4_local_2: 
+0.92326042774078854 a4_x6
+1.0831180130258511 a4_x2
+1.0030128151955038 a4_x3
<= 117.33826047210886

a4_local_3: 
+1.0129571380879034 a4_x1
+0.98720860182459258 a4_x4
+1.0076277719744067 a4_x5
<= 147.18196920441775

a4_local_4: 
+0.71017452675661275 a4_x2
+1.4081045747543612 a4_x6
+1.3270037176459017 a4_x5
<= 120.32050415952578

a4_local_5: 
+0.848124269171461 a4_x2
+0.73876325011160293 a4_x5
+1.3536136236459149 a4_x1
<= 159.2112682941777

a4_local_6: 
+0.84123829877085554 a4_x5
+1.1887238151913833 a4_x6
+0.98031800258427526 a4_x4
<= 209.6024649525674

a4_local_7: 
+0.70970419192545464 a4_x1
+1.1397962532622108 a4_x5
+1.4090377531615836 a4_x2
<= 109.52979807921717

a4_local_8: 
+1.0143610439847404 a4_x1
+0.94029390323611639 a4_x6
+1.0634972709685759 a4_x5
<= 149.22365694881921

a4_act_1: 
+0.10000000000000001 a4_x1
-10 a4_z1
<= 0

a4_act_2: 
+0.10000000000000001 a4_x2
-10 a4_z2
<= 0

coupling_1: 
+0.0058366145908847721 a1_x1
+0.045747737268070771 a2_x1
+0.2265145385587336 a3_x1
+0.9647490243015987 a4_x1
+0.088948193898488667 short_1
-0.088948193898488667 surp_1
= 73.852555347876532

coupling_2: 
+0.0056129795575276713 a1_x2
+0.030009030377407139 a2_x2
+0.14393835506615793 a3_x2
+0.98238624868068736 a4_x2
+0.081446181310820195 short_2
-0.081446181310820195 surp_2
= 46.290183762924407

coupling_3: 
+0.015361279463054227 a1_x3
+0.056025544326204546 a2_x3
+0.28516083122223312 a3_x3
+0.92752754097174805 a4_x3
+0.1658329438799144 short_3
-0.1658329438799144 surp_3
= 56.860443668939759

bounds
  0 <= a1_x1 <= 100
  0 <= a1_x2 <= 100
  0 <= a1_x3 <= 100
  0 <= a1_x4 <= 100
  0 <= a1_x5 <= 100
  0 <= a1_x6 <= 100
  0 <= a2_x1 <= 100
  0 <= a2_x2 <= 100
  0 <= a2_x3 <= 100
  0 <= a2_x4 <= 100
  0 <= a2_x5 <= 100
  0 <= a2_x6 <= 100
  0 <= a3_x1 <= 100
  0 <= a3_x2 <= 100
  0 <= a3_x3 <= 100
  0 <= a3_x4 <= 100
  0 <= a3_x5 <= 100
  0 <= a3_x6 <= 100
  0 <= a4_x1 <= 100
  0 <= a4_x2 <= 100
  0 <= a4_x3 <= 100
  0 <= a4_x4 <= 100
  0 <= a4_x5 <= 100
  0 <= a4_x6 <= 100
  0 <= short_1 <= +inf
  0 <= surp_1 <= +inf
  0 <= short_2 <= +inf
  0 <= surp_2 <= +inf
  0 <= short_3 <= +inf
  0 <= surp_3 <= +inf
 0 <= a1_z1 <= 1
 0 <= a1_z2 <= 1
 0 <= a2_z1 <= 1
 0 <= a2_z2 <= 1
 0 <= a3_z1 <= 1
 0 <= a3_z2 <= 1
 0 <= a4_z1 <= 1
 0 <= a4_z2 <= 1

binary
  a1_z1
  a1_z2
  a2_z1
  a2_z2
  a3_z1
  a3_z2
  a4_z1
  a4_z2
end
