min
obj: 
  +9.9278906915658744 a1_x1
  +4.1029321056614965 a1_x2
  +3.3290118192963942 a1_x3
  +9.1017647242801925 a1_x4
  +1.0276781995025082 a1_x5
  +7.5015228430107515 a1_x6
  +48.476105885704612 a1_z1
  +46.462393702811802 a1_z2
  +6.9375805284658387 a2_x1
  +8.736124438174345 a2_x2
  +2.0422875685559534 a2_x3
  +7.9141637375248139 a2_x4
  +8.8510497644699591 a2_x5
  +5.3589026031734779 a2_x6
  +22.325512980558837 a2_z1
  +43.599104627831977 a2_z2
  +2.4447445858231625 a3_x1
  +8.7712175698219141 a3_x2
  +5.7628145052800139 a3_x3
  +8.5270938060320436 a3_x4
  +1.138926571582954 a3_x5
  +2.911442950069294 a3_x6
  +15.137864115812766 a3_z1
  +21.64888772902043 a3_z2
  +4.3135462509833289 a4_x1
  +3.737467766634015 a4_x2
  +6.3047039607963935 a4_x3
  +7.2324424815448989 a4_x4
  +3.5312943582825165 a4_x5
  +2.1943254476366931 a4_x6
  +13.983355852863056 a4_z1
  +25.767819676338174 a4_z2
  +1000000 short_1
  +1000000 surp_1
  +1000000 short_2
  +1000000 surp_2
  +1000000 short_3
  +1000000 surp_3

s.t.

a1_local_1: 
+0.11134504074834206 a1_x4
+0.10828677723760305 a1_x6
+0.075423202546379381 a1_x1
<= 11.764228728839255

a1_local_2: 
+0.072981777699219028 a1_x4
+0.063301305721456258 a1_x3
+0.076105004001529961 a1_x5
<= 10.712936586724352

a1_local_3: 
+0.077521577989207405 a1_x4
+0.097322373212838348 a1_x3
+0.1354047148240749 a1_x2
<= 16.693932213038174

a1_local_4: 
+0.089624177448794917 a1_x4
+0.11305541739845237 a1_x5
+0.061834428152885715 a1_x2
<= 17.329111716502105

a1_local_5: 
+0.13077237350602036 a1_x2
+0.056190733572091513 a1_x1
+0.11651134280048088 a1_x6
<= 15.289584718010463

a1_local_6: 
+0.059182175107169055 a1_x3
+0.11999305552737832 a1_x5
+0.096166051266273089 a1_x4
<= 18.862263844787797

a1_local_7: 
+0.066232905162996833 a1_x6
+0.073614684931468652 a1_x4
+0.12469721548745545 a1_x3
<= 8.8660277222243309

a1_local_8: 
+0.14141426269262422 a1_x1
+0.077447165674464441 a1_x3
+0.12722878826710685 a1_x4
<= 21.055666297007232

a1_act_1: 
+1 a1_x1
-100 a1_z1
<= 0

a1_act_2: 
+1 a1_x2
-100 a1_z2
<= 0

a2_local_1: 
+0.37638435500179446 a2_x3
+0.36353975853708448 a2_x1
+0.66538706543969173 a2_x6
<= 84.522108501267084

a2_local_2: 
+0.3813026756641269 a2_x4
+0.68075693279386518 a2_x1
+0.60481592760766745 a2_x5
<= 58.60734399874783

a2_local_3: 
+0.24068378150122088 a2_x2
+0.56767769955076086 a2_x5
+0.65302783320504876 a2_x1
<= 75.43398085824164

a2_local_4: 
+0.46623041508531538 a2_x2
+0.45020832245519266 a2_x1
+0.40198168356660757 a2_x4
<= 73.4307824285181

a2_local_5: 
+0.47763629274461006 a2_x4
+0.64121848835429274 a2_x5
+0.65950491884133822 a2_x2
<= 68.975934691239729

a2_local_6: 
+0.49459263848049295 a2_x1
+0.57264794537031583 a2_x2
+0.37460116245623287 a2_x3
<= 94.191975620459047

a2_local_7: 
+0.51088020975890436 a2_x1
+0.57675983587326018 a2_x2
+0.6838858274412688 a2_x4
<= 113.09614929843849

a2_local_8: 
+0.29516976511677206 a2_x6
+0.6865660214053636 a2_x3
+0.5701469983080405 a2_x5
<= 69.869351813403114

a2_act_1: 
+1 a2_x1
-100 a2_z1
<= 0

a2_act_2: 
+1 a2_x2
-100 a2_z2
<= 0

a3_local_1: 
+3.0061824249687961 a3_x4
+1.1581055774321589 a3_x6
+3.0689964829083189 a3_x3
<= 309.93819002676588

a3_local_2: 
+2.6606017896657739 a3_x6
+2.6241645194524996 a3_x4
+2.3231486084583546 a3_x3
<= 303.56294636381222

a3_local_3: 
+2.0793892970764065 a3_x2
+1.5201124465753453 a3_x1
+1.6613488606474933 a3_x4
<= 242.2738793850522

a3_local_4: 
+1.0861403804340262 a3_x5
+1.1672567539753518 a3_x3
+2.0149930556926021 a3_x2
<= 248.28885493163668

a3_local_5: 
+1.1307812498367373 a3_x1
+1.5355926626115477 a3_x2
+2.9669401685901997 a3_x5
<= 196.14948658432644

a3_local_6: 
+2.0225394535899142 a3_x6
+1.7311647581495242 a3_x4
+1.5571983119074455 a3_x2
<= 311.51097172368242

a3_local_7: 
+2.3359099451502074 a3_x2
+1.4345584942930032 a3_x3
+1.1982147806272001 a3_x5
<= 259.93230619523081

a3_local_8: 
+1.2695846040162078 a3_x5
+1.700665130994679 a3_x2
+3.0642823603825406 a3_x3
<= 343.9432060996852

a3_act_1: 
+1 a3_x1
-100 a3_z1
<= 0

a3_act_2: 
+1 a3_x2
-100 a3_z2
<= 0

a4_local_1: 
+6.8556465866345615 a4_x1
+13.862282819263992 a4_x4
+10.47816259537659 a4_x6
<= 1339.2807255954635

a4_local_2: 
+13.64733417055499 a4_x6
+13.627381719005083 a4_x3
+10.877655395092409 a4_x4
<= 2551.920969695132

a4_local_3: 
+7.3524033586375905 a4_x1
+13.921278594327404 a4_x2
+5.9598220757298535 a4_x5
<= 958.70417562173066

a4_local_4: 
+13.032955764842242 a4_x4
+10.853606089393622 a4_x5
+12.430817034139247 a4_x1
<= 1322.5953099642973

a4_local_5: 
+5.6416931736229952 a4_x4
+12.370642344216275 a4_x6
+8.4924011403493651 a4_x2
<= 1805.0085955371187

a4_local_6: 
+13.764657945147633 a4_x6
+12.661144102702735 a4_x2
+9.2876616409906241 a4_x3
<= 1803.9831564232718

a4_local_7: 
+13.935486177297296 a4_x6
+12.247874733283087 a4_x3
+6.2220460593405633 a4_x4
<= 2017.2021434932483

a4_local_8: 
+12.098890439555181 a4_x2
+11.893236725313535 a4_x4
+13.69451483213137 a4_x3
<= 1713.6182067958928

a4_act_1: 
+1 a4_x1
-100 a4_z1
<= 0

a4_act_2: 
+1 a4_x2
-100 a4_z2
<= 0

coupling_1: 
+0.0024551504481960347 a1_x1
+0.0066517404349085629 a2_x1
+0.052551893809426521 a3_x1
+0.098131950505780996 a4_x1
+0.018614237246445727 short_1
-0.018614237246445727 surp_1
= 7.1070918577628808

coupling_2: 
+0.0037792007999762809 a1_x2
+0.029385035790416941 a2_x2
+0.089289747895641314 a3_x2
+0.41705162780163169 a4_x2
+0.058153634155294939 short_2
-0.058153634155294939 surp_2
= 25.537485279385837

coupling_3: 
+0.031454252073209149 a1_x3
+0.069513733078035933 a2_x3
+0.47616684543608201 a3_x3
+2.2708756338411238 a4_x3
+0.28041596501854932 short_3
-0.28041596501854932 surp_3
= 192.19184527575172

bounds
  0 <= a1_x1 <= 100
  0 <= a1_x2 <= 100
  0 <= a1_x3 <= 100
  0 <= a1_x4 <= 100
  0 <= a1_x5 <= 100
  0 <= a1_x6 <= 100
  0 <= a2_x1 <= 100
  0 <= a2_x2 <= 100
  0 <= a2_x3 <= 100
  0 <= a2_x4 <= 100
  0 <= a2_x5 <= 100
  0 <= a2_x6 <= 100
  0 <= a3_x1 <= 100
  0 <= a3_x2 <= 100
  0 <= a3_x3 <= 100
  0 <= a3_x4 <= 100
  0 <= a3_x5 <= 100
  0 <= a3_x6 <= 100
  0 <= a4_x1 <= 100
  0 <= a4_x2 <= 100
  0 <= a4_x3 <= 100
  0 <= a4_x4 <= 100
  0 <= a4_x5 <= 100
  0 <= a4_x6 <= 100
  0 <= short_1 <= +inf
  0 <= surp_1 <= +inf
  0 <= short_2 <= +inf
  0 <= surp_2 <= +inf
  0 <= short_3 <= +inf
  0 <= surp_3 <= +inf
 0 <= a1_z1 <= 1
 0 <= a1_z2 <= 1
 0 <= a2_z1 <= 1
 0 <= a2_z2 <= 1
 0 <= a3_z1 <= 1
 0 <= a3_z2 <= 1
 0 <= a4_z1 <= 1
 0 <= a4_z2 <= 1

binary
  a1_z1
  a1_z2
  a2_z1
  a2_z2
  a3_z1
  a3_z2
  a4_z1
  a4_z2
end
