min
obj: 
  +2.370294118728955 a1_x1
  +4.0871141162290519 a1_x2
  +7.6613663727576089 a1_x3
  +4.8999168943267346 a1_x4
  +9.1856075433138287 a1_x5
  +7.8055232956727103 a1_x6
  +17.430873114549655 a1_z1
  +23.402378726140935 a1_z2
  +7.1371158046195609 a2_x1
  +9.867310978744726 a2_x2
  +9.2615292817302226 a2_x3
  +3.5007890513184758 a2_x4
  +7.1637373168446201 a2_x5
  +7.9245284991421201 a2_x6
  +12.291053398517668 a2_z1
  +33.658905491272137 a2_z2
  +4.0731411682260328 a3_x1
  +2.6732854397558619 a3_x2
  +9.8971817318039896 a3_x3
  +5.2211213282041085 a3_x4
  +8.0114291145185241 a3_x5
  +2.5829750625381869 a3_x6
  +49.512564365484344 a3_z1
  +27.0926152551414 a3_z2
  +6.6365056560112565 a4_x1
  +8.2046274155609638 a4_x2
  +7.1214056561276049 a4_x3
  +6.2664722965402984 a4_x4
  +7.507966634456313 a4_x5
  +5.5736057519875928 a4_x6
  +9.0405418509815796 a4_z1
  +27.561079601884479 a4_z2
  +1000000 short_1
  +1000000 surp_1
  +1000000 short_2
  +1000000 surp_2
  +1000000 short_3
  +1000000 surp_3

s.t.

a1_local_1: 
+0.7724119571661584 a1_x3
+0.55510986696212827 a1_x2
+0.30859812706501172 a1_x1
<= 114.44416748198473

a1_local_2: 
+0.5790063246111975 a1_x2
+0.70078383105752595 a1_x1
+0.41671776802599808 a1_x5
<= 70.700990020428762

a1_local_3: 
+0.29618601529088323 a1_x4
+0.57987866544253786 a1_x1
+0.75895624228982383 a1_x2
<= 114.29352196659681

a1_local_4: 
+0.47327851004709759 a1_x2
+0.8182892246836555 a1_x5
+0.32620575821744979 a1_x1
<= 64.649398529895393

a1_local_5: 
+0.36734108743170796 a1_x6
+0.63359889239632061 a1_x2
+0.68089130486344596 a1_x5
<= 73.135034376064866

a1_local_6: 
+0.67634375358820198 a1_x1
+0.46025579715374182 a1_x6
+0.57508584417336794 a1_x5
<= 61.537890970277992

a1_local_7: 
+0.56690561791849459 a1_x5
+0.58499742674880861 a1_x4
+0.57999657849828901 a1_x1
<= 67.950116666963424

a1_local_8: 
+0.6520740832502937 a1_x6
+0.49527768629049412 a1_x5
+0.57402038588888427 a1_x2
<= 119.80862749303461

a1_act_1: 
+0.0099995000374968751 a1_x1
-0.99995000374968757 a1_z1
<= 0

a1_act_2: 
+0.0099995000374968751 a1_x2
-0.99995000374968757 a1_z2
<= 0

a2_local_1: 
+0.60985066598053461 a2_x6
+0.63676979229140496 a2_x1
+0.67530625543603739 a2_x3
<= 130.50725156673516

a2_local_2: 
+0.5555978414804591 a2_x5
+0.50357863186560414 a2_x4
+0.35955563751158837 a2_x2
<= 61.318182072467856

a2_local_3: 
+0.62574011307514898 a2_x1
+0.31125431327357905 a2_x6
+0.61889551639039064 a2_x3
<= 84.83758391850651

a2_local_4: 
+0.24485312310460663 a2_x6
+0.57897019630146507 a2_x2
+0.6397930308376103 a2_x1
<= 93.486975180572074

a2_local_5: 
+0.56302103162346795 a2_x1
+0.35863055138360755 a2_x6
+0.59322906296440114 a2_x2
<= 58.715866490458815

a2_local_6: 
+0.53503371603710126 a2_x2
+0.46658843108408976 a2_x3
+0.53671075354728992 a2_x5
<= 83.606819909815428

a2_local_7: 
+0.32317965245299313 a2_x1
+0.64497908506506463 a2_x4
+0.62322398699758264 a2_x3
<= 76.702486868668288

a2_local_8: 
+0.26993552749676358 a2_x1
+0.23590559571345707 a2_x5
+0.47902267806306648 a2_x3
<= 55.637553044920999

a2_act_1: 
+0.0099995000374968751 a2_x1
-0.99995000374968757 a2_z1
<= 0

a2_act_2: 
+0.0099995000374968751 a2_x2
-0.99995000374968757 a2_z2
<= 0

a3_local_1: 
+0.58686243400301785 a3_x2
+0.47763215551731564 a3_x1
+0.65380425784170004 a3_x5
<= 114.8684077064834

a3_local_2: 
+0.60374375736530261 a3_x6
+0.62206106239179826 a3_x5
+0.49853135317491715 a3_x3
<= 73.671564599721506

a3_local_3: 
+0.5104690946965702 a3_x5
+0.55688024336056996 a3_x1
+0.65521423818041113 a3_x4
<= 78.146626773416259

a3_local_4: 
+0.44963840955300682 a3_x5
+0.69941239980407155 a3_x2
+0.55556061384420685 a3_x6
<= 66.655589233594142

a3_local_5: 
+0.71532916863256812 a3_x5
+0.41715344832917395 a3_x1
+0.56061321876184655 a3_x6
<= 98.26818488759092

a3_local_6: 
+0.48113502172049766 a3_x2
+0.68110604761006088 a3_x3
+0.55190908923754611 a3_x1
<= 117.55629058194937

a3_local_7: 
+0.61873482797448964 a3_x4
+0.32757898195559443 a3_x3
+0.71404427259961634 a3_x6
<= 70.38097733058737

a3_local_8: 
+0.55602492840374218 a3_x5
+0.572175653346499 a3_x6
+0.60286922355608796 a3_x4
<= 90.885757181898342

a3_act_1: 
+0.0099995000374968751 a3_x1
-0.99995000374968757 a3_z1
<= 0

a3_act_2: 
+0.0099995000374968751 a3_x2
-0.99995000374968757 a3_z2
<= 0

a4_local_1: 
+0.53115479346048566 a4_x2
+0.7678542178449973 a4_x3
+0.35815427614590351 a4_x1
<= 64.884108293363099

a4_local_2: 
+0.50232361808292381 a4_x2
+0.64104098897445472 a4_x1
+0.58029081775497193 a4_x6
<= 63.036249863863823

a4_local_3: 
+0.56701322740703064 a4_x5
+0.36801406164856154 a4_x3
+0.73692716761861299 a4_x2
<= 89.926017376371703

a4_local_4: 
+0.62700475387235888 a4_x2
+0.48261932141035274 a4_x3
+0.61150930428152384 a4_x4
<= 73.986075069190235

a4_local_5: 
+0.68697701092450358 a4_x1
+0.49200142414376991 a4_x3
+0.53478704649770337 a4_x2
<= 68.417537128917843

a4_local_6: 
+0.30769936179685242 a4_x2
+0.46546423421008165 a4_x6
+0.82985790917543956 a4_x3
<= 85.355778741799526

a4_local_7: 
+0.75147322081669576 a4_x4
+0.60178596781059868 a4_x2
+0.27044712485371863 a4_x5
<= 68.64787489438703

a4_local_8: 
+0.67857253477884127 a4_x5
+0.6651678675409034 a4_x2
+0.3115943244587509 a4_x4
<= 88.780332898450197

a4_act_1: 
+0.0099995000374968751 a4_x1
-0.99995000374968757 a4_z1
<= 0

a4_act_2: 
+0.0099995000374968751 a4_x2
-0.99995000374968757 a4_z2
<= 0

coupling_1: 
+0.011121636493958855 a1_x1
+0.028058907421843554 a2_x1
+0.18001568340633251 a3_x1
+0.97689443984373625 a4_x1
+0.078614928754443036 short_1
-0.078614928754443036 surp_1
= 80.507834065202985

coupling_2: 
+0.011155920469458791 a1_x2
+0.041367870368619684 a2_x2
+0.25314091346355272 a3_x2
+0.95999313814466203 a4_x2
+0.079047762098766183 short_2
-0.079047762098766183 surp_2
= 82.962003147777494

coupling_3: 
+0.0082998565928638825 a1_x3
+0.028666305366620317 a2_x3
+0.16739929768250708 a3_x3
+0.97945477055745112 a4_x3
+0.076665451426374973 short_3
-0.076665451426374973 surp_3
= 86.43629217653681

bounds
  0 <= a1_x1 <= 100
  0 <= a1_x2 <= 100
  0 <= a1_x3 <= 100
  0 <= a1_x4 <= 100
  0 <= a1_x5 <= 100
  0 <= a1_x6 <= 100
  0 <= a2_x1 <= 100
  0 <= a2_x2 <= 100
  0 <= a2_x3 <= 100
  0 <= a2_x4 <= 100
  0 <= a2_x5 <= 100
  0 <= a2_x6 <= 100
  0 <= a3_x1 <= 100
  0 <= a3_x2 <= 100
  0 <= a3_x3 <= 100
  0 <= a3_x4 <= 100
  0 <= a3_x5 <= 100
  0 <= a3_x6 <= 100
  0 <= a4_x1 <= 100
  0 <= a4_x2 <= 100
  0 <= a4_x3 <= 100
  0 <= a4_x4 <= 100
  0 <= a4_x5 <= 100
  0 <= a4_x6 <= 100
  0 <= short_1 <= +inf
  0 <= surp_1 <= +inf
  0 <= short_2 <= +inf
  0 <= surp_2 <= +inf
  0 <= short_3 <= +inf
  0 <= surp_3 <= +inf
 0 <= a1_z1 <= 1
 0 <= a1_z2 <= 1
 0 <= a2_z1 <= 1
 0 <= a2_z2 <= 1
 0 <= a3_z1 <= 1
 0 <= a3_z2 <= 1
 0 <= a4_z1 <= 1
 0 <= a4_z2 <= 1

binary
  a1_z1
  a1_z2
  a2_z1
  a2_z2
  a3_z1
  a3_z2
  a4_z1
  a4_z2
end
