min
obj: 
  +3.0571104005516858 a1_x1
  +8.0556013187453051 a1_x2
  +1.9742345173811016 a1_x3
  +4.4385591714508195 a1_x4
  +2.091774352732247 a1_x5
  +8.3606733491801819 a1_x6
  +15.666425601953888 a1_z1
  +12.324732571684713 a1_z2
  +9.2229319073823621 a2_x1
  +7.6338140335244935 a2_x2
  +9.9611693691396663 a2_x3
  +9.9407775368738864 a2_x4
  +8.2998138303753102 a2_x5
  +5.1593396215897407 a2_x6
  +11.18650581061075 a2_z1
  +36.513419228591097 a2_z2
  +6.077667458974199 a3_x1
  +8.7735643157403977 a3_x2
  +3.6647749932252576 a3_x3
  +8.9894067496513301 a3_x4
  +1.8313374509796332 a3_x5
  +5.9661400049633215 a3_x6
  +11.771775193454559 a3_z1
  +18.836022336426041 a3_z2
  +3.5739044594919878 a4_x1
  +7.8515457332568142 a4_x2
  +9.0641405667365316 a4_x3
  +3.8803458463891136 a4_x4
  +5.5605295549433134 a4_x5
  +7.2488159045117166 a4_x6
  +49.908526082373854 a4_z1
  +15.565550238545768 a4_z2
  +1000000 short_1
  +1000000 surp_1
  +1000000 short_2
  +1000000 surp_2
  +1000000 short_3
  +1000000 surp_3

s.t.

a1_local_1: 
+0.93641113939327514 a1_x5
+1.5412958802844954 a1_x1
+0.64880469272091867 a1_x6
<= 122.31390709216329

a1_local_2: 
+1.42509446969425 a1_x6
+0.70170786657711692 a1_x4
+1.3997892427192418 a1_x1
<= 170.76251724253331

a1_local_3: 
+0.74154992491184912 a1_x3
+1.0061544686743915 a1_x1
+1.348526871092157 a1_x2
<= 94.910061755848133

a1_local_4: 
+0.63765526498193759 a1_x4
+0.64799871988579472 a1_x5
+1.56824550022076 a1_x2
<= 199.28639678685965

a1_local_5: 
+1.1220829943323527 a1_x4
+0.98305582258854074 a1_x1
+0.89119967511405629 a1_x2
<= 134.96875396608175

a1_local_6: 
+0.99879407656146169 a1_x4
+0.8427520106725519 a1_x2
+1.1865886848516176 a1_x6
<= 106.8556018406118

a1_local_7: 
+0.88050814813363976 a1_x3
+0.72656307409630827 a1_x5
+1.3763429984984989 a1_x6
<= 100.83796566783242

a1_local_8: 
+0.74907819048164292 a1_x4
+0.98046715461884704 a1_x6
+1.3349741224704716 a1_x3
<= 95.215572034984007

a1_act_1: 
+0.10000000000000001 a1_x1
-10 a1_z1
<= 0

a1_act_2: 
+0.10000000000000001 a1_x2
-10 a1_z2
<= 0

a2_local_1: 
+1.2817970685266742 a2_x3
+0.780154694182147 a2_x4
+0.99618256361011726 a2_x1
<= 135.01382311787077

a2_local_2: 
+1.5583340189091193 a2_x5
+1.5141877257474519 a2_x1
+0.64171094763113123 a2_x6
<= 243.71730436898639

a2_local_3: 
+0.59559162989353565 a2_x1
+1.5280978717079505 a2_x5
+1.6790027760778867 a2_x3
<= 231.55559576339908

a2_local_4: 
+0.56087033282076082 a2_x2
+0.60820612403187646 a2_x5
+0.6321795638927119 a2_x3
<= 109.29135441874713

a2_local_5: 
+1.2093303354549751 a2_x5
+1.0433631916549047 a2_x6
+0.82690392416541747 a2_x4
<= 106.65132430767082

a2_local_6: 
+1.4681963018769426 a2_x4
+0.85656259784090572 a2_x5
+0.68110783191702629 a2_x1
<= 187.68773921141454

a2_local_7: 
+0.45707893606967953 a2_x4
+0.43239067335974063 a2_x5
+0.61975983238952714 a2_x1
<= 73.552852376689586

a2_local_8: 
+0.46377004711846187 a2_x4
+0.65595381900059357 a2_x2
+0.54071318072203889 a2_x6
<= 73.380928425897352

a2_act_1: 
+0.10000000000000001 a2_x1
-10 a2_z1
<= 0

a2_act_2: 
+0.10000000000000001 a2_x2
-10 a2_z2
<= 0

a3_local_1: 
+1.1720085484362144 a3_x3
+2.290900756906483 a3_x1
+1.5617427601483427 a3_x2
<= 222.14056875892234

a3_local_2: 
+1.6162309480087553 a3_x1
+2.3340186878412603 a3_x3
+1.9252257939446007 a3_x2
<= 341.59126778290772

a3_local_3: 
+1.8495902379481366 a3_x4
+1.3531254238163131 a3_x5
+1.2693061016164888 a3_x1
<= 277.57610843996497

a3_local_4: 
+2.1135920396217074 a3_x4
+2.0439695732498038 a3_x5
+1.3692221905321966 a3_x2
<= 347.82152993279931

a3_local_5: 
+1.3891245499731186 a3_x6
+1.9540446821659465 a3_x3
+2.2441143048767569 a3_x2
<= 240.48342480447565

a3_local_6: 
+0.76209475168910823 a3_x3
+1.3121727945030432 a3_x4
+1.2534107267950565 a3_x5
<= 205.43733131494471

a3_local_7: 
+1.1570548732455217 a3_x6
+2.1646164199631195 a3_x2
+2.4458114731455303 a3_x3
<= 281.62587786591553

a3_local_8: 
+1.2095723265189129 a3_x5
+1.5513398620647507 a3_x3
+2.1205018282392372 a3_x4
<= 222.61019345032477

a3_act_1: 
+0.10000000000000001 a3_x1
-10 a3_z1
<= 0

a3_act_2: 
+0.10000000000000001 a3_x2
-10 a3_z2
<= 0

a4_local_1: 
+0.94765009017920832 a4_x2
+1.3443654000705547 a4_x5
+0.74384538604423922 a4_x1
<= 153.69279556270695

a4_local_2: 
+1.0202170774580532 a4_x2
+0.88930699721177442 a4_x6
+1.1244710804427258 a4_x3
<= 198.63186747652003

a4_local_3: 
+1.3368222771295613 a4_x5
+1.117599279056436 a4_x2
+0.74804259108189775 a4_x1
<= 162.21960176877457

a4_local_4: 
+1.335083279192921 a4_x6
+1.2989015849129901 a4_x4
+0.74901694567286914 a4_x2
<= 179.92469564045493

a4_local_5: 
+0.87390053584235816 a4_x6
+1.3989937520565126 a4_x4
+0.71479947535863264 a4_x1
<= 132.5743192062132

a4_local_6: 
+1.4860067777684767 a4_x5
+0.59747702325111229 a4_x2
+1.6737045293534447 a4_x3
<= 117.65900888876507

a4_local_7: 
+1.2103650399027099 a4_x6
+1.1297978193026579 a4_x2
+0.82619702902223657 a4_x3
<= 169.63700442523566

a4_local_8: 
+0.7378206100882253 a4_x3
+1.2687752498937253 a4_x2
+1.3553430011672143 a4_x1
<= 154.36472863905161

a4_act_1: 
+0.10000000000000001 a4_x1
-10 a4_z1
<= 0

a4_act_2: 
+0.10000000000000001 a4_x2
-10 a4_z2
<= 0

coupling_1: 
+0.072106281094716937 a1_x1
+0.41154109081974011 a2_x1
+3.4317319963136095 a3_x1
+13.868417353079488 a4_x1
+1.1441699822212983 short_1
-1.1441699822212983 surp_1
= 669.1710347858243

coupling_2: 
+0.17786892493878836 a1_x2
+0.42747929148570196 a2_x2
+3.7781554960844939 a3_x2
+10.637321720431565 a4_x2
+1.3302182275677399 short_2
-1.3302182275677399 surp_2
= 1178.2789357372276

coupling_3: 
+0.078300108811230992 a1_x3
+0.51607746199075144 a2_x3
+3.3868741529382138 a3_x3
+12.771374333729719 a4_x3
+1.0743525525718858 short_3
-1.0743525525718858 surp_3
= 567.81990814495919

bounds
  0 <= a1_x1 <= 100
  0 <= a1_x2 <= 100
  0 <= a1_x3 <= 100
  0 <= a1_x4 <= 100
  0 <= a1_x5 <= 100
  0 <= a1_x6 <= 100
  0 <= a2_x1 <= 100
  0 <= a2_x2 <= 100
  0 <= a2_x3 <= 100
  0 <= a2_x4 <= 100
  0 <= a2_x5 <= 100
  0 <= a2_x6 <= 100
  0 <= a3_x1 <= 100
  0 <= a3_x2 <= 100
  0 <= a3_x3 <= 100
  0 <= a3_x4 <= 100
  0 <= a3_x5 <= 100
  0 <= a3_x6 <= 100
  0 <= a4_x1 <= 100
  0 <= a4_x2 <= 100
  0 <= a4_x3 <= 100
  0 <= a4_x4 <= 100
  0 <= a4_x5 <= 100
  0 <= a4_x6 <= 100
  0 <= short_1 <= +inf
  0 <= surp_1 <= +inf
  0 <= short_2 <= +inf
  0 <= surp_2 <= +inf
  0 <= short_3 <= +inf
  0 <= surp_3 <= +inf
 0 <= a1_z1 <= 1
 0 <= a1_z2 <= 1
 0 <= a2_z1 <= 1
 0 <= a2_z2 <= 1
 0 <= a3_z1 <= 1
 0 <= a3_z2 <= 1
 0 <= a4_z1 <= 1
 0 <= a4_z2 <= 1

binary
  a1_z1
  a1_z2
  a2_z1
  a2_z2
  a3_z1
  a3_z2
  a4_z1
  a4_z2
end
