min
obj: 
  +4.0092711480649195 a1_x1
  +1.9679731558453351 a1_x2
  +5.1245063990813229 a1_x3
  +5.3289660462088069 a1_x4
  +7.7326436197250805 a1_x5
  +5.1395422066191525 a1_x6
  +7.4601303692563201 a1_z1
  +49.872667351617643 a1_z2
  +4.2007388618696755 a2_x1
  +7.5341317217871078 a2_x2
  +3.4571921689270946 a2_x3
  +4.7657113746642423 a2_x4
  +9.3861788498988687 a2_x5
  +1.7288685547688603 a2_x6
  +29.540804107775944 a2_z1
  +23.537170412908246 a2_z2
  +8.2162616662184611 a3_x1
  +4.9087522557742478 a3_x2
  +9.9244206014586318 a3_x3
  +6.7861238771840311 a3_x4
  +8.6736711514090779 a3_x5
  +9.6443958243312533 a3_x6
  +44.884441558292828 a3_z1
  +12.682768889922908 a3_z2
  +8.6978778464740216 a4_x1
  +4.1276908151999692 a4_x2
  +7.0223714932865171 a4_x3
  +1.0610858298808366 a4_x4
  +7.0927412879620659 a4_x5
  +7.9355051703127861 a4_x6
  +37.985653916409667 a4_z1
  +17.373101516361629 a4_z2
  +1000000 short_1
  +1000000 surp_1
  +1000000 short_2
  +1000000 surp_2
  +1000000 short_3
  +1000000 surp_3

s.t.

a1_local_1: 
+0.13463297193691534 a1_x3
+0.057198717635448017 a1_x6
+0.091007319204165577 a1_x4
<= 10.691467294795187

a1_local_2: 
+0.11360950830885895 a1_x2
+0.13716565153331864 a1_x5
+0.075990679073451473 a1_x3
<= 10.209056813042166

a1_local_3: 
+0.083410003067604849 a1_x4
+0.050509108310422803 a1_x2
+0.068063549985981533 a1_x5
<= 11.31956156999353

a1_local_4: 
+0.14002056070224245 a1_x3
+0.067027707669014863 a1_x6
+0.083923798306408337 a1_x5
<= 16.977302853278289

a1_local_5: 
+0.060010966400185543 a1_x1
+0.13946943376067589 a1_x6
+0.13390078702804706 a1_x3
<= 23.180420562030424

a1_local_6: 
+0.13463490246850496 a1_x1
+0.13401998514857136 a1_x3
+0.063400133442159876 a1_x2
<= 23.114731624504433

a1_local_7: 
+0.062975314302053206 a1_x1
+0.14426630003982435 a1_x5
+0.086780522488827866 a1_x4
<= 11.504970727979064

a1_local_8: 
+0.13070260743489709 a1_x3
+0.082977239447813836 a1_x1
+0.10125555787149859 a1_x6
<= 11.327183073440377

a1_act_1: 
+1 a1_x1
-100 a1_z1
<= 0

a1_act_2: 
+1 a1_x2
-100 a1_z2
<= 0

a2_local_1: 
+0.52863920803033648 a2_x6
+0.58282630080425946 a2_x5
+0.58178625970216458 a2_x3
<= 93.859900384313619

a2_local_2: 
+0.5199405771150909 a2_x4
+0.56406978040085598 a2_x5
+0.33078981155633108 a2_x3
<= 43.694634205424748

a2_local_3: 
+0.69243414210764209 a2_x1
+0.55541336608486103 a2_x5
+0.55357487177182529 a2_x6
<= 72.494496161263783

a2_local_4: 
+0.32500183314932224 a2_x1
+0.44844911292136991 a2_x4
+0.286526236930849 a2_x5
<= 68.085558984932064

a2_local_5: 
+0.38478334937367176 a2_x5
+0.45250348597243334 a2_x1
+0.33447925302892162 a2_x3
<= 77.729459993621987

a2_local_6: 
+0.41197549470920708 a2_x6
+0.47158739250967924 a2_x2
+0.6135710773661317 a2_x4
<= 68.55212241923067

a2_local_7: 
+0.51003588959090784 a2_x6
+0.4572835142609406 a2_x4
+0.4582985738516272 a2_x3
<= 78.669553965397981

a2_local_8: 
+0.51195943521713549 a2_x3
+0.4127429718910357 a2_x5
+0.29283455442810263 a2_x4
<= 47.352817984421577

a2_act_1: 
+1 a2_x1
-100 a2_z1
<= 0

a2_act_2: 
+1 a2_x2
-100 a2_z2
<= 0

a3_local_1: 
+3.0526089644276211 a3_x1
+2.3404659314449887 a3_x2
+2.0606993085216021 a3_x5
<= 274.08251263567996

a3_local_2: 
+2.0815399542708741 a3_x6
+3.0379505690532382 a3_x2
+3.1090157314394786 a3_x3
<= 513.24702034509482

a3_local_3: 
+2.8157524259435864 a3_x1
+1.0997098889836723 a3_x6
+2.1834505093381087 a3_x3
<= 219.93496435199501

a3_local_4: 
+2.4929673404313704 a3_x1
+1.6526542171008964 a3_x2
+3.1756564550833626 a3_x3
<= 241.37460769114719

a3_local_5: 
+2.9037585327505853 a3_x6
+1.89395152309679 a3_x5
+2.5290105516387564 a3_x3
<= 491.7799508412466

a3_local_6: 
+1.1227433893721994 a3_x5
+2.3178100548140197 a3_x3
+1.7802180548678113 a3_x4
<= 206.59271575704875

a3_local_7: 
+1.5454223601961996 a3_x1
+1.1938067986470524 a3_x5
+2.408969109726506 a3_x2
<= 266.66187145961834

a3_local_8: 
+2.0750322916340966 a3_x1
+1.938298522462653 a3_x3
+2.9492239768071991 a3_x6
<= 428.59179950883976

a3_act_1: 
+1 a3_x1
-100 a3_z1
<= 0

a3_act_2: 
+1 a3_x2
-100 a3_z2
<= 0

a4_local_1: 
+10.624662179156225 a4_x3
+13.987653336921429 a4_x5
+13.562215274067032 a4_x2
<= 2181.5817261402167

a4_local_2: 
+13.885905477343902 a4_x6
+9.9768668171715724 a4_x4
+10.230159129434057 a4_x5
<= 1348.6646606888448

a4_local_3: 
+8.9358721284099634 a4_x6
+7.4629685314550356 a4_x3
+7.813798281066072 a4_x2
<= 1598.2321172879126

a4_local_4: 
+7.6836115453843128 a4_x3
+7.6243721813661018 a4_x6
+14.863953104817178 a4_x5
<= 1117.2994779291346

a4_local_5: 
+7.7483512694042975 a4_x1
+13.319813380499694 a4_x6
+7.2128048774247544 a4_x3
<= 1114.077257288513

a4_local_6: 
+6.3803244202547749 a4_x6
+7.2033024760355175 a4_x3
+9.1649182315632274 a4_x4
<= 1328.6435967124828

a4_local_7: 
+12.397093788335916 a4_x6
+12.167445157202357 a4_x4
+12.844002327056403 a4_x5
<= 1241.5602648464173

a4_local_8: 
+14.439534246687863 a4_x2
+14.796501181840434 a4_x4
+10.12906806698782 a4_x1
<= 1214.8625636722606

a4_act_1: 
+1 a4_x1
-100 a4_z1
<= 0

a4_act_2: 
+1 a4_x2
-100 a4_z2
<= 0

coupling_1: 
+0.0022541612066858943 a1_x1
+0.024435422520119397 a2_x1
+0.099282434830961885 a3_x1
+0.45763902092045017 a4_x1
+0.037506147714642703 short_1
-0.037506147714642703 surp_1
= 43.313593097222061

coupling_2: 
+7807.1587060777065 a1_x2
+46635.602805229493 a2_x2
+220526.32144118747 a3_x2
+848276.96848458215 a4_x2
+123949.17156767787 short_2
-123949.17156767787 surp_2
= 27671607.997043025

coupling_3: 
+0.060167161484541272 a1_x3
+0.26044092240015293 a2_x3
+1.0476428609634705 a3_x3
+7.0595068494292788 a4_x3
+0.66724544800694141 short_3
-0.66724544800694141 surp_3
= 418.78387675179744

bounds
  0 <= a1_x1 <= 100
  0 <= a1_x2 <= 100
  0 <= a1_x3 <= 100
  0 <= a1_x4 <= 100
  0 <= a1_x5 <= 100
  0 <= a1_x6 <= 100
  0 <= a2_x1 <= 100
  0 <= a2_x2 <= 100
  0 <= a2_x3 <= 100
  0 <= a2_x4 <= 100
  0 <= a2_x5 <= 100
  0 <= a2_x6 <= 100
  0 <= a3_x1 <= 100
  0 <= a3_x2 <= 100
  0 <= a3_x3 <= 100
  0 <= a3_x4 <= 100
  0 <= a3_x5 <= 100
  0 <= a3_x6 <= 100
  0 <= a4_x1 <= 100
  0 <= a4_x2 <= 100
  0 <= a4_x3 <= 100
  0 <= a4_x4 <= 100
  0 <= a4_x5 <= 100
  0 <= a4_x6 <= 100
  0 <= short_1 <= +inf
  0 <= surp_1 <= +inf
  0 <= short_2 <= +inf
  0 <= surp_2 <= +inf
  0 <= short_3 <= +inf
  0 <= surp_3 <= +inf
 0 <= a1_z1 <= 1
 0 <= a1_z2 <= 1
 0 <= a2_z1 <= 1
 0 <= a2_z2 <= 1
 0 <= a3_z1 <= 1
 0 <= a3_z2 <= 1
 0 <= a4_z1 <= 1
 0 <= a4_z2 <= 1

binary
  a1_z1
  a1_z2
  a2_z1
  a2_z2
  a3_z1
  a3_z2
  a4_z1
  a4_z2
end
