min
obj: 
  +1.5770974257819579 a1_x1
  +5.2436233239928463 a1_x2
  +8.0695966456126804 a1_x3
  +3.4781022885686368 a1_x4
  +9.412058306823841 a1_x5
  +8.3165688602967034 a1_x6
  +34.001400959855452 a1_z1
  +10.410503430419741 a1_z2
  +7.418259317223229 a2_x1
  +8.2806614137575387 a2_x2
  +6.0649431138157652 a2_x3
  +8.6541766135972331 a2_x4
  +4.3292904508020413 a2_x5
  +7.270244042047584 a2_x6
  +22.659258388720176 a2_z1
  +14.3292458598275 a2_z2
  +6.5706299309399387 a3_x1
  +3.4667216339522406 a3_x2
  +8.7306868906336064 a3_x3
  +5.7873163324378032 a3_x4
  +5.6599350909197002 a3_x5
  +4.8869920304691288 a3_x6
  +21.678337067529544 a3_z1
  +5.900585939248967 a3_z2
  +6.0616245234979713 a4_x1
  +4.5273516228701549 a4_x2
  +9.793261850532609 a4_x3
  +5.1742521510836195 a4_x4
  +5.4489998276629183 a4_x5
  +4.6550473123840108 a4_x6
  +25.907898635489875 a4_z1
  +20.492987297835271 a4_z2
  +1000000 short_1
  +1000000 surp_1
  +1000000 short_2
  +1000000 surp_2
  +1000000 short_3
  +1000000 surp_3

s.t.

a1_local_1: 
+0.64098504467401418 a1_x1
+0.65529248652179217 a1_x6
+0.39966226943800787 a1_x5
<= 89.211705947332462

a1_local_2: 
+0.55064285615084863 a1_x5
+0.73094825274735109 a1_x2
+0.40312168978564061 a1_x4
<= 111.98295202252083

a1_local_3: 
+0.60653474482124869 a1_x4
+0.65355255721177874 a1_x2
+0.45275231450161307 a1_x6
<= 87.041749554067437

a1_local_4: 
+0.48468281106156536 a1_x3
+0.40415584568472501 a1_x4
+0.77571942418655715 a1_x1
<= 114.89555808706992

a1_local_5: 
+0.37700140450220204 a1_x4
+0.56011405745587217 a1_x6
+0.73765993767025662 a1_x3
<= 114.18774499913646

a1_local_6: 
+0.73341007215429332 a1_x2
+0.54977101137033368 a1_x4
+0.39982683891839305 a1_x3
<= 74.627732763400402

a1_local_7: 
+0.4382302583280932 a1_x2
+0.3607493464906682 a1_x4
+0.82329469188878457 a1_x3
<= 63.231895342851544

a1_local_8: 
+0.42881947157940203 a1_x6
+0.55486649710622926 a1_x4
+0.71290744924108151 a1_x3
<= 87.164531822924687

a1_act_1: 
+0.0099995000374968751 a1_x1
-0.99995000374968757 a1_z1
<= 0

a1_act_2: 
+0.0099995000374968751 a1_x2
-0.99995000374968757 a1_z2
<= 0

a2_local_1: 
+0.35591206084755517 a2_x1
+0.33500971416455477 a2_x3
+0.6164909170161047 a2_x6
<= 76.027444832183363

a2_local_2: 
+0.29269258050181168 a2_x2
+0.66344745442923447 a2_x3
+0.50149622458314169 a2_x5
<= 55.495282306088185

a2_local_3: 
+0.58587208999272189 a2_x6
+0.5859154583270364 a2_x5
+0.52869010244594272 a2_x1
<= 86.731515642372116

a2_local_4: 
+0.6729332981243239 a2_x6
+0.2783371725949218 a2_x4
+0.62624213382597171 a2_x2
<= 84.76690829783422

a2_local_5: 
+0.40102108830444927 a2_x1
+0.3367678293467038 a2_x2
+0.48140944719235146 a2_x3
<= 73.241355039593643

a2_local_6: 
+0.61882933212723013 a2_x4
+0.33175991017694112 a2_x6
+0.39217656844989979 a2_x1
<= 64.976546827354596

a2_local_7: 
+0.34044433983619371 a2_x5
+0.52000824122231959 a2_x1
+0.33733296645497685 a2_x6
<= 79.345239906511182

a2_local_8: 
+0.33852471556580299 a2_x1
+0.39070231529925448 a2_x2
+0.47684152191124934 a2_x6
<= 48.935017511184256

a2_act_1: 
+0.0099995000374968751 a2_x1
-0.99995000374968757 a2_z1
<= 0

a2_act_2: 
+0.0099995000374968751 a2_x2
-0.99995000374968757 a2_z2
<= 0

a3_local_1: 
+0.58252338184701835 a3_x2
+0.67057188152998626 a3_x4
+0.45934721214223884 a3_x6
<= 63.033578081598186

a3_local_2: 
+0.85116678055839845 a3_x2
+0.38573807972718666 a3_x4
+0.35597927681570685 a3_x6
<= 99.466158547217944

a3_local_3: 
+0.45979558350298683 a3_x6
+0.70455626049622144 a3_x3
+0.54054463015252319 a3_x2
<= 105.88099769139525

a3_local_4: 
+0.66080022141240813 a3_x3
+0.68471781480628391 a3_x2
+0.30741597464708931 a3_x5
<= 81.328421744327855

a3_local_5: 
+0.70075955304631099 a3_x4
+0.63365044496067457 a3_x2
+0.32775472905127312 a3_x6
<= 55.492206683629107

a3_local_6: 
+0.44005501780588829 a3_x3
+0.64363104158597351 a3_x5
+0.62617143308427459 a3_x1
<= 85.718804356422098

a3_local_7: 
+0.47237822426315712 a3_x2
+0.75340605349799239 a3_x3
+0.4574255478157801 a3_x5
<= 63.350653673085205

a3_local_8: 
+0.53547569938088835 a3_x2
+0.43994267092888656 a3_x5
+0.72091346337026174 a3_x3
<= 83.357248084571111

a3_act_1: 
+0.0099995000374968751 a3_x1
-0.99995000374968757 a3_z1
<= 0

a3_act_2: 
+0.0099995000374968751 a3_x2
-0.99995000374968757 a3_z2
<= 0

a4_local_1: 
+0.32555929213073831 a4_x4
+0.83767345682004779 a4_x5
+0.43853657435439103 a4_x1
<= 62.804404399786947

a4_local_2: 
+0.40886978489745945 a4_x6
+0.80468397244190404 a4_x4
+0.43047555504699947 a4_x1
<= 103.60777871694373

a4_local_3: 
+0.66977799368245083 a4_x1
+0.52661841747378269 a4_x3
+0.52351741284900899 a4_x4
<= 105.69244618020042

a4_local_4: 
+0.60029606012849279 a4_x3
+0.59319729937207688 a4_x6
+0.53643415645527603 a4_x5
<= 116.73500857588911

a4_local_5: 
+0.73016237111377835 a4_x4
+0.59424072278216511 a4_x5
+0.33725491130128143 a4_x6
<= 81.055602258612012

a4_local_6: 
+0.45964356119822364 a4_x5
+0.62459314261105647 a4_x3
+0.63135663681651388 a4_x2
<= 99.245877606189609

a4_local_7: 
+0.44192213813734688 a4_x6
+0.34162602604070402 a4_x3
+0.82945553356147539 a4_x4
<= 52.129407083944429

a4_local_8: 
+0.43597329915212507 a4_x6
+0.58149436991934356 a4_x4
+0.686870861354969 a4_x1
<= 70.241881089550247

a4_act_1: 
+0.0099995000374968751 a4_x1
-0.99995000374968757 a4_z1
<= 0

a4_act_2: 
+0.0099995000374968751 a4_x2
-0.99995000374968757 a4_z2
<= 0

coupling_1: 
+0.0109997415818973 a1_x1
+0.042061619732484304 a2_x1
+0.14168406111720031 a3_x1
+0.98120048223043121 a4_x1
+0.087410143366539683 short_1
-0.087410143366539683 surp_1
= 82.933257912238247

coupling_2: 
+0.0072644189219761568 a1_x2
+0.029104286939396661 a2_x2
+0.20379364541531367 a3_x2
+0.97160466007953439 a4_x2
+0.082318598443927457 short_2
-0.082318598443927457 surp_2
= 81.4832261079098

coupling_3: 
+0.0079544720351550722 a1_x3
+0.041218389106574306 a2_x3
+0.1528453166429832 a3_x3
+0.97794602339453873 a4_x3
+0.096170825308966909 short_3
-0.096170825308966909 surp_3
= 77.620315261917455

bounds
  0 <= a1_x1 <= 100
  0 <= a1_x2 <= 100
  0 <= a1_x3 <= 100
  0 <= a1_x4 <= 100
  0 <= a1_x5 <= 100
  0 <= a1_x6 <= 100
  0 <= a2_x1 <= 100
  0 <= a2_x2 <= 100
  0 <= a2_x3 <= 100
  0 <= a2_x4 <= 100
  0 <= a2_x5 <= 100
  0 <= a2_x6 <= 100
  0 <= a3_x1 <= 100
  0 <= a3_x2 <= 100
  0 <= a3_x3 <= 100
  0 <= a3_x4 <= 100
  0 <= a3_x5 <= 100
  0 <= a3_x6 <= 100
  0 <= a4_x1 <= 100
  0 <= a4_x2 <= 100
  0 <= a4_x3 <= 100
  0 <= a4_x4 <= 100
  0 <= a4_x5 <= 100
  0 <= a4_x6 <= 100
  0 <= short_1 <= +inf
  0 <= surp_1 <= +inf
  0 <= short_2 <= +inf
  0 <= surp_2 <= +inf
  0 <= short_3 <= +inf
  0 <= surp_3 <= +inf
 0 <= a1_z1 <= 1
 0 <= a1_z2 <= 1
 0 <= a2_z1 <= 1
 0 <= a2_z2 <= 1
 0 <= a3_z1 <= 1
 0 <= a3_z2 <= 1
 0 <= a4_z1 <= 1
 0 <= a4_z2 <= 1

binary
  a1_z1
  a1_z2
  a2_z1
  a2_z2
  a3_z1
  a3_z2
  a4_z1
  a4_z2
end
