min
obj: 
  +3.0571104005516858 a1_x1
  +8.0556013187453051 a1_x2
  +1.9742345173811016 a1_x3
  +4.4385591714508195 a1_x4
  +2.091774352732247 a1_x5
  +8.3606733491801819 a1_x6
  +15.666425601953888 a1_z1
  +12.324732571684713 a1_z2
  +9.2229319073823621 a2_x1
  +7.6338140335244935 a2_x2
  +9.9611693691396663 a2_x3
  +9.9407775368738864 a2_x4
  +8.2998138303753102 a2_x5
  +5.1593396215897407 a2_x6
  +11.18650581061075 a2_z1
  +36.513419228591097 a2_z2
  +6.077667458974199 a3_x1
  +8.7735643157403977 a3_x2
  +3.6647749932252576 a3_x3
  +8.9894067496513301 a3_x4
  +1.8313374509796332 a3_x5
  +5.9661400049633215 a3_x6
  +11.771775193454559 a3_z1
  +18.836022336426041 a3_z2
  +3.5739044594919878 a4_x1
  +7.8515457332568142 a4_x2
  +9.0641405667365316 a4_x3
  +3.8803458463891136 a4_x4
  +5.5605295549433134 a4_x5
  +7.2488159045117166 a4_x6
  +49.908526082373854 a4_z1
  +15.565550238545768 a4_z2
  +1000000 short_1
  +1000000 surp_1
  +1000000 short_2
  +1000000 surp_2
  +1000000 short_3
  +1000000 surp_3

s.t.

a1_local_1: 
+0.082781145254359451 a1_x5
+0.13625450699833155 a1_x1
+0.057355998076485643 a1_x6
<= 10.812862944139077

a1_local_2: 
+0.11213709759732288 a1_x6
+0.055215626186556989 a1_x4
+0.11014589296677813 a1_x1
<= 13.436872761213376

a1_local_3: 
+0.063846559159221411 a1_x3
+0.086628693024506639 a1_x1
+0.11610654624935744 a1_x2
<= 8.1716424870792785

a1_local_4: 
+0.051157163523663063 a1_x4
+0.051986987792315878 a1_x5
+0.12581561841619035 a1_x2
<= 15.988148061093428

a1_local_5: 
+0.14670888209154184 a1_x4
+0.12853150925022228 a1_x1
+0.11652160198196732 a1_x2
<= 17.646747265280506

a1_local_6: 
+0.088592150321655572 a1_x4
+0.074751357227122936 a1_x2
+0.10524936581547828 a1_x6
<= 9.477997280044864

a1_local_7: 
+0.09417371829657091 a1_x3
+0.077708703104756888 a1_x5
+0.14720515431321471 a1_x6
<= 10.785006581177525

a1_local_8: 
+0.056064992272181494 a1_x4
+0.073383371916740561 a1_x6
+0.099916557191105981 a1_x3
<= 7.1264393733053675

a1_act_1: 
+1 a1_x1
-100 a1_z1
<= 0

a1_act_2: 
+1 a1_x2
-100 a1_z2
<= 0

a2_local_1: 
+0.44028653661007133 a2_x3
+0.26797659064423018 a2_x4
+0.34218035095632082 a2_x1
<= 46.376115248398271

a2_local_2: 
+0.68928687508009412 a2_x5
+0.66975995717254755 a2_x1
+0.28384346900607854 a2_x6
<= 107.80175308567136

a2_local_3: 
+0.2389364134804535 a2_x1
+0.61303451322557734 a2_x5
+0.67357377337805568 a2_x3
<= 92.894293331365645

a2_local_4: 
+0.56087033282076082 a2_x2
+0.60820612403187646 a2_x5
+0.6321795638927119 a2_x3
<= 109.29135441874713

a2_local_5: 
+0.39821460213516391 a2_x5
+0.34356407514661369 a2_x6
+0.27228723824384471 a2_x4
<= 35.118704485643562

a2_local_6: 
+0.6139140812097067 a2_x4
+0.3581645312550133 a2_x5
+0.28479957911726389 a2_x1
<= 78.480068247685963

a2_local_7: 
+0.45707893606967953 a2_x4
+0.43239067335974063 a2_x5
+0.61975983238952714 a2_x1
<= 73.552852376689586

a2_local_8: 
+0.46377004711846187 a2_x4
+0.65595381900059357 a2_x2
+0.54071318072203889 a2_x6
<= 73.380928425897352

a2_act_1: 
+1 a2_x1
-100 a2_z1
<= 0

a2_act_2: 
+1 a2_x2
-100 a2_z2
<= 0

a3_local_1: 
+1.1720085484362144 a3_x3
+2.290900756906483 a3_x1
+1.5617427601483427 a3_x2
<= 222.14056875892234

a3_local_2: 
+1.6162309480087553 a3_x1
+2.3340186878412603 a3_x3
+1.9252257939446007 a3_x2
<= 341.59126778290772

a3_local_3: 
+1.8495902379481366 a3_x4
+1.3531254238163131 a3_x5
+1.2693061016164888 a3_x1
<= 277.57610843996497

a3_local_4: 
+2.1135920396217074 a3_x4
+2.0439695732498038 a3_x5
+1.3692221905321966 a3_x2
<= 347.82152993279931

a3_local_5: 
+1.3891245499731186 a3_x6
+1.9540446821659465 a3_x3
+2.2441143048767569 a3_x2
<= 240.48342480447565

a3_local_6: 
+1.7857100713470846 a3_x3
+3.0746310341310554 a3_x4
+2.9369420973069142 a3_x5
<= 481.37257309104177

a3_local_7: 
+1.1570548732455217 a3_x6
+2.1646164199631195 a3_x2
+2.4458114731455303 a3_x3
<= 281.62587786591553

a3_local_8: 
+1.2095723265189129 a3_x5
+1.5513398620647507 a3_x3
+2.1205018282392372 a3_x4
<= 222.61019345032477

a3_act_1: 
+1 a3_x1
-100 a3_z1
<= 0

a3_act_2: 
+1 a3_x2
-100 a3_z2
<= 0

a4_local_1: 
+8.7292527892613503 a4_x2
+12.383584975054557 a4_x5
+6.8519113522987602 a4_x1
<= 1415.7369669024379

a4_local_2: 
+12.034888846563723 a4_x2
+10.490621161313687 a4_x6
+13.264710779025389 a4_x3
<= 2343.140983702639

a4_local_3: 
+13.930050684541753 a4_x5
+11.645687589596207 a4_x2
+7.7948066741835653 a4_x1
<= 1690.3722456789981

a4_local_4: 
+10.573190694235377 a4_x6
+10.286649802573926 a4_x4
+5.9318389520992634 a4_x2
<= 1424.9134471662385

a4_local_5: 
+7.9824513523580194 a4_x6
+12.778799314134304 a4_x4
+6.5291778694716252 a4_x1
<= 1210.9708258909684

a4_local_6: 
+12.842606703765361 a4_x5
+5.1636119962206548 a4_x2
+14.464758391664567 a4_x3
<= 1016.8516045279218

a4_local_7: 
+13.572531138729868 a4_x6
+12.669083770121947 a4_x2
+9.2646305316549515 a4_x3
<= 1902.2389518350897

a4_local_8: 
+6.2733224859489303 a4_x3
+10.787766288911374 a4_x2
+11.523808916613349 a4_x1
<= 1312.4866803232464

a4_act_1: 
+1 a4_x1
-100 a4_z1
<= 0

a4_act_2: 
+1 a4_x2
-100 a4_z2
<= 0

coupling_1: 
+309.52121393136275 a1_x1
+1766.5686827731301 a2_x1
+14730.947668633984 a3_x1
+59531.143601669486 a4_x1
+4911.4290248274829 short_1
-4911.4290248274829 surp_1
= 2872463.09017856

coupling_2: 
+0.17786892493878836 a1_x2
+0.42747929148570196 a2_x2
+3.7781554960844939 a3_x2
+10.637321720431565 a4_x2
+1.3302182275677399 short_2
-1.3302182275677399 surp_2
= 1178.2789357372276

coupling_3: 
+3193.0091153955973 a1_x3
+21045.181997886775 a2_x3
+138113.72943428534 a3_x3
+520805.33836856182 a4_x3
+43811.145930598199 short_3
-43811.145930598199 surp_3
= 23155193.142591003

bounds
  0 <= a1_x1 <= 100
  0 <= a1_x2 <= 100
  0 <= a1_x3 <= 100
  0 <= a1_x4 <= 100
  0 <= a1_x5 <= 100
  0 <= a1_x6 <= 100
  0 <= a2_x1 <= 100
  0 <= a2_x2 <= 100
  0 <= a2_x3 <= 100
  0 <= a2_x4 <= 100
  0 <= a2_x5 <= 100
  0 <= a2_x6 <= 100
  0 <= a3_x1 <= 100
  0 <= a3_x2 <= 100
  0 <= a3_x3 <= 100
  0 <= a3_x4 <= 100
  0 <= a3_x5 <= 100
  0 <= a3_x6 <= 100
  0 <= a4_x1 <= 100
  0 <= a4_x2 <= 100
  0 <= a4_x3 <= 100
  0 <= a4_x4 <= 100
  0 <= a4_x5 <= 100
  0 <= a4_x6 <= 100
  0 <= short_1 <= +inf
  0 <= surp_1 <= +inf
  0 <= short_2 <= +inf
  0 <= surp_2 <= +inf
  0 <= short_3 <= +inf
  0 <= surp_3 <= +inf
 0 <= a1_z1 <= 1
 0 <= a1_z2 <= 1
 0 <= a2_z1 <= 1
 0 <= a2_z2 <= 1
 0 <= a3_z1 <= 1
 0 <= a3_z2 <= 1
 0 <= a4_z1 <= 1
 0 <= a4_z2 <= 1

binary
  a1_z1
  a1_z2
  a2_z1
  a2_z2
  a3_z1
  a3_z2
  a4_z1
  a4_z2
end
