min
obj: 
  +3.043052453503527 a1_x1
  +8.5242104678500681 a1_x2
  +7.6930756521091874 a1_x3
  +6.9189962156082423 a1_x4
  +9.2097073421305335 a1_x5
  +1.6783613276554563 a1_x6
  +29.957301038510835 a1_z1
  +31.080729858907144 a1_z2
  +8.695776775262491 a2_x1
  +6.9077742042221582 a2_x2
  +5.0875445936298673 a2_x3
  +7.5917023578038236 a2_x4
  +8.2794490372741638 a2_x5
  +1.0351287904006585 a2_x6
  +28.928861886453006 a2_z1
  +23.934213589769115 a2_z2
  +5.1403805558345264 a3_x1
  +3.338751629164217 a3_x2
  +6.1106898664601106 a3_x3
  +6.5508211726549801 a3_x4
  +5.1951326468311683 a3_x5
  +3.9370151452755238 a3_x6
  +16.85304582879688 a3_z1
  +38.539597563502319 a3_z2
  +1.4163415069349607 a4_x1
  +8.5438219758017482 a4_x2
  +7.1495610706401269 a4_x3
  +5.5659057933768521 a4_x4
  +2.526471255000704 a4_x5
  +2.3501129539553487 a4_x6
  +43.904023055410626 a4_z1
  +7.4539102618189466 a4_z2
  +1000000 short_1
  +1000000 surp_1
  +1000000 short_2
  +1000000 surp_2
  +1000000 short_3
  +1000000 surp_3

s.t.

a1_local_1: 
+0.6108352406217703 a1_x4
+0.75992141376050704 a1_x3
+1.6371026645124438 a1_x1
<= 186.84874811651443

a1_local_2: 
+0.75759939178739077 a1_x6
+1.3199588210343169 a1_x4
+0.80353739707727578 a1_x2
<= 128.79586939178338

a1_local_3: 
+1.5964495713040783 a1_x3
+0.94289544637669398 a1_x1
+0.62638997057898815 a1_x4
<= 132.97164326229262

a1_local_4: 
+1.3016403072580984 a1_x3
+0.73019925673316299 a1_x1
+1.3694892055545196 a1_x2
<= 168.77267143464996

a1_local_5: 
+0.73949401415506255 a1_x3
+1.271409159327795 a1_x2
+1.3522759898774688 a1_x4
<= 132.83524628108327

a1_local_6: 
+0.72831567822513832 a1_x3
+1.3730309945227872 a1_x5
+0.9581146746682615 a1_x4
<= 106.2950574076615

a1_local_7: 
+1.249689844883964 a1_x5
+1.0529717669059375 a1_x6
+0.80019854853893901 a1_x1
<= 137.09593949539351

a1_local_8: 
+1.1108472102204003 a1_x2
+0.90021381050377958 a1_x3
+1.0057240656899598 a1_x6
<= 150.50868077518649

a1_act_1: 
+0.10000000000000001 a1_x1
-10 a1_z1
<= 0

a1_act_2: 
+0.10000000000000001 a1_x2
-10 a1_z2
<= 0

a2_local_1: 
+0.84969595426924693 a2_x6
+1.0415149373083277 a2_x3
+1.1768915633592927 a2_x1
<= 103.69385246671686

a2_local_2: 
+0.72364910021030615 a2_x4
+0.90103146396445422 a2_x1
+1.3818852254627014 a2_x5
<= 157.97115161166849

a2_local_3: 
+0.40249111583787184 a2_x6
+0.47796984006598681 a2_x5
+0.64586124938231404 a2_x3
<= 93.621030339727895

a2_local_4: 
+0.80080234873124045 a2_x4
+1.2487475861982176 a2_x3
+0.85059161206027145 a2_x6
<= 141.84245488227072

a2_local_5: 
+1.2123180401543592 a2_x6
+1.101558171270437 a2_x2
+0.82486605567023852 a2_x5
<= 178.98952530937254

a2_local_6: 
+1.0566085598887625 a2_x2
+0.89867475651001116 a2_x1
+1.1127496268878003 a2_x4
<= 127.36161834943425

a2_local_7: 
+0.38064717660259567 a2_x6
+0.66515308649609706 a2_x2
+0.63256764105431829 a2_x5
<= 76.503236746947607

a2_local_8: 
+1.3875795903396571 a2_x2
+0.72067938081679073 a2_x4
+1.0030216487598644 a2_x5
<= 135.37818250247497

a2_act_1: 
+0.10000000000000001 a2_x1
-10 a2_z1
<= 0

a2_act_2: 
+0.10000000000000001 a2_x2
-10 a2_z2
<= 0

a3_local_1: 
+0.80837659579852439 a3_x6
+1.237047194584088 a3_x5
+1.0974872579003279 a3_x2
<= 209.65413025638622

a3_local_2: 
+1.458448068674304 a3_x4
+0.68566034093279526 a3_x3
+1.0219918856964441 a3_x1
<= 136.2875254916884

a3_local_3: 
+0.95220563932964075 a3_x2
+0.92308011409685631 a3_x4
+1.08332958832983 a3_x3
<= 160.06923726564182

a3_local_4: 
+0.88350038998181013 a3_x5
+1.1318614132367146 a3_x2
+1.0166247400463897 a3_x1
<= 201.35854568115764

a3_local_5: 
+1.9966817617251076 a3_x6
+2.3426966681583719 a3_x2
+1.1914863803889355 a3_x3
<= 384.65622932144277

a3_local_6: 
+2.8349962526655741 a3_x1
+2.9564023398282466 a3_x4
+1.1890465647012307 a3_x3
<= 394.92695564798333

a3_local_7: 
+1.1439014425380361 a3_x2
+0.97424530062977965 a3_x6
+0.8742011879810605 a3_x5
<= 209.12867977639803

a3_local_8: 
+1.8150225255199999 a3_x2
+1.4286734887697272 a3_x3
+2.0419155011298442 a3_x4
<= 240.79839950986829

a3_act_1: 
+0.10000000000000001 a3_x1
-10 a3_z1
<= 0

a3_act_2: 
+0.10000000000000001 a3_x2
-10 a3_z2
<= 0

a4_local_1: 
+0.91516494212742927 a4_x4
+0.76039190621515773 a4_x5
+1.3151113153971992 a4_x6
<= 110.33456840928442

a4_local_2: 
+1.0343824794820666 a4_x3
+1.2032528579603108 a4_x1
+0.83108051095357127 a4_x2
<= 203.52225988366968

a4_local_3: 
+0.69499156390075523 a4_x4
+0.88579766023522089 a4_x6
+1.4388663862153006 a4_x2
<= 93.608124538562222

a4_local_4: 
+1.1799977855624759 a4_x2
+1.0720563384693169 a4_x3
+0.84745921749617925 a4_x1
<= 183.93966475194702

a4_local_5: 
+0.74337391844943035 a4_x4
+1.3452180325156611 a4_x5
+0.87583653270600847 a4_x2
<= 203.59570773482

a4_local_6: 
+1.5521001995625885 a4_x6
+0.64428830064052511 a4_x5
+1.1840989942889346 a4_x3
<= 232.13825626759402

a4_local_7: 
+0.63264775270628981 a4_x4
+1.4855014031506408 a4_x3
+1.580658424411183 a4_x5
<= 242.82809379700919

a4_local_8: 
+1.1036746786148353 a4_x1
+0.64935992640976525 a4_x6
+1.5399779988409241 a4_x4
<= 181.90582888368266

a4_act_1: 
+0.10000000000000001 a4_x1
-10 a4_z1
<= 0

a4_act_2: 
+0.10000000000000001 a4_x2
-10 a4_z2
<= 0

coupling_1: 
+0.011378776037805833 a1_x1
+0.0206268480996111 a2_x1
+0.092558042569106477 a3_x1
+0.98909139353710795 a4_x1
+0.079297794988114734 short_1
-0.079297794988114734 surp_1
= 22.47392699706522

coupling_2: 
+0.0059374213006582344 a1_x2
+0.033485842778894527 a2_x2
+0.22525761284617349 a3_x2
+0.96725027479473158 a4_x2
+0.079149728761522167 short_2
-0.079149728761522167 surp_2
= 40.920999205326197

coupling_3: 
+0.010479274943032134 a1_x3
+0.070931176748074365 a2_x3
+0.37212902812995885 a3_x3
+0.89669799364374692 a4_x3
+0.16172762222349812 short_3
-0.16172762222349812 surp_3
= 28.13853478449435

bounds
  0 <= a1_x1 <= 100
  0 <= a1_x2 <= 100
  0 <= a1_x3 <= 100
  0 <= a1_x4 <= 100
  0 <= a1_x5 <= 100
  0 <= a1_x6 <= 100
  0 <= a2_x1 <= 100
  0 <= a2_x2 <= 100
  0 <= a2_x3 <= 100
  0 <= a2_x4 <= 100
  0 <= a2_x5 <= 100
  0 <= a2_x6 <= 100
  0 <= a3_x1 <= 100
  0 <= a3_x2 <= 100
  0 <= a3_x3 <= 100
  0 <= a3_x4 <= 100
  0 <= a3_x5 <= 100
  0 <= a3_x6 <= 100
  0 <= a4_x1 <= 100
  0 <= a4_x2 <= 100
  0 <= a4_x3 <= 100
  0 <= a4_x4 <= 100
  0 <= a4_x5 <= 100
  0 <= a4_x6 <= 100
  0 <= short_1 <= +inf
  0 <= surp_1 <= +inf
  0 <= short_2 <= +inf
  0 <= surp_2 <= +inf
  0 <= short_3 <= +inf
  0 <= surp_3 <= +inf
 0 <= a1_z1 <= 1
 0 <= a1_z2 <= 1
 0 <= a2_z1 <= 1
 0 <= a2_z2 <= 1
 0 <= a3_z1 <= 1
 0 <= a3_z2 <= 1
 0 <= a4_z1 <= 1
 0 <= a4_z2 <= 1

binary
  a1_z1
  a1_z2
  a2_z1
  a2_z2
  a3_z1
  a3_z2
  a4_z1
  a4_z2
end
