min
obj: 
  +7.7820756929973847 a1_x1
  +2.6204029212029933 a1_x2
  +1.0229393332967094 a1_x3
  +7.1910932224071349 a1_x4
  +4.2632745770435907 a1_x5
  +6.0246265469097295 a1_x6
  +42.771027111197313 a1_z1
  +28.114118371176183 a1_z2
  +1.0942907269569377 a2_x1
  +2.3925011221889392 a2_x2
  +1.8354708126815493 a2_x3
  +3.2680190161516656 a2_x4
  +8.5745129304172316 a2_x5
  +5.2855415708546367 a2_x6
  +40.375428510282923 a2_z1
  +37.679921062184903 a2_z2
  +8.2763747483341881 a3_x1
  +6.9098336189226917 a3_x2
  +7.224692972136415 a3_x3
  +2.7635056217757095 a3_x4
  +4.5804152664090756 a3_x5
  +5.5391766018428115 a3_x6
  +12.640130628939682 a3_z1
  +24.719908715545547 a3_z2
  +3.7933549198548668 a4_x1
  +7.8772143187643042 a4_x2
  +7.8222341244321543 a4_x3
  +1.2624357252124174 a4_x4
  +2.9341291076023293 a4_x5
  +4.8680356039416175 a4_x6
  +47.52172151037577 a4_z1
  +34.587285029007681 a4_z2
  +1000000 short_1
  +1000000 surp_1
  +1000000 short_2
  +1000000 surp_2
  +1000000 short_3
  +1000000 surp_3

s.t.

a1_local_1: 
+0.088679212429721391 a1_x4
+0.13625371621266164 a1_x6
+0.063307816455164687 a1_x3
<= 14.408204712186555

a1_local_2: 
+0.071640751935760402 a1_x6
+0.13833621076180008 a1_x2
+0.096983152520084159 a1_x4
<= 20.39787767156464

a1_local_3: 
+0.14450104004679903 a1_x2
+0.14490156228902407 a1_x5
+0.10648424990039343 a1_x4
<= 26.206948836575275

a1_local_4: 
+0.10142073681811303 a1_x2
+0.055163413817395868 a1_x1
+0.086355839508214002 a1_x3
<= 14.036112880798946

a1_local_5: 
+0.14968906423893721 a1_x3
+0.057194387692118501 a1_x2
+0.09778447375524886 a1_x6
<= 13.30434179023589

a1_local_6: 
+0.11093955519301586 a1_x4
+0.1289646087718935 a1_x5
+0.089569905112334688 a1_x2
<= 12.092731661487695

a1_local_7: 
+0.080763814962738545 a1_x1
+0.14698989791395142 a1_x5
+0.078620916609128941 a1_x3
<= 20.20565352351548

a1_local_8: 
+0.10516762300609524 a1_x1
+0.11997749428466223 a1_x5
+0.12215878816147048 a1_x4
<= 11.089702877038002

a1_act_1: 
+1 a1_x1
-100 a1_z1
<= 0

a1_act_2: 
+1 a1_x2
-100 a1_z2
<= 0

a2_local_1: 
+0.36895158926387844 a2_x2
+0.42604651335373184 a2_x3
+0.34181990557675468 a2_x4
<= 79.240467772696675

a2_local_2: 
+0.29120345298346606 a2_x1
+0.50707755247316377 a2_x4
+0.25260518017109557 a2_x5
<= 64.827254036206284

a2_local_3: 
+0.40291535306523185 a2_x5
+0.40082642051304895 a2_x2
+0.61416864583252806 a2_x6
<= 47.708724051100162

a2_local_4: 
+0.23894902557216491 a2_x5
+0.33131833870032146 a2_x4
+0.49775957163541323 a2_x6
<= 48.456908556941698

a2_local_5: 
+0.39269259062802003 a2_x1
+0.49939095828780122 a2_x3
+0.33780380892741874 a2_x2
<= 82.82899977239326

a2_local_6: 
+0.3021066088436285 a2_x5
+0.25905216950999327 a2_x6
+0.23632118273139391 a2_x1
<= 24.012998903268922

a2_local_7: 
+0.68646956292704464 a2_x5
+0.5749411295992285 a2_x6
+0.57722434682487278 a2_x3
<= 104.96995319922827

a2_local_8: 
+0.23847823498202356 a2_x5
+0.26698945401167828 a2_x2
+0.23562293686075322 a2_x4
<= 26.479397396837225

a2_act_1: 
+1 a2_x1
-100 a2_z1
<= 0

a2_act_2: 
+1 a2_x2
-100 a2_z2
<= 0

a3_local_1: 
+3.2223595654124759 a3_x1
+3.1892093999966367 a3_x5
+1.9166594179642413 a3_x3
<= 466.52708159544153

a3_local_2: 
+1.551747806071595 a3_x1
+1.5254807944214481 a3_x3
+1.3522290600030547 a3_x5
<= 260.22166155310362

a3_local_3: 
+2.880149427887587 a3_x5
+2.4696708120643129 a3_x2
+1.2405416626936259 a3_x4
<= 314.81143937118065

a3_local_4: 
+3.2248497471301869 a3_x6
+2.3048115885360496 a3_x3
+1.704453516172981 a3_x4
<= 446.91398245052636

a3_local_5: 
+2.6144645161894542 a3_x2
+3.0584487420254445 a3_x4
+2.8016571924310685 a3_x1
<= 460.69485297742881

a3_local_6: 
+1.3303076174166091 a3_x6
+1.102545377291037 a3_x4
+3.1559455143568962 a3_x5
<= 291.96444252692385

a3_local_7: 
+1.1898002606393445 a3_x6
+2.8483863980792616 a3_x5
+1.3407037243423456 a3_x3
<= 285.21316397020775

a3_local_8: 
+2.4601287539546615 a3_x4
+2.5035530880514627 a3_x6
+1.1520010184749956 a3_x2
<= 373.15970652914547

a3_act_1: 
+1 a3_x1
-100 a3_z1
<= 0

a3_act_2: 
+1 a3_x2
-100 a3_z2
<= 0

a4_local_1: 
+5.8802134406814277 a4_x2
+13.074359603982781 a4_x3
+9.8401070193230904 a4_x4
<= 1586.7078554945522

a4_local_2: 
+11.283919379255945 a4_x4
+8.0952130996422866 a4_x6
+13.644171156052758 a4_x1
<= 1255.9940473667104

a4_local_3: 
+9.5538318524557262 a4_x3
+5.7234232897860506 a4_x2
+8.6073719826550423 a4_x5
<= 1546.0166832898904

a4_local_4: 
+8.872660932083301 a4_x2
+10.754849126130321 a4_x1
+7.4865572510366132 a4_x5
<= 1047.5564139592789

a4_local_5: 
+10.134994350261854 a4_x6
+13.673089241876855 a4_x2
+5.7820455843654708 a4_x3
<= 1895.7141130555963

a4_local_6: 
+7.117823178148786 a4_x5
+14.194314221294366 a4_x6
+9.185165971158769 a4_x2
<= 1229.187290625865

a4_local_7: 
+13.291593620549307 a4_x6
+13.69267338436963 a4_x5
+10.619080401981865 a4_x3
<= 1763.4621196239302

a4_local_8: 
+11.0769236675839 a4_x5
+14.307669664222932 a4_x6
+13.143295814786622 a4_x4
<= 1249.1453315454021

a4_act_1: 
+1 a4_x1
-100 a4_z1
<= 0

a4_act_2: 
+1 a4_x2
-100 a4_z2
<= 0

coupling_1: 
+1.4885643327714635 a1_x1
+6.9354683164125586 a2_x1
+57.673615374619267 a3_x1
+277.1134537387565 a4_x1
+20.198790340379485 short_1
-20.198790340379485 surp_1
= 22265.370930474593

coupling_2: 
+12.212903973865307 a1_x2
+127.02354754115471 a2_x2
+358.12573127411576 a3_x2
+2870.8036338047741 a4_x2
+242.87022952604028 short_2
-242.87022952604028 surp_2
= 235705.85845409901

coupling_3: 
+105.49728862267978 a1_x3
+496.49350600786494 a2_x3
+2399.4279824920154 a3_x3
+6516.2480807027068 a4_x3
+858.26013415297246 short_3
-858.26013415297246 surp_3
= 487489.61196797516

bounds
  0 <= a1_x1 <= 100
  0 <= a1_x2 <= 100
  0 <= a1_x3 <= 100
  0 <= a1_x4 <= 100
  0 <= a1_x5 <= 100
  0 <= a1_x6 <= 100
  0 <= a2_x1 <= 100
  0 <= a2_x2 <= 100
  0 <= a2_x3 <= 100
  0 <= a2_x4 <= 100
  0 <= a2_x5 <= 100
  0 <= a2_x6 <= 100
  0 <= a3_x1 <= 100
  0 <= a3_x2 <= 100
  0 <= a3_x3 <= 100
  0 <= a3_x4 <= 100
  0 <= a3_x5 <= 100
  0 <= a3_x6 <= 100
  0 <= a4_x1 <= 100
  0 <= a4_x2 <= 100
  0 <= a4_x3 <= 100
  0 <= a4_x4 <= 100
  0 <= a4_x5 <= 100
  0 <= a4_x6 <= 100
  0 <= short_1 <= +inf
  0 <= surp_1 <= +inf
  0 <= short_2 <= +inf
  0 <= surp_2 <= +inf
  0 <= short_3 <= +inf
  0 <= surp_3 <= +inf
 0 <= a1_z1 <= 1
 0 <= a1_z2 <= 1
 0 <= a2_z1 <= 1
 0 <= a2_z2 <= 1
 0 <= a3_z1 <= 1
 0 <= a3_z2 <= 1
 0 <= a4_z1 <= 1
 0 <= a4_z2 <= 1

binary
  a1_z1
  a1_z2
  a2_z1
  a2_z2
  a3_z1
  a3_z2
  a4_z1
  a4_z2
end
