min
obj: 
  +2.8670230128866887 a1_x1
  +4.6121734767481746 a1_x2
  +8.3726653944305163 a1_x3
  +3.8874111784256438 a1_x4
  +3.5735214707131471 a1_x5
  +7.9063268225890937 a1_x6
  +32.521673256282952 a1_z1
  +46.9551209495583 a1_z2
  +6.1895710982011405 a2_x1
  +7.6567171580139357 a2_x2
  +8.2043744709301158 a2_x3
  +3.6188691473828523 a2_x4
  +5.2859257046209569 a2_x5
  +3.3947769180807601 a2_x6
  +12.605481383042026 a2_z1
  +31.130882329794158 a2_z2
  +1.0038469274140069 a3_x1
  +6.9874663911383514 a3_x2
  +2.0892016241128126 a3_x3
  +9.3610808006140438 a3_x4
  +4.8509819599704116 a3_x5
  +1.7243146015797635 a3_x6
  +35.019467218819287 a3_z1
  +33.012677472845496 a3_z2
  +2.5033216672460403 a4_x1
  +6.4216192335644386 a4_x2
  +2.3877334915960096 a4_x3
  +7.475862409648836 a4_x4
  +7.4106096914751971 a4_x5
  +8.5860247699785965 a4_x6
  +17.162878658753439 a4_z1
  +23.317265071624306 a4_z2
  +1000000 short_1
  +1000000 surp_1
  +1000000 short_2
  +1000000 surp_2
  +1000000 short_3
  +1000000 surp_3

s.t.

a1_local_1: 
+0.39177291867941211 a1_x3
+0.68779036958806883 a1_x1
+0.61111241821069417 a1_x2
<= 101.67816044536775

a1_local_2: 
+0.48694897149036176 a1_x6
+0.69838775780659312 a1_x4
+0.52453335347750607 a1_x3
<= 66.970577928210815

a1_local_3: 
+0.47040300645458738 a1_x5
+0.63568217323300102 a1_x6
+0.61206959257281712 a1_x4
<= 63.02480229761062

a1_local_4: 
+0.6105679341921707 a1_x3
+0.70428887678463714 a1_x6
+0.36219328510305021 a1_x4
<= 56.53076579746952

a1_local_5: 
+0.72564219502028804 a1_x4
+0.57689771923724265 a1_x5
+0.375009901662617 a1_x2
<= 61.430858365910098

a1_local_6: 
+0.61705341369718358 a1_x5
+0.59840647661207103 a1_x4
+0.51103304530468419 a1_x2
<= 83.984197294082023

a1_local_7: 
+0.5733102759242833 a1_x2
+0.73011262331751592 a1_x3
+0.37182103866246907 a1_x6
<= 104.23383534068185

a1_local_8: 
+0.66788022824517312 a1_x2
+0.64196471180922843 a1_x5
+0.3765863905013957 a1_x1
<= 88.057536219291563

a1_act_1: 
+0.0099995000374968751 a1_x1
-0.99995000374968757 a1_z1
<= 0

a1_act_2: 
+0.0099995000374968751 a1_x2
-0.99995000374968757 a1_z2
<= 0

a2_local_1: 
+0.60855645218571985 a2_x4
+0.5113068254623937 a2_x3
+0.60681494274506698 a2_x1
<= 93.043382011100078

a2_local_2: 
+0.60371186662097454 a2_x6
+0.35654461067946225 a2_x2
+0.71302729449611491 a2_x5
<= 65.437782225041744

a2_local_3: 
+0.69570721967455029 a2_x6
+0.57752474334406745 a2_x4
+0.42714942972931158 a2_x5
<= 102.29940600798638

a2_local_4: 
+0.72215275482148866 a2_x3
+0.4519359829053432 a2_x4
+0.52368813816919346 a2_x1
<= 110.46492939535649

a2_local_5: 
+0.51458283840012975 a2_x5
+0.4999073006126567 a2_x4
+0.69663275347792319 a2_x3
<= 115.24489794245297

a2_local_6: 
+0.3525679099956035 a2_x6
+0.69182723846283511 a2_x4
+0.63013565282581774 a2_x3
<= 93.817178391121999

a2_local_7: 
+0.53874347916553034 a2_x6
+0.56533272351041475 a2_x3
+0.62462338683795438 a2_x5
<= 64.426867838000973

a2_local_8: 
+0.42804311555090391 a2_x5
+0.70053246993261165 a2_x3
+0.57099330101113288 a2_x4
<= 71.522220057209097

a2_act_1: 
+0.0099995000374968751 a2_x1
-0.99995000374968757 a2_z1
<= 0

a2_act_2: 
+0.0099995000374968751 a2_x2
-0.99995000374968757 a2_z2
<= 0

a3_local_1: 
+0.54521162174487603 a3_x4
+0.62866008780688731 a3_x2
+0.55455457938146979 a3_x6
<= 57.400348309609676

a3_local_2: 
+0.47130421698944397 a3_x4
+0.81952103305188717 a3_x6
+0.32597179545711435 a3_x3
<= 60.37149761818425

a3_local_3: 
+0.63710162769497625 a3_x4
+0.53136446152404893 a3_x2
+0.55834874855923977 a3_x3
<= 54.229711385758073

a3_local_4: 
+0.56378721533952569 a3_x2
+0.73437186999541926 a3_x4
+0.37794435090252948 a3_x3
<= 86.903985393625931

a3_local_5: 
+0.52454001781291215 a3_x4
+0.64377892316446506 a3_x6
+0.55714133557117407 a3_x1
<= 65.023707917771418

a3_local_6: 
+0.51078968068259356 a3_x3
+0.59372936482145622 a3_x4
+0.62175505101035089 a3_x1
<= 58.957358150830885

a3_local_7: 
+0.57222014825871048 a3_x4
+0.46253952721860953 a3_x1
+0.67721583537832641 a3_x6
<= 99.771504824588064

a3_local_8: 
+0.58264471438103871 a3_x2
+0.5727562658228138 a3_x3
+0.57660679562813355 a3_x1
<= 67.145302088158871

a3_act_1: 
+0.0099995000374968751 a3_x1
-0.99995000374968757 a3_z1
<= 0

a3_act_2: 
+0.0099995000374968751 a3_x2
-0.99995000374968757 a3_z2
<= 0

a4_local_1: 
+0.51524792990526502 a4_x1
+0.64131569030573043 a4_x4
+0.56853650374978026 a4_x5
<= 54.230488628454545

a4_local_2: 
+0.53026022173153775 a4_x6
+0.62207193170176522 a4_x2
+0.57606476114934746 a4_x3
<= 67.391399161106449

a4_local_3: 
+0.58327998912470003 a4_x1
+0.56845349214182617 a4_x4
+0.58021123873848957 a4_x5
<= 84.750177642220123

a4_local_4: 
+0.34456449555223523 a4_x2
+0.68318818009549698 a4_x6
+0.64383943571564228 a4_x5
<= 58.377444217350735

a4_local_5: 
+0.48190778861468742 a4_x2
+0.41976839610883476 a4_x5
+0.76912897286522641 a4_x1
<= 90.464514476328176

a4_local_6: 
+0.4792023676445244 a4_x5
+0.67714376241244645 a4_x6
+0.55842762813975988 a4_x4
<= 119.39779443726691

a4_local_7: 
+0.36463701504745766 a4_x1
+0.58561286276784918 a4_x5
+0.72394573154216768 a4_x2
<= 56.275021459294912

a4_local_8: 
+0.58138333225100192 a4_x1
+0.5389315825962836 a4_x6
+0.60954587215482492 a4_x5
<= 85.527877319478392

a4_act_1: 
+0.0099995000374968751 a4_x1
-0.99995000374968757 a4_z1
<= 0

a4_act_2: 
+0.0099995000374968751 a4_x2
-0.99995000374968757 a4_z2
<= 0

coupling_1: 
+6.0495143134010144e-07 a1_x1
+0.00010215566228821121 a2_x1
+0.010897383647325074 a3_x1
+0.99993976653295968 a4_x1
+0.00092192719557058589 short_1
-0.00092192719557058589 surp_1
= 60.07210925091708

coupling_2: 
+5.7134817353517435e-07 a1_x2
+6.5810119490699285e-05 a2_x2
+0.0068006525149252473 a3_x2
+0.99997618579784964 a4_x2
+0.00082904500998839362 short_2
-0.00082904500998839362 surp_2
= 40.111100729843997

coupling_3: 
+1.6559795512678932e-06 a1_x3
+0.00013012088171246921 a2_x3
+0.014268690507183879 a3_x3
+0.99989499232872969 a4_x3
+0.0017877154351118971 short_3
-0.0017877154351118971 surp_3
= 44.914262054264817

bounds
  0 <= a1_x1 <= 100
  0 <= a1_x2 <= 100
  0 <= a1_x3 <= 100
  0 <= a1_x4 <= 100
  0 <= a1_x5 <= 100
  0 <= a1_x6 <= 100
  0 <= a2_x1 <= 100
  0 <= a2_x2 <= 100
  0 <= a2_x3 <= 100
  0 <= a2_x4 <= 100
  0 <= a2_x5 <= 100
  0 <= a2_x6 <= 100
  0 <= a3_x1 <= 100
  0 <= a3_x2 <= 100
  0 <= a3_x3 <= 100
  0 <= a3_x4 <= 100
  0 <= a3_x5 <= 100
  0 <= a3_x6 <= 100
  0 <= a4_x1 <= 100
  0 <= a4_x2 <= 100
  0 <= a4_x3 <= 100
  0 <= a4_x4 <= 100
  0 <= a4_x5 <= 100
  0 <= a4_x6 <= 100
  0 <= short_1 <= +inf
  0 <= surp_1 <= +inf
  0 <= short_2 <= +inf
  0 <= surp_2 <= +inf
  0 <= short_3 <= +inf
  0 <= surp_3 <= +inf
 0 <= a1_z1 <= 1
 0 <= a1_z2 <= 1
 0 <= a2_z1 <= 1
 0 <= a2_z2 <= 1
 0 <= a3_z1 <= 1
 0 <= a3_z2 <= 1
 0 <= a4_z1 <= 1
 0 <= a4_z2 <= 1

binary
  a1_z1
  a1_z2
  a2_z1
  a2_z2
  a3_z1
  a3_z2
  a4_z1
  a4_z2
end
