min
obj: 
  +1.5869078218103445 a1_x1
  +1.8591431952918778 a1_x2
  +3.3231109040519993 a1_x3
  +9.2087059181463786 a1_x4
  +9.6203246603591985 a1_x5
  +2.6522167369866532 a1_x6
  +45.971215901918207 a1_z1
  +15.231591264695247 a1_z2
  +9.6966969925339086 a2_x1
  +9.5099240901526567 a2_x2
  +7.5753998333245365 a2_x3
  +7.2545869758953661 a2_x4
  +4.0776176539598987 a2_x5
  +7.0823179577413251 a2_x6
  +41.740356324700421 a2_z1
  +13.295788449057502 a2_z2
  +8.20725746769123 a3_x1
  +8.7650426689296079 a3_x2
  +7.7797720123238729 a3_x3
  +6.0483854765360672 a3_x4
  +6.4868155236610479 a3_x5
  +7.5914186799784584 a3_x6
  +13.335393596501099 a3_z1
  +17.076428731733131 a3_z2
  +4.0749166189662294 a4_x1
  +3.9578684115063361 a4_x2
  +4.7726522238702849 a4_x3
  +6.6226528859876028 a4_x4
  +9.5073045520096944 a4_x5
  +5.1085987408368467 a4_x6
  +30.995431749404506 a4_z1
  +14.100841079092167 a4_z2
  +1000000 short_1
  +1000000 surp_1
  +1000000 short_2
  +1000000 surp_2
  +1000000 short_3
  +1000000 surp_3

s.t.

a1_local_1: 
+0.53246830785528032 a1_x4
+0.69012198110526712 a1_x1
+0.4901113672677625 a1_x3
<= 75.931814365354413

a1_local_2: 
+0.6832348154560749 a1_x3
+0.60389170852950547 a1_x5
+0.41049359473445873 a1_x2
<= 84.219465282752452

a1_local_3: 
+0.50958828296615244 a1_x1
+0.73980277515074666 a1_x2
+0.43933089550231114 a1_x5
<= 105.8945993200079

a1_local_4: 
+0.45062289360061841 a1_x3
+0.63146466142478874 a1_x5
+0.63102407967896323 a1_x6
<= 112.67898500574829

a1_local_5: 
+0.53247556794846995 a1_x4
+0.60570088277220457 a1_x5
+0.59126661511278167 a1_x6
<= 93.251725521306739

a1_local_6: 
+0.53883637614146029 a1_x4
+0.56651283452979539 a1_x6
+0.62347298903782133 a1_x1
<= 112.35369030863208

a1_local_7: 
+0.62936826550831781 a1_x5
+0.54691841509895289 a1_x2
+0.55206506282928391 a1_x4
<= 62.794793516606354

a1_local_8: 
+0.58622759388607071 a1_x2
+0.47341285231839836 a1_x6
+0.65743249039449392 a1_x3
<= 62.937929107792939

a1_act_1: 
+0.0099995000374968751 a1_x1
-0.99995000374968757 a1_z1
<= 0

a1_act_2: 
+0.0099995000374968751 a1_x2
-0.99995000374968757 a1_z2
<= 0

a2_local_1: 
+0.33605806935615101 a2_x5
+0.59684928849931795 a2_x3
+0.72858486179612203 a2_x6
<= 54.193337951737661

a2_local_2: 
+0.64885288438045774 a2_x5
+0.55926572252859486 a2_x1
+0.51595715523261165 a2_x4
<= 106.3923668157273

a2_local_3: 
+0.70420377354837271 a2_x6
+0.42189333209041835 a2_x1
+0.57105434212330097 a2_x3
<= 92.464126339695213

a2_local_4: 
+0.31152223204326318 a2_x4
+0.73618456743677296 a2_x2
+0.60082125595780556 a2_x5
<= 75.440842778789488

a2_local_5: 
+0.51109331040276573 a2_x5
+0.64216338199646661 a2_x3
+0.5713228674614752 a2_x1
<= 94.271771324037104

a2_local_6: 
+0.62672817374121104 a2_x6
+0.26087873167654946 a2_x2
+0.73427112403923489 a2_x1
<= 81.922087083214024

a2_local_7: 
+0.60823032939991051 a2_x2
+0.5378420056242369 a2_x1
+0.58376522968071243 a2_x3
<= 55.669065228086083

a2_local_8: 
+0.64747528664165765 a2_x6
+0.53996813179999203 a2_x3
+0.53778264180682678 a2_x5
<= 82.421864558868094

a2_act_1: 
+0.0099995000374968751 a2_x1
-0.99995000374968757 a2_z1
<= 0

a2_act_2: 
+0.0099995000374968751 a2_x2
-0.99995000374968757 a2_z2
<= 0

a3_local_1: 
+0.70503740847773999 a3_x2
+0.60476653688604631 a3_x3
+0.37037776459967331 a3_x1
<= 56.19703055529969

a3_local_2: 
+0.49574343623345002 a3_x6
+0.80971240511796694 a3_x2
+0.31401316282845304 a3_x3
<= 78.972640593996573

a3_local_3: 
+0.69477170374508623 a3_x4
+0.5386882900824892 a3_x2
+0.47655766262138111 a3_x3
<= 59.190489731768594

a3_local_4: 
+0.58951766107536552 a3_x4
+0.6572155206519722 a3_x1
+0.46961333743238964 a3_x3
<= 96.602387510134008

a3_local_5: 
+0.53447684292787667 a3_x3
+0.53741971666554778 a3_x4
+0.65231476490492857 a3_x6
<= 57.84159587660811

a3_local_6: 
+0.67314669660253024 a3_x3
+0.45454329667832338 a3_x4
+0.58332145194386853 a3_x5
<= 109.18886243920755

a3_local_7: 
+0.4636542972641009 a3_x5
+0.59152824592302933 a3_x6
+0.65963552580478635 a3_x2
<= 86.025905751169972

a3_local_8: 
+0.55179200407085471 a3_x4
+0.62769603711190181 a3_x6
+0.54911134502711179 a3_x5
<= 58.144802456674114

a3_act_1: 
+0.0099995000374968751 a3_x1
-0.99995000374968757 a3_z1
<= 0

a3_act_2: 
+0.0099995000374968751 a3_x2
-0.99995000374968757 a3_z2
<= 0

a4_local_1: 
+0.68273213045907311 a4_x4
+0.32570646856175334 a4_x6
+0.65405820411936322 a4_x5
<= 66.898944369983795

a4_local_2: 
+0.441041663298329 a4_x5
+0.66064954687021404 a4_x4
+0.60747380804049844 a4_x2
<= 54.052014173447503

a4_local_3: 
+0.601163321723993 a4_x4
+0.72855972185531825 a4_x2
+0.3283342691585453 a4_x1
<= 73.264685613368627

a4_local_4: 
+0.62033979026957808 a4_x6
+0.70332783652929676 a4_x1
+0.34714334066969321 a4_x5
<= 111.98715338350441

a4_local_5: 
+0.53199719226271058 a4_x3
+0.29003253091656628 a4_x6
+0.79552505833237186 a4_x1
<= 94.954731567267402

a4_local_6: 
+0.69856826325990229 a4_x5
+0.49896348130808549 a4_x2
+0.51287213405190935 a4_x1
<= 91.341146817584715

a4_local_7: 
+0.8259700223066917 a4_x2
+0.39562557118909619 a4_x4
+0.40156435308924626 a4_x1
<= 101.75096161790388

a4_local_8: 
+0.75775525407884992 a4_x6
+0.38714041844742525 a4_x5
+0.52528970227889493 a4_x4
<= 64.62551932718398

a4_act_1: 
+0.0099995000374968751 a4_x1
-0.99995000374968757 a4_z1
<= 0

a4_act_2: 
+0.0099995000374968751 a4_x2
-0.99995000374968757 a4_z2
<= 0

coupling_1: 
+1.4078773537548048e-06 a1_x1
+6.5063957163539031e-05 a2_x1
+0.0084683113215972498 a3_x1
+0.99996311895962131 a4_x1
+0.0010109867966670134 short_1
-0.0010109867966670134 surp_1
= 58.461105248238638

coupling_2: 
+9.4602151027677386e-07 a1_x2
+8.7780258874075825e-05 a2_x2
+0.010389817350081768 a3_x2
+0.999945015518516 a4_x2
+0.0010024791364202468 short_2
-0.0010024791364202468 surp_2
= 44.758265809162545

coupling_3: 
+1.0934513497034768e-06 a1_x3
+6.820884627016974e-05 a2_x3
+0.011223668600275436 a3_x3
+0.99993644733402753 a4_x3
+0.00075030077711059253 short_3
-0.00075030077711059253 surp_3
= 44.471285628884999

bounds
  0 <= a1_x1 <= 100
  0 <= a1_x2 <= 100
  0 <= a1_x3 <= 100
  0 <= a1_x4 <= 100
  0 <= a1_x5 <= 100
  0 <= a1_x6 <= 100
  0 <= a2_x1 <= 100
  0 <= a2_x2 <= 100
  0 <= a2_x3 <= 100
  0 <= a2_x4 <= 100
  0 <= a2_x5 <= 100
  0 <= a2_x6 <= 100
  0 <= a3_x1 <= 100
  0 <= a3_x2 <= 100
  0 <= a3_x3 <= 100
  0 <= a3_x4 <= 100
  0 <= a3_x5 <= 100
  0 <= a3_x6 <= 100
  0 <= a4_x1 <= 100
  0 <= a4_x2 <= 100
  0 <= a4_x3 <= 100
  0 <= a4_x4 <= 100
  0 <= a4_x5 <= 100
  0 <= a4_x6 <= 100
  0 <= short_1 <= +inf
  0 <= surp_1 <= +inf
  0 <= short_2 <= +inf
  0 <= surp_2 <= +inf
  0 <= short_3 <= +inf
  0 <= surp_3 <= +inf
 0 <= a1_z1 <= 1
 0 <= a1_z2 <= 1
 0 <= a2_z1 <= 1
 0 <= a2_z2 <= 1
 0 <= a3_z1 <= 1
 0 <= a3_z2 <= 1
 0 <= a4_z1 <= 1
 0 <= a4_z2 <= 1

binary
  a1_z1
  a1_z2
  a2_z1
  a2_z2
  a3_z1
  a3_z2
  a4_z1
  a4_z2
end
