min
obj: 
  +4.0092711480649195 a1_x1
  +1.9679731558453351 a1_x2
  +5.1245063990813229 a1_x3
  +5.3289660462088069 a1_x4
  +7.7326436197250805 a1_x5
  +5.1395422066191525 a1_x6
  +7.4601303692563201 a1_z1
  +49.872667351617643 a1_z2
  +4.2007388618696755 a2_x1
  +7.5341317217871078 a2_x2
  +3.4571921689270946 a2_x3
  +4.7657113746642423 a2_x4
  +9.3861788498988687 a2_x5
  +1.7288685547688603 a2_x6
  +29.540804107775944 a2_z1
  +23.537170412908246 a2_z2
  +8.2162616662184611 a3_x1
  +4.9087522557742478 a3_x2
  +9.9244206014586318 a3_x3
  +6.7861238771840311 a3_x4
  +8.6736711514090779 a3_x5
  +9.6443958243312533 a3_x6
  +44.884441558292828 a3_z1
  +12.682768889922908 a3_z2
  +8.6978778464740216 a4_x1
  +4.1276908151999692 a4_x2
  +7.0223714932865171 a4_x3
  +1.0610858298808366 a4_x4
  +7.0927412879620659 a4_x5
  +7.9355051703127861 a4_x6
  +37.985653916409667 a4_z1
  +17.373101516361629 a4_z2
  +1000000 short_1
  +1000000 surp_1
  +1000000 short_2
  +1000000 surp_2
  +1000000 short_3
  +1000000 surp_3

s.t.

a1_local_1: 
+0.0013463297193691535 a1_x3
+0.00057198717635448021 a1_x6
+0.00091007319204165576 a1_x4
<= 0.10691467294795189

a1_local_2: 
+0.0011360950830885893 a1_x2
+0.0013716565153331865 a1_x5
+0.00075990679073451473 a1_x3
<= 0.10209056813042165

a1_local_3: 
+0.00083410003067604845 a1_x4
+0.00050509108310422797 a1_x2
+0.00068063549985981529 a1_x5
<= 0.1131956156999353

a1_local_4: 
+0.0014002056070224246 a1_x3
+0.00067027707669014864 a1_x6
+0.00083923798306408343 a1_x5
<= 0.16977302853278289

a1_local_5: 
+0.00060010966400185538 a1_x1
+0.0013946943376067589 a1_x6
+0.0013390078702804704 a1_x3
<= 0.23180420562030424

a1_local_6: 
+0.0013463490246850495 a1_x1
+0.0013401998514857136 a1_x3
+0.00063400133442159873 a1_x2
<= 0.23114731624504431

a1_local_7: 
+0.00062975314302053198 a1_x1
+0.0014426630003982436 a1_x5
+0.0008678052248882786 a1_x4
<= 0.11504970727979065

a1_local_8: 
+0.0013070260743489708 a1_x3
+0.0008297723944781383 a1_x1
+0.0010125555787149859 a1_x6
<= 0.11327183073440378

a1_act_1: 
+1 a1_x1
-100 a1_z1
<= 0

a1_act_2: 
+1 a1_x2
-100 a1_z2
<= 0

a2_local_1: 
+0.11389186482915387 a2_x6
+0.12556612007156542 a2_x5
+0.1253420500086242 a2_x3
<= 20.221502539090221

a2_local_2: 
+0.11201780160919497 a2_x4
+0.1215251502494271 a2_x5
+0.071266504512606951 a2_x3
<= 9.413723570042082

a2_local_3: 
+0.14918041363191711 a2_x1
+0.11966018232006029 a2_x5
+0.11926409072751723 a2_x6
<= 15.61846573662099

a2_local_4: 
+0.070019522366085413 a2_x1
+0.096615432559182493 a2_x4
+0.061730206444811579 a2_x5
<= 14.668589016734968

a2_local_5: 
+0.082899059603729675 a2_x5
+0.097488920753936642 a2_x1
+0.072061370582146081 a2_x3
<= 16.746304504770475

a2_local_6: 
+0.088757429724456272 a2_x6
+0.10160042378045352 a2_x2
+0.13218988138778309 a2_x4
<= 14.769107061530301

a2_local_7: 
+0.10988390136959236 a2_x6
+0.098518746630346016 a2_x4
+0.098737434589808493 a2_x3
<= 16.94884161123888

a2_local_8: 
+0.11029831671209277 a2_x3
+0.088922777670890213 a2_x5
+0.06308929224999342 a2_x4
<= 10.201855373640351

a2_act_1: 
+1 a2_x1
-100 a2_z1
<= 0

a2_act_2: 
+1 a2_x2
-100 a2_z2
<= 0

a3_local_1: 
+14.168955682673516 a3_x1
+10.863480532846193 a3_x2
+9.564918899867445 a3_x5
<= 1272.1783301383055

a3_local_2: 
+9.6616526084625463 a3_x6
+14.100917438385101 a3_x2
+14.430772702575954 a3_x3
<= 2382.2816385188239

a3_local_3: 
+13.069565018477846 a3_x1
+5.1044011409201628 a3_x6
+10.134679502889901 a3_x3
<= 1020.8476746572449

a3_local_4: 
+11.571329369907597 a3_x1
+7.6709413599185918 a3_x2
+14.740091541305279 a3_x3
<= 1120.3616837768941

a3_local_5: 
+13.478053181122947 a3_x6
+8.7909442410099778 a3_x5
+11.738627136575348 a3_x3
<= 2282.6403284193721

a3_local_6: 
+5.2113131791225662 a3_x5
+10.758321268860179 a3_x3
+8.2630402448702949 a3_x4
<= 958.91844256365653

a3_local_7: 
+7.1732151703021874 a3_x1
+5.5411603060911787 a3_x5
+11.181444120224668 a3_x2
<= 1237.7347649172507

a3_local_8: 
+9.6314467142347606 a3_x1
+8.9967847780708006 a3_x3
+13.68908507857137 a3_x6
<= 1989.3469107782375

a3_act_1: 
+1 a3_x1
-100 a3_z1
<= 0

a3_act_2: 
+1 a3_x2
-100 a3_z2
<= 0

a4_local_1: 
+1062.4662179156226 a4_x3
+1398.7653336921428 a4_x5
+1356.2215274067032 a4_x2
<= 218158.17261402166

a4_local_2: 
+1388.5905477343904 a4_x6
+997.68668171715728 a4_x4
+1023.0159129434057 a4_x5
<= 134866.46606888447

a4_local_3: 
+893.58721284099624 a4_x6
+746.29685314550352 a4_x3
+781.37982810660719 a4_x2
<= 159823.21172879124

a4_local_4: 
+768.36115453843126 a4_x3
+762.43721813661011 a4_x6
+1486.3953104817178 a4_x5
<= 111729.94779291347

a4_local_5: 
+774.83512694042975 a4_x1
+1331.9813380499695 a4_x6
+721.28048774247543 a4_x3
<= 111407.72572885129

a4_local_6: 
+638.03244202547751 a4_x6
+720.33024760355181 a4_x3
+916.49182315632288 a4_x4
<= 132864.35967124833

a4_local_7: 
+1239.7093788335915 a4_x6
+1216.7445157202358 a4_x4
+1284.4002327056403 a4_x5
<= 124156.02648464174

a4_local_8: 
+1443.9534246687865 a4_x2
+1479.6501181840433 a4_x4
+1012.9068066987821 a4_x1
<= 121486.25636722606

a4_act_1: 
+1 a4_x1
-100 a4_z1
<= 0

a4_act_2: 
+1 a4_x2
-100 a4_z2
<= 0

coupling_1: 
+0.00011639484373601149 a1_x1
+0.027183286124036234 a2_x1
+2.3795117637501577 a3_x1
+236.30440524637922 a4_x1
+0.19366503999081172 short_1
-0.19366503999081172 surp_1
= 17716.320987939253

coupling_2: 
+0.22175386280494777 a1_x2
+28.538366687471768 a2_x2
+2907.4033438333654 a3_x2
+240943.85879908968 a4_x2
+352.06415831163196 short_2
-352.06415831163196 surp_2
= 6008080.2115893355

coupling_3: 
+0.00073657455720324918 a1_x3
+0.068690985677228755 a2_x3
+5.9530168896268236 a3_x3
+864.23441016536447 a4_x3
+0.81685093377368523 short_3
-0.81685093377368523 surp_3
= 43243.950317729286

bounds
  0 <= a1_x1 <= 100
  0 <= a1_x2 <= 100
  0 <= a1_x3 <= 100
  0 <= a1_x4 <= 100
  0 <= a1_x5 <= 100
  0 <= a1_x6 <= 100
  0 <= a2_x1 <= 100
  0 <= a2_x2 <= 100
  0 <= a2_x3 <= 100
  0 <= a2_x4 <= 100
  0 <= a2_x5 <= 100
  0 <= a2_x6 <= 100
  0 <= a3_x1 <= 100
  0 <= a3_x2 <= 100
  0 <= a3_x3 <= 100
  0 <= a3_x4 <= 100
  0 <= a3_x5 <= 100
  0 <= a3_x6 <= 100
  0 <= a4_x1 <= 100
  0 <= a4_x2 <= 100
  0 <= a4_x3 <= 100
  0 <= a4_x4 <= 100
  0 <= a4_x5 <= 100
  0 <= a4_x6 <= 100
  0 <= short_1 <= +inf
  0 <= surp_1 <= +inf
  0 <= short_2 <= +inf
  0 <= surp_2 <= +inf
  0 <= short_3 <= +inf
  0 <= surp_3 <= +inf
 0 <= a1_z1 <= 1
 0 <= a1_z2 <= 1
 0 <= a2_z1 <= 1
 0 <= a2_z2 <= 1
 0 <= a3_z1 <= 1
 0 <= a3_z2 <= 1
 0 <= a4_z1 <= 1
 0 <= a4_z2 <= 1

binary
  a1_z1
  a1_z2
  a2_z1
  a2_z2
  a3_z1
  a3_z2
  a4_z1
  a4_z2
end
