min
obj: 
  +7.7820756929973847 a1_x1
  +2.6204029212029933 a1_x2
  +1.0229393332967094 a1_x3
  +7.1910932224071349 a1_x4
  +4.2632745770435907 a1_x5
  +6.0246265469097295 a1_x6
  +42.771027111197313 a1_z1
  +28.114118371176183 a1_z2
  +1.0942907269569377 a2_x1
  +2.3925011221889392 a2_x2
  +1.8354708126815493 a2_x3
  +3.2680190161516656 a2_x4
  +8.5745129304172316 a2_x5
  +5.2855415708546367 a2_x6
  +40.375428510282923 a2_z1
  +37.679921062184903 a2_z2
  +8.2763747483341881 a3_x1
  +6.9098336189226917 a3_x2
  +7.224692972136415 a3_x3
  +2.7635056217757095 a3_x4
  +4.5804152664090756 a3_x5
  +5.5391766018428115 a3_x6
  +12.640130628939682 a3_z1
  +24.719908715545547 a3_z2
  +3.7933549198548668 a4_x1
  +7.8772143187643042 a4_x2
  +7.8222341244321543 a4_x3
  +1.2624357252124174 a4_x4
  +2.9341291076023293 a4_x5
  +4.8680356039416175 a4_x6
  +47.52172151037577 a4_z1
  +34.587285029007681 a4_z2
  +1000000 short_1
  +1000000 surp_1
  +1000000 short_2
  +1000000 surp_2
  +1000000 short_3
  +1000000 surp_3

s.t.

a1_local_1: 
+0.9548144481537173 a1_x4
+1.4670520101606459 a1_x6
+0.68163909191637828 a1_x3
<= 155.13401229239369

a1_local_2: 
+0.71963475570136215 a1_x6
+1.389593807243775 a1_x2
+0.97420037318314223 a1_x4
<= 204.89764998788999

a1_local_3: 
+1.1633000613165916 a1_x2
+1.1665244502122574 a1_x5
+0.85724735543952202 a1_x4
<= 210.97803295142532

a1_local_4: 
+1.3559316972520228 a1_x2
+0.73750027529161954 a1_x1
+1.1545234604436827 a1_x3
<= 187.65403366586179

a1_local_5: 
+1.6177757801592965 a1_x3
+0.61813263139687602 a1_x2
+1.0568130285346162 a1_x6
<= 143.78767098743148

a1_local_6: 
+1.0322148212935394 a1_x4
+1.1999253139699961 a1_x5
+0.8333852018601593 a1_x2
<= 112.51439425005971

a1_local_7: 
+0.7512838092901406 a1_x1
+1.3673342509007429 a1_x5
+0.731350069919803 a1_x3
<= 187.9576931246628

a1_local_8: 
+0.92785192085900026 a1_x1
+1.0585134982600268 a1_x5
+1.0777581826572127 a1_x4
<= 97.84001788857519

a1_act_1: 
+0.10000000000000001 a1_x1
-10 a1_z1
<= 0

a1_act_2: 
+0.10000000000000001 a1_x2
-10 a1_z2
<= 0

a2_local_1: 
+0.96681237961033728 a2_x2
+1.1164257192170761 a2_x3
+0.89571566006314962 a2_x4
<= 207.64422064588064

a2_local_2: 
+0.81365107293509698 a2_x1
+1.4168245273331921 a2_x4
+0.70580370448713448 a2_x5
<= 181.133720296202

a2_local_3: 
+0.81206693121382045 a2_x5
+0.80785673412339287 a2_x2
+1.237843243437343 a2_x6
<= 96.155872040029905

a2_local_4: 
+0.69285574422466201 a2_x5
+0.96068947586547815 a2_x4
+1.4433018825860306 a2_x6
<= 140.50547961287532

a2_local_5: 
+0.95609291175455691 a2_x1
+1.2158725853464412 a2_x3
+0.82245459931565768 a2_x2
<= 201.66466457504472

a2_local_6: 
+1.1306515624270175 a2_x5
+0.96951781799049419 a2_x6
+0.88444577731218488 a2_x1
<= 89.870045651971736

a2_local_7: 
+1.0926949955493548 a2_x5
+0.91516846336177093 a2_x6
+0.91880279789158714 a2_x3
<= 167.08700390848446

a2_local_8: 
+0.95080818726687977 a2_x5
+1.0644818752845659 a2_x2
+0.93942416796215711 a2_x4
<= 105.57285381076376

a2_act_1: 
+0.10000000000000001 a2_x1
-10 a2_z1
<= 0

a2_act_2: 
+0.10000000000000001 a2_x2
-10 a2_z2
<= 0

a3_local_1: 
+1.2966254030874387 a3_x1
+1.2832863123614708 a3_x5
+0.77123276901629867 a3_x3
<= 187.72295671711132

a3_local_2: 
+1.0712366867270049 a3_x1
+1.053103465323227 a3_x3
+0.93350051617009377 a3_x5
<= 179.64194274741661

a3_local_3: 
+1.5237082992424522 a3_x5
+1.3065495409032344 a3_x2
+0.65629359667934717 a3_x4
<= 166.54719308023769

a3_local_4: 
+1.3755049623833695 a3_x6
+0.98307829076727826 a3_x3
+0.72700573778176447 a3_x4
<= 190.6235790260514

a3_local_5: 
+0.92457207616445103 a3_x2
+1.081581442680444 a3_x4
+0.99077038187629929 a3_x1
<= 162.91886696417197

a3_local_6: 
+0.71316347611818398 a3_x6
+0.59106261104770375 a3_x4
+1.6918681393624666 a3_x5
<= 156.51896900339369

a3_local_7: 
+0.646305093002987 a3_x6
+1.5472568773264768 a3_x5
+0.72827656365187809 a3_x3
<= 154.92913101766192

a3_local_8: 
+1.4486150837281242 a3_x4
+1.4741849427334122 a3_x6
+0.67834094014405999 a3_x2
<= 219.73027982731443

a3_act_1: 
+0.10000000000000001 a3_x1
-10 a3_z1
<= 0

a3_act_2: 
+0.10000000000000001 a3_x2
-10 a3_z2
<= 0

a4_local_1: 
+0.67063518076601991 a4_x2
+1.4911236819663554 a4_x3
+1.1222589139376518 a4_x4
<= 180.9631776511057

a4_local_2: 
+1.0736735451062871 a4_x4
+0.77026570777014081 a4_x6
+1.2982533039084938 a4_x1
<= 119.50879265831222

a4_local_3: 
+1.2919950909132236 a4_x3
+0.77399674892972548 a4_x2
+1.164002310172108 a4_x5
<= 209.0727569971892

a4_local_4: 
+0.9888049893682137 a4_x2
+1.1985636053515984 a4_x1
+0.83433202504647241 a4_x5
<= 116.74389641354136

a4_local_5: 
+1.1398545341782136 a4_x6
+1.5377741940402772 a4_x2
+0.65029053282045668 a4_x3
<= 213.20567654941246

a4_local_6: 
+0.70813553775724347 a4_x5
+1.4121590383207276 a4_x6
+0.91381062462241536 a4_x2
<= 122.28896128297741

a4_local_7: 
+1.1022737767982003 a4_x6
+1.1355353794836796 a4_x5
+0.88064186996506733 a4_x3
<= 146.24416803062749

a4_local_8: 
+0.87988340984292235 a4_x5
+1.1365142117846285 a4_x6
+1.0440234387397498 a4_x4
<= 99.224503724441789

a4_act_1: 
+0.10000000000000001 a4_x1
-10 a4_z1
<= 0

a4_act_2: 
+0.10000000000000001 a4_x2
-10 a4_z2
<= 0

coupling_1: 
+0.00073291734350630882 a1_x1
+0.073569281647928544 a2_x1
+13.18048021510277 a3_x1
+1364.4103374821998 a4_x1
+0.99451823696118746 short_1
-0.99451823696118746 surp_1
= 89374.221157009015

coupling_2: 
+0.0006522404479091115 a1_x2
+0.14615253620748564 a2_x2
+8.8775060705048823 a3_x2
+1533.1769184289353 a4_x2
+1.297068965979248 short_2
-1.297068965979248 surp_2
= 107923.98131487709

coupling_3: 
+0.0012723946781899706 a1_x3
+0.12901121095888898 a2_x3
+13.432440701116008 a3_x3
+785.91966560449453 a4_x3
+1.0351409419673794 short_3
-1.0351409419673794 surp_3
= 40949.044115010845

bounds
  0 <= a1_x1 <= 100
  0 <= a1_x2 <= 100
  0 <= a1_x3 <= 100
  0 <= a1_x4 <= 100
  0 <= a1_x5 <= 100
  0 <= a1_x6 <= 100
  0 <= a2_x1 <= 100
  0 <= a2_x2 <= 100
  0 <= a2_x3 <= 100
  0 <= a2_x4 <= 100
  0 <= a2_x5 <= 100
  0 <= a2_x6 <= 100
  0 <= a3_x1 <= 100
  0 <= a3_x2 <= 100
  0 <= a3_x3 <= 100
  0 <= a3_x4 <= 100
  0 <= a3_x5 <= 100
  0 <= a3_x6 <= 100
  0 <= a4_x1 <= 100
  0 <= a4_x2 <= 100
  0 <= a4_x3 <= 100
  0 <= a4_x4 <= 100
  0 <= a4_x5 <= 100
  0 <= a4_x6 <= 100
  0 <= short_1 <= +inf
  0 <= surp_1 <= +inf
  0 <= short_2 <= +inf
  0 <= surp_2 <= +inf
  0 <= short_3 <= +inf
  0 <= surp_3 <= +inf
 0 <= a1_z1 <= 1
 0 <= a1_z2 <= 1
 0 <= a2_z1 <= 1
 0 <= a2_z2 <= 1
 0 <= a3_z1 <= 1
 0 <= a3_z2 <= 1
 0 <= a4_z1 <= 1
 0 <= a4_z2 <= 1

binary
  a1_z1
  a1_z2
  a2_z1
  a2_z2
  a3_z1
  a3_z2
  a4_z1
  a4_z2
end
