min
obj: 
  +7.7820756929973847 a1_x1
  +2.6204029212029933 a1_x2
  +1.0229393332967094 a1_x3
  +7.1910932224071349 a1_x4
  +4.2632745770435907 a1_x5
  +6.0246265469097295 a1_x6
  +42.771027111197313 a1_z1
  +28.114118371176183 a1_z2
  +1.0942907269569377 a2_x1
  +2.3925011221889392 a2_x2
  +1.8354708126815493 a2_x3
  +3.2680190161516656 a2_x4
  +8.5745129304172316 a2_x5
  +5.2855415708546367 a2_x6
  +40.375428510282923 a2_z1
  +37.679921062184903 a2_z2
  +8.2763747483341881 a3_x1
  +6.9098336189226917 a3_x2
  +7.224692972136415 a3_x3
  +2.7635056217757095 a3_x4
  +4.5804152664090756 a3_x5
  +5.5391766018428115 a3_x6
  +12.640130628939682 a3_z1
  +24.719908715545547 a3_z2
  +3.7933549198548668 a4_x1
  +7.8772143187643042 a4_x2
  +7.8222341244321543 a4_x3
  +1.2624357252124174 a4_x4
  +2.9341291076023293 a4_x5
  +4.8680356039416175 a4_x6
  +47.52172151037577 a4_z1
  +34.587285029007681 a4_z2
  +1000000 short_1
  +1000000 surp_1
  +1000000 short_2
  +1000000 surp_2
  +1000000 short_3
  +1000000 surp_3

s.t.

a1_local_1: 
+0.50830128584377543 a1_x4
+0.78099407126304765 a1_x6
+0.3628747214418967 a1_x3
<= 82.586536136739312

a1_local_2: 
+0.3903966645294667 a1_x6
+0.75384461784374823 a1_x2
+0.52849667593304728 a1_x4
<= 111.15549727338852

a1_local_3: 
+0.62639781087864566 a1_x2
+0.62813403544600321 a1_x5
+0.46159876087437646 a1_x4
<= 113.60454828368597

a1_local_4: 
+0.70345461954399757 a1_x2
+0.38261364980276902 a1_x1
+0.59896443402493715 a1_x3
<= 97.35453277317977

a1_local_5: 
+0.79739452556466095 a1_x3
+0.30467483961233105 a1_x2
+0.52089846679243501 a1_x6
<= 70.87230696319412

a1_local_6: 
+0.57704193843430318 a1_x4
+0.67079760420600565 a1_x5
+0.46588966019806111 a1_x2
<= 62.899236496578531

a1_local_7: 
+0.43601959552897129 a1_x1
+0.79355433946322207 a1_x5
+0.42445073051396881 a1_x3
<= 109.08425859757109

a1_local_8: 
+0.52337360990039961 a1_x1
+0.5970759107765411 a1_x5
+0.60793126357359539 a1_x4
<= 55.188637544292867

a1_act_1: 
+0.0099995000374968751 a1_x1
-0.99995000374968757 a1_z1
<= 0

a1_act_2: 
+0.0099995000374968751 a1_x2
-0.99995000374968757 a1_z2
<= 0

a2_local_1: 
+0.55973648162610345 a2_x2
+0.64635519491725879 a2_x3
+0.51857500242520649 a2_x4
<= 120.21571914621443

a2_local_2: 
+0.45716660215124966 a2_x1
+0.79607202221084428 a2_x4
+0.39657033844025497 a2_x5
<= 101.77370889970538

a2_local_3: 
+0.48150520628687665 a2_x5
+0.47900882114839483 a2_x2
+0.73396409011657893 a2_x6
<= 57.014454378931298

a2_local_4: 
+0.37108491094252499 a2_x5
+0.51453332323007472 a2_x4
+0.77301452001666437 a2_x6
<= 75.252985666485444

a2_local_5: 
+0.5457695991910354 a2_x1
+0.6940604677783111 a2_x3
+0.46948441046131489 a2_x2
<= 115.11689063162034

a2_local_6: 
+0.6527186637119422 a2_x5
+0.55969707700688864 a2_x6
+0.51058547573549484 a2_x1
<= 51.881462030414589

a2_local_7: 
+0.64435631509092817 a2_x5
+0.53966988147753669 a2_x6
+0.54181302884709415 a2_x3
<= 98.53030038261177

a2_local_8: 
+0.55644931175132029 a2_x5
+0.62297550105928134 a2_x2
+0.54978694830945118 a2_x4
<= 61.785271340046855

a2_act_1: 
+0.0099995000374968751 a2_x1
-0.99995000374968757 a2_z1
<= 0

a2_act_2: 
+0.0099995000374968751 a2_x2
-0.99995000374968757 a2_z2
<= 0

a3_local_1: 
+0.65465585444098084 a3_x1
+0.64792105361424945 a3_x5
+0.38938929174997883 a3_x3
<= 94.779827955862089

a3_local_2: 
+0.60569249579577078 a3_x1
+0.59543971388029249 a3_x3
+0.52781450119416529 a3_x5
<= 101.57211566822713

a3_local_3: 
+0.721538857307648 a3_x5
+0.61870520967028309 a3_x2
+0.31078214382751268 a3_x4
<= 78.866979619823837

a3_local_4: 
+0.74740317250648791 a3_x6
+0.53417170670805203 a3_x3
+0.39503048677265917 a3_x4
<= 103.57844690850575

a3_local_5: 
+0.53324428707979965 a3_x2
+0.62379898786635002 a3_x4
+0.57142396960022046 a3_x1
<= 93.962988182120142

a3_local_6: 
+0.36973940424554813 a3_x6
+0.30643624498288274 a3_x4
+0.87714856250747963 a3_x5
<= 81.147215596963491

a3_local_7: 
+0.35353124402877611 a3_x6
+0.84635515733245292 a3_x5
+0.39836993756083655 a3_x3
<= 84.746799952446182

a3_local_8: 
+0.66594347090824579 a3_x4
+0.67769820192539965 a3_x6
+0.31184040896227461 a3_x2
<= 101.01230261613421

a3_act_1: 
+0.0099995000374968751 a3_x1
-0.99995000374968757 a3_z1
<= 0

a3_act_2: 
+0.0099995000374968751 a3_x2
-0.99995000374968757 a3_z2
<= 0

a4_local_1: 
+0.33817599434806367 a4_x2
+0.75191735880741373 a4_x3
+0.56591278689457203 a4_x4
<= 91.252896206021333

a4_local_2: 
+0.57959863448861604 a4_x4
+0.41581070377661739 a4_x6
+0.70083299117815911 a4_x1
<= 64.514147107241882

a4_local_3: 
+0.67875539047922606 a4_x3
+0.40662264837098566 a4_x2
+0.61151381155878981 a4_x5
<= 109.83730651320779

a4_local_4: 
+0.56066381900763096 a4_x2
+0.67959937047783681 a4_x1
+0.47307586886450531 a4_x5
<= 66.19513403837955

a4_local_5: 
+0.56383581487734236 a4_x6
+0.76066913785552093 a4_x2
+0.32167007410659421 a4_x3
<= 105.46345412432956

a4_local_6: 
+0.38801516538316289 a4_x5
+0.77377718471345081 a4_x6
+0.50071259206215568 a4_x2
<= 67.006906173682324

a4_local_7: 
+0.60863090104425599 a4_x6
+0.62699660985340733 a4_x5
+0.48625474550526615 a4_x3
<= 80.750101866247817

a4_local_8: 
+0.49529887827268865 a4_x5
+0.63976000449694503 a4_x6
+0.58769563366413158 a4_x4
<= 55.85488354718926

a4_act_1: 
+0.0099995000374968751 a4_x1
-0.99995000374968757 a4_z1
<= 0

a4_act_2: 
+0.0099995000374968751 a4_x2
-0.99995000374968757 a4_z2
<= 0

coupling_1: 
+5.3714248391101216e-07 a1_x1
+5.3917658019750517e-05 a2_x1
+0.009659746688501324 a3_x1
+0.99995281083526799 a4_x1
+0.00072886526813583925 short_1
-0.00072886526813583925 surp_1
= 65.500825673222351

coupling_2: 
+4.2541016413941221e-07 a1_x2
+9.5324929045310895e-05 a2_x2
+0.0057901673021179597 a3_x2
+0.99998251659255966 a4_x2
+0.00084598605236187369 short_2
-0.00084598605236187369 surp_2
= 70.391155214186384

coupling_3: 
+1.6187489745302154e-06 a1_x3
+0.00016412892086257465 a2_x3
+0.017088840422769425 a3_x3
+0.99985222711727084 a4_x3
+0.0013169131929155725 short_3
-0.0013169131929155725 surp_3
= 52.09564634729611

bounds
  0 <= a1_x1 <= 100
  0 <= a1_x2 <= 100
  0 <= a1_x3 <= 100
  0 <= a1_x4 <= 100
  0 <= a1_x5 <= 100
  0 <= a1_x6 <= 100
  0 <= a2_x1 <= 100
  0 <= a2_x2 <= 100
  0 <= a2_x3 <= 100
  0 <= a2_x4 <= 100
  0 <= a2_x5 <= 100
  0 <= a2_x6 <= 100
  0 <= a3_x1 <= 100
  0 <= a3_x2 <= 100
  0 <= a3_x3 <= 100
  0 <= a3_x4 <= 100
  0 <= a3_x5 <= 100
  0 <= a3_x6 <= 100
  0 <= a4_x1 <= 100
  0 <= a4_x2 <= 100
  0 <= a4_x3 <= 100
  0 <= a4_x4 <= 100
  0 <= a4_x5 <= 100
  0 <= a4_x6 <= 100
  0 <= short_1 <= +inf
  0 <= surp_1 <= +inf
  0 <= short_2 <= +inf
  0 <= surp_2 <= +inf
  0 <= short_3 <= +inf
  0 <= surp_3 <= +inf
 0 <= a1_z1 <= 1
 0 <= a1_z2 <= 1
 0 <= a2_z1 <= 1
 0 <= a2_z2 <= 1
 0 <= a3_z1 <= 1
 0 <= a3_z2 <= 1
 0 <= a4_z1 <= 1
 0 <= a4_z2 <= 1

binary
  a1_z1
  a1_z2
  a2_z1
  a2_z2
  a3_z1
  a3_z2
  a4_z1
  a4_z2
end
