min
obj: 
  +3.043052453503527 a1_x1
  +8.5242104678500681 a1_x2
  +7.6930756521091874 a1_x3
  +6.9189962156082423 a1_x4
  +9.2097073421305335 a1_x5
  +1.6783613276554563 a1_x6
  +29.957301038510835 a1_z1
  +31.080729858907144 a1_z2
  +8.695776775262491 a2_x1
  +6.9077742042221582 a2_x2
  +5.0875445936298673 a2_x3
  +7.5917023578038236 a2_x4
  +8.2794490372741638 a2_x5
  +1.0351287904006585 a2_x6
  +28.928861886453006 a2_z1
  +23.934213589769115 a2_z2
  +5.1403805558345264 a3_x1
  +3.338751629164217 a3_x2
  +6.1106898664601106 a3_x3
  +6.5508211726549801 a3_x4
  +5.1951326468311683 a3_x5
  +3.9370151452755238 a3_x6
  +16.85304582879688 a3_z1
  +38.539597563502319 a3_z2
  +1.4163415069349607 a4_x1
  +8.5438219758017482 a4_x2
  +7.1495610706401269 a4_x3
  +5.5659057933768521 a4_x4
  +2.526471255000704 a4_x5
  +2.3501129539553487 a4_x6
  +43.904023055410626 a4_z1
  +7.4539102618189466 a4_z2
  +1000000 short_1
  +1000000 surp_1
  +1000000 short_2
  +1000000 surp_2
  +1000000 short_3
  +1000000 surp_3

s.t.

a1_local_1: 
+0.00050697184382356467 a1_x4
+0.00063070814300599063 a1_x3
+0.0013587378415029253 a1_x1
<= 0.15507791307576047

a1_local_2: 
+0.00066164660390064379 a1_x6
+0.0011527811145222585 a1_x4
+0.00070176638952812757 a1_x2
<= 0.11248339228263182

a1_local_3: 
+0.0014402458914565058 a1_x3
+0.00085063838979128076 a1_x1
+0.00056510120820102883 a1_x4
<= 0.11996111016040328

a1_local_4: 
+0.0011941568485196918 a1_x3
+0.00066990276680099336 a1_x1
+0.0012564030974360767 a1_x2
<= 0.15483620191602446

a1_local_5: 
+0.00065664062725785937 a1_x3
+0.0011289596560646827 a1_x2
+0.001200766114697299 a1_x4
<= 0.11795229950525705

a1_local_6: 
+0.00077678333966014644 a1_x3
+0.0014644029138318369 a1_x5
+0.00102187490811662 a1_x4
<= 0.11336873851693559

a1_local_7: 
+0.0013717009937621618 a1_x5
+0.0011557767113027039 a1_x6
+0.0008783244488474014 a1_x1
<= 0.15048104713057797

a1_local_8: 
+0.00090391888862948442 a1_x2
+0.00073252222234778959 a1_x3
+0.00081837805538173352 a1_x6
<= 0.12247196392418679

a1_act_1: 
+1 a1_x1
-100 a1_z1
<= 0

a1_act_2: 
+1 a1_x2
-100 a1_z2
<= 0

a2_local_1: 
+0.051763416276260167 a2_x6
+0.063449014894038827 a2_x3
+0.071696149193246281 a2_x1
<= 6.3170220165870488

a2_local_2: 
+0.069869615780394412 a2_x4
+0.086996200471950946 a2_x1
+0.13342349175535886 a2_x5
<= 15.252397417872887

a2_local_3: 
+0.086714082239075244 a2_x6
+0.10297548042271534 a2_x5
+0.13914658806165911 a2_x3
<= 20.170039548043729

a2_local_4: 
+0.083075215020277149 a2_x4
+0.12954504241131476 a2_x3
+0.088240351914935067 a2_x6
<= 14.714732614131389

a2_local_5: 
+0.1231743411455722 a2_x6
+0.11192088007077866 a2_x2
+0.083808315619548102 a2_x5
<= 18.185753343350019

a2_local_6: 
+0.09651806182433971 a2_x2
+0.082091276752422226 a2_x1
+0.10164638198111375 a2_x4
<= 11.63410653723343

a2_local_7: 
+0.082007948193532507 a2_x6
+0.14330288837289698 a2_x2
+0.13628256696790603 a2_x5
<= 16.48212271473459

a2_local_8: 
+0.14153230658338653 a2_x2
+0.073508875299267987 a2_x4
+0.10230762148015271 a2_x5
<= 13.808495429045472

a2_act_1: 
+1 a2_x1
-100 a2_z1
<= 0

a2_act_2: 
+1 a2_x2
-100 a2_z2
<= 0

a3_local_1: 
+9.0291179321423201 a3_x6
+13.817130611620719 a3_x5
+12.258323573577714 a3_x2
<= 2341.7202784993024

a3_local_2: 
+13.797300792594758 a3_x4
+6.4865264445116724 a3_x3
+9.6683109652044052 a3_x1
<= 1289.3156937678907

a3_local_3: 
+11.803564308726768 a3_x2
+11.442523588202743 a3_x4
+13.428979975795862 a3_x3
<= 1984.2221657540154

a3_local_4: 
+10.826215934152783 a3_x5
+13.869576296947976 a3_x2
+12.457491908940476 a3_x1
<= 2467.4025280012174

a3_local_5: 
+9.2677757695015508 a3_x6
+10.873834695465764 a3_x2
+5.5303898786149919 a3_x3
<= 1785.4160587980048

a3_local_6: 
+13.158886949706602 a3_x1
+13.722404088213484 a3_x4
+5.5190652573628682 a3_x3
<= 1833.0885474283689

a3_local_7: 
+13.991555163746753 a3_x2
+11.91641723655694 a3_x6
+10.692734261014136 a3_x5
<= 2557.9436746935557

a3_local_8: 
+8.4245882872092981 a3_x2
+6.6313149123521784 a3_x3
+9.4777321892251276 a3_x4
<= 1117.6871623168338

a3_act_1: 
+1 a3_x1
-100 a3_z1
<= 0

a3_act_2: 
+1 a3_x2
-100 a3_z2
<= 0

a4_local_1: 
+770.04214379245366 a4_x4
+639.81232959295278 a4_x5
+1106.5667947026361 a4_x6
<= 92838.201816159824

a4_local_2: 
+1257.6350377333415 a4_x3
+1462.9530018541873 a4_x1
+1010.4540539742004 a4_x2
<= 247448.82097822841

a4_local_3: 
+565.16529911070427 a4_x4
+720.32831130866691 a4_x6
+1170.0823344984269 a4_x2
<= 76121.878957919631

a4_local_4: 
+986.79356709185174 a4_x2
+896.52566412003273 a4_x3
+708.70243523321187 a4_x1
<= 153822.7275771806

a4_local_5: 
+719.1663336918806 a4_x4
+1301.4117074196288 a4_x5
+847.31537185675074 a4_x2
<= 196965.719475958

a4_local_6: 
+1270.3666453410992 a4_x6
+527.33861341418901 a4_x5
+969.16414774672842 a4_x3
<= 190001.06948836453

a4_local_7: 
+521.63364395311373 a4_x4
+1224.8324706887529 a4_x3
+1303.2917768911807 a4_x5
<= 200217.74025067684

a4_local_8: 
+979.25406698896484 a4_x1
+576.15560200627965 a4_x6
+1366.3715836365404 a4_x4
<= 161399.03016250153

a4_act_1: 
+1 a4_x1
-100 a4_z1
<= 0

a4_act_2: 
+1 a4_x2
-100 a4_z2
<= 0

coupling_1: 
+0.23570392399642889 a1_x1
+9.2052898299354808 a2_x1
+889.92230359564871 a3_x1
+204883.8309790192 a4_x1
+164.26021024460852 short_1
-164.26021024460852 surp_1
= 4152772.838277461

coupling_2: 
+1.5751516927128285e-06 a1_x2
+0.0001913899307160079 a2_x2
+0.027737713759118383 a3_x2
+2.566039751046409 a4_x2
+0.0020997807452648076 short_2
-0.0020997807452648076 surp_2
= 86.163793935921433

coupling_3: 
+1.1362463287758933e-06 a1_x3
+0.0001656958976621271 a2_x3
+0.018728434368337352 a3_x3
+0.97227127719927076 a4_x3
+0.0017535794986970105 short_3
-0.0017535794986970105 surp_3
= 20.655606747373163

bounds
  0 <= a1_x1 <= 100
  0 <= a1_x2 <= 100
  0 <= a1_x3 <= 100
  0 <= a1_x4 <= 100
  0 <= a1_x5 <= 100
  0 <= a1_x6 <= 100
  0 <= a2_x1 <= 100
  0 <= a2_x2 <= 100
  0 <= a2_x3 <= 100
  0 <= a2_x4 <= 100
  0 <= a2_x5 <= 100
  0 <= a2_x6 <= 100
  0 <= a3_x1 <= 100
  0 <= a3_x2 <= 100
  0 <= a3_x3 <= 100
  0 <= a3_x4 <= 100
  0 <= a3_x5 <= 100
  0 <= a3_x6 <= 100
  0 <= a4_x1 <= 100
  0 <= a4_x2 <= 100
  0 <= a4_x3 <= 100
  0 <= a4_x4 <= 100
  0 <= a4_x5 <= 100
  0 <= a4_x6 <= 100
  0 <= short_1 <= +inf
  0 <= surp_1 <= +inf
  0 <= short_2 <= +inf
  0 <= surp_2 <= +inf
  0 <= short_3 <= +inf
  0 <= surp_3 <= +inf
 0 <= a1_z1 <= 1
 0 <= a1_z2 <= 1
 0 <= a2_z1 <= 1
 0 <= a2_z2 <= 1
 0 <= a3_z1 <= 1
 0 <= a3_z2 <= 1
 0 <= a4_z1 <= 1
 0 <= a4_z2 <= 1

binary
  a1_z1
  a1_z2
  a2_z1
  a2_z2
  a3_z1
  a3_z2
  a4_z1
  a4_z2
end
