min
obj: 
  +9.9278906915658744 a1_x1
  +4.1029321056614965 a1_x2
  +3.3290118192963942 a1_x3
  +9.1017647242801925 a1_x4
  +1.0276781995025082 a1_x5
  +7.5015228430107515 a1_x6
  +48.476105885704612 a1_z1
  +46.462393702811802 a1_z2
  +6.9375805284658387 a2_x1
  +8.736124438174345 a2_x2
  +2.0422875685559534 a2_x3
  +7.9141637375248139 a2_x4
  +8.8510497644699591 a2_x5
  +5.3589026031734779 a2_x6
  +22.325512980558837 a2_z1
  +43.599104627831977 a2_z2
  +2.4447445858231625 a3_x1
  +8.7712175698219141 a3_x2
  +5.7628145052800139 a3_x3
  +8.5270938060320436 a3_x4
  +1.138926571582954 a3_x5
  +2.911442950069294 a3_x6
  +15.137864115812766 a3_z1
  +21.64888772902043 a3_z2
  +4.3135462509833289 a4_x1
  +3.737467766634015 a4_x2
  +6.3047039607963935 a4_x3
  +7.2324424815448989 a4_x4
  +3.5312943582825165 a4_x5
  +2.1943254476366931 a4_x6
  +13.983355852863056 a4_z1
  +25.767819676338174 a4_z2
  +1000000 short_1
  +1000000 surp_1
  +1000000 short_2
  +1000000 surp_2
  +1000000 short_3
  +1000000 surp_3

s.t.

a1_local_1: 
+0.0011134504074834207 a1_x4
+0.0010828677723760305 a1_x6
+0.0007542320254637938 a1_x1
<= 0.11764228728839257

a1_local_2: 
+0.00072981777699219032 a1_x4
+0.0006330130572145626 a1_x3
+0.00076105004001529955 a1_x5
<= 0.10712936586724349

a1_local_3: 
+0.00077521577989207399 a1_x4
+0.00097322373212838347 a1_x3
+0.001354047148240749 a1_x2
<= 0.16693932213038173

a1_local_4: 
+0.00089624177448794924 a1_x4
+0.0011305541739845238 a1_x5
+0.00061834428152885714 a1_x2
<= 0.17329111716502107

a1_local_5: 
+0.0013077237350602037 a1_x2
+0.0005619073357209151 a1_x1
+0.0011651134280048089 a1_x6
<= 0.15289584718010465

a1_local_6: 
+0.0005918217510716906 a1_x3
+0.0011999305552737832 a1_x5
+0.00096166051266273077 a1_x4
<= 0.18862263844787799

a1_local_7: 
+0.00066232905162996823 a1_x6
+0.00073614684931468642 a1_x4
+0.0012469721548745544 a1_x3
<= 0.088660277222243289

a1_local_8: 
+0.0014141426269262422 a1_x1
+0.00077447165674464434 a1_x3
+0.0012722878826710684 a1_x4
<= 0.21055666297007231

a1_act_1: 
+1 a1_x1
-100 a1_z1
<= 0

a1_act_2: 
+1 a1_x2
-100 a1_z2
<= 0

a2_local_1: 
+0.081089551120114164 a2_x3
+0.078322266699810961 a2_x1
+0.14335329760817869 a2_x6
<= 18.209736262976858

a2_local_2: 
+0.08214917118527712 a2_x4
+0.14666463514908071 a2_x1
+0.13030364155217714 a2_x5
<= 12.626569500153428

a2_local_3: 
+0.051853748819428447 a2_x2
+0.12230245286696564 a2_x5
+0.1406905817413312 a2_x1
<= 16.251758516819688

a2_local_4: 
+0.10044629798077681 a2_x2
+0.096994442763852745 a2_x1
+0.086604328383331902 a2_x4
<= 15.820182498018308

a2_local_5: 
+0.10290361983072122 a2_x4
+0.13814633552002939 a2_x5
+0.14208602753984412 a2_x2
<= 14.860414647618054

a2_local_6: 
+0.10655675377767725 a2_x1
+0.12337325986812915 a2_x2
+0.080705373932197746 a2_x3
<= 20.293045979935442

a2_local_7: 
+0.11006580463553491 a2_x1
+0.12425913982224475 a2_x2
+0.14733873506606285 a2_x4
<= 24.365826735758095

a2_local_8: 
+0.063592398141613687 a2_x6
+0.14791616535128882 a2_x3
+0.12283444715723922 a2_x5
<= 15.052895531683776

a2_act_1: 
+1 a2_x1
-100 a2_z1
<= 0

a2_act_2: 
+1 a2_x2
-100 a2_z2
<= 0

a3_local_1: 
+13.953462775538153 a3_x4
+5.375449916353789 a3_x6
+14.245019805464148 a3_x3
<= 1438.6056419383924

a3_local_2: 
+12.349419557602834 a3_x6
+12.180292731053568 a3_x4
+10.783100639843365 a3_x3
<= 1409.0143821408658

a3_local_3: 
+9.6516701420437752 a3_x2
+7.0557369578599261 a3_x1
+7.7112983203167182 a3_x4
<= 1124.5357332297078

a3_local_4: 
+5.0414170615585121 a3_x5
+5.417925915211093 a3_x3
+9.3527692671100748 a3_x2
<= 1152.4547765611881

a3_local_5: 
+5.2486216225009032 a3_x1
+7.1275897557554764 a3_x2
+13.771316356525489 a3_x5
<= 910.4452666486892

a3_local_6: 
+9.3877965433242387 a3_x6
+8.0353550105708003 a3_x4
+7.2278742962702687 a3_x2
<= 1445.9058479005107

a3_local_7: 
+10.842333517734243 a3_x2
+6.6586306882747657 a3_x3
+5.5616203460289979 a3_x5
<= 1206.4988899310013

a3_local_8: 
+5.8928897213283324 a3_x5
+7.8937882817395169 a3_x2
+14.223138786988212 a3_x3
<= 1596.4429448292781

a3_act_1: 
+1 a3_x1
-100 a3_z1
<= 0

a3_act_2: 
+1 a3_x2
-100 a3_z2
<= 0

a4_local_1: 
+685.56465866345616 a4_x1
+1386.2282819263992 a4_x4
+1047.8162595376591 a4_x6
<= 133928.07255954639

a4_local_2: 
+1364.7334170554991 a4_x6
+1362.7381719005082 a4_x3
+1087.7655395092409 a4_x4
<= 255192.09696951322

a4_local_3: 
+735.24033586375901 a4_x1
+1392.1278594327405 a4_x2
+595.98220757298532 a4_x5
<= 95870.417562173083

a4_local_4: 
+1303.2955764842243 a4_x4
+1085.3606089393622 a4_x5
+1243.0817034139247 a4_x1
<= 132259.53099642973

a4_local_5: 
+564.16931736229947 a4_x4
+1237.0642344216276 a4_x6
+849.2401140349366 a4_x2
<= 180500.8595537119

a4_local_6: 
+1376.4657945147633 a4_x6
+1266.1144102702735 a4_x2
+928.76616409906239 a4_x3
<= 180398.31564232719

a4_local_7: 
+1393.5486177297296 a4_x6
+1224.7874733283086 a4_x3
+622.2046059340563 a4_x4
<= 201720.21434932484

a4_local_8: 
+1209.8890439555182 a4_x2
+1189.3236725313536 a4_x4
+1369.451483213137 a4_x3
<= 171361.82067958926

a4_act_1: 
+1 a4_x1
-100 a4_z1
<= 0

a4_act_2: 
+1 a4_x2
-100 a4_z2
<= 0

coupling_1: 
+0.0001799515069170992 a1_x1
+0.010503789377491187 a2_x1
+1.7878555027101666 a3_x1
+71.926314671285198 a4_x1
+0.13643400326328378 short_1
-0.13643400326328378 surp_1
= 3279.0969283852105

coupling_2: 
+0.00015671535033258256 a1_x2
+0.026252527818737912 a2_x2
+1.718619889042686 a3_x2
+172.94236378791183 a4_x2
+0.2411506461846929 short_2
-0.2411506461846929 surp_2
= 8268.8235740044256

coupling_3: 
+0.00059398844272779609 a1_x3
+0.028281508948879822 a2_x3
+4.173730968872734 a3_x3
+428.83673667849695 a4_x3
+0.52954316634109189 short_3
-0.52954316634109189 surp_3
= 29222.726347212825

bounds
  0 <= a1_x1 <= 100
  0 <= a1_x2 <= 100
  0 <= a1_x3 <= 100
  0 <= a1_x4 <= 100
  0 <= a1_x5 <= 100
  0 <= a1_x6 <= 100
  0 <= a2_x1 <= 100
  0 <= a2_x2 <= 100
  0 <= a2_x3 <= 100
  0 <= a2_x4 <= 100
  0 <= a2_x5 <= 100
  0 <= a2_x6 <= 100
  0 <= a3_x1 <= 100
  0 <= a3_x2 <= 100
  0 <= a3_x3 <= 100
  0 <= a3_x4 <= 100
  0 <= a3_x5 <= 100
  0 <= a3_x6 <= 100
  0 <= a4_x1 <= 100
  0 <= a4_x2 <= 100
  0 <= a4_x3 <= 100
  0 <= a4_x4 <= 100
  0 <= a4_x5 <= 100
  0 <= a4_x6 <= 100
  0 <= short_1 <= +inf
  0 <= surp_1 <= +inf
  0 <= short_2 <= +inf
  0 <= surp_2 <= +inf
  0 <= short_3 <= +inf
  0 <= surp_3 <= +inf
 0 <= a1_z1 <= 1
 0 <= a1_z2 <= 1
 0 <= a2_z1 <= 1
 0 <= a2_z2 <= 1
 0 <= a3_z1 <= 1
 0 <= a3_z2 <= 1
 0 <= a4_z1 <= 1
 0 <= a4_z2 <= 1

binary
  a1_z1
  a1_z2
  a2_z1
  a2_z2
  a3_z1
  a3_z2
  a4_z1
  a4_z2
end
