min
obj: 
  +1.5770974257819579 a1_x1
  +5.2436233239928463 a1_x2
  +8.0695966456126804 a1_x3
  +3.4781022885686368 a1_x4
  +9.412058306823841 a1_x5
  +8.3165688602967034 a1_x6
  +34.001400959855452 a1_z1
  +10.410503430419741 a1_z2
  +7.418259317223229 a2_x1
  +8.2806614137575387 a2_x2
  +6.0649431138157652 a2_x3
  +8.6541766135972331 a2_x4
  +4.3292904508020413 a2_x5
  +7.270244042047584 a2_x6
  +22.659258388720176 a2_z1
  +14.3292458598275 a2_z2
  +6.5706299309399387 a3_x1
  +3.4667216339522406 a3_x2
  +8.7306868906336064 a3_x3
  +5.7873163324378032 a3_x4
  +5.6599350909197002 a3_x5
  +4.8869920304691288 a3_x6
  +21.678337067529544 a3_z1
  +5.900585939248967 a3_z2
  +6.0616245234979713 a4_x1
  +4.5273516228701549 a4_x2
  +9.793261850532609 a4_x3
  +5.1742521510836195 a4_x4
  +5.4489998276629183 a4_x5
  +4.6550473123840108 a4_x6
  +25.907898635489875 a4_z1
  +20.492987297835271 a4_z2
  +1000000 short_1
  +1000000 surp_1
  +1000000 short_2
  +1000000 surp_2
  +1000000 short_3
  +1000000 surp_3

s.t.

a1_local_1: 
+1.2525172836979446 a1_x1
+1.2804747506447109 a1_x6
+0.7809603426358126 a1_x5
<= 174.32419763247336

a1_local_2: 
+1.0143985275906613 a1_x5
+1.3465585234592654 a1_x2
+0.74263389416676251 a1_x4
<= 206.29586015328485

a1_local_3: 
+1.1150262338239758 a1_x4
+1.2014616684302912 a1_x2
+0.83231952069390536 a1_x6
<= 160.01364310848209

a1_local_4: 
+0.86562711615788279 a1_x3
+0.72180867815834371 a1_x4
+1.3854086688891669 a1_x1
<= 205.19958277131406

a1_local_5: 
+0.7148968530135128 a1_x4
+1.0621280775666027 a1_x6
+1.398803192075456 a1_x3
<= 216.53091627173325

a1_local_6: 
+1.3543704301830986 a1_x2
+1.0152486711624951 a1_x4
+0.73835043774900588 a1_x3
<= 137.81320759539861

a1_local_7: 
+0.80412196758250187 a1_x2
+0.66194989686676675 a1_x4
+1.5106883538064422 a1_x3
<= 116.02611898833612

a1_local_8: 
+0.77556941176978278 a1_x6
+1.0035399772926472 a1_x4
+1.2893752445936282 a1_x3
<= 157.64709663044465

a1_act_1: 
+0.10000000000000001 a1_x1
-10 a1_z1
<= 0

a1_act_2: 
+0.10000000000000001 a1_x2
-10 a1_z2
<= 0

a2_local_1: 
+0.78316029972216339 a2_x1
+0.73716610651001846 a2_x3
+1.3565463620327336 a2_x6
<= 167.29322501769886

a2_local_2: 
+0.66420568852408512 a2_x2
+1.5055577169507159 a2_x3
+1.138042667738252 a2_x5
<= 125.93514372915793

a2_local_3: 
+1.0526518092371473 a2_x6
+1.0527297302652343 a2_x5
+0.9499114266945331 a2_x1
<= 155.83279766741765

a2_local_4: 
+1.5548926250266668 a2_x6
+0.64313122585094873 a2_x4
+1.4470071225202901 a2_x2
<= 195.86404912045774

a2_local_5: 
+0.9959662184490915 a2_x1
+0.83638838772266189 a2_x2
+1.1956167908103357 a2_x3
<= 181.9004474834299

a2_local_6: 
+1.3657571821053711 a2_x4
+0.73219457536255383 a2_x6
+0.86553422277625203 a2_x1
<= 143.40332768780306

a2_local_7: 
+0.81285224979467574 a2_x5
+1.2415828942631677 a2_x1
+0.80542346759171635 a2_x6
<= 189.44640642149733

a2_local_8: 
+0.84257420294121366 a2_x1
+0.97244211947817605 a2_x2
+1.186839089672165 a2_x6
<= 121.79726170506385

a2_act_1: 
+0.10000000000000001 a2_x1
-10 a2_z1
<= 0

a2_act_2: 
+0.10000000000000001 a2_x2
-10 a2_z2
<= 0

a3_local_1: 
+1.049591126442696 a3_x2
+1.2082369882977413 a3_x4
+0.82765219877010909 a3_x6
<= 113.57395477003018

a3_local_2: 
+1.5463043391263314 a3_x2
+0.70076567844565207 a3_x4
+0.64670322309578721 a3_x6
<= 180.69896061602495

a3_local_3: 
+0.80783852159737735 a3_x6
+1.2378711503168387 a3_x3
+0.94971067697734624 a3_x2
<= 186.02777344797275

a3_local_4: 
+1.440293996248877 a3_x3
+1.4924252835179559 a3_x2
+0.67005029400385985 a3_x5
<= 177.26513062053957

a3_local_5: 
+1.4622109441867865 a3_x4
+1.3221804988352315 a3_x2
+0.68389585235675632 a3_x6
<= 115.79051841269047

a3_local_6: 
+0.82686574015006709 a3_x3
+1.2093861813872115 a3_x5
+1.1765794833100727 a3_x1
<= 161.06609342247418

a3_local_7: 
+0.80466499375644907 a3_x2
+1.2833772731155852 a3_x3
+0.77919410055653726 a3_x5
<= 107.91363937623389

a3_local_8: 
+0.95082404318212954 a3_x2
+0.78118964058423679 a3_x5
+1.2800989005078445 a3_x3
<= 148.01432771635595

a3_act_1: 
+0.10000000000000001 a3_x1
-10 a3_z1
<= 0

a3_act_2: 
+0.10000000000000001 a3_x2
-10 a3_z2
<= 0

a4_local_1: 
+0.62341560719084976 a4_x4
+1.6040663539144673 a4_x5
+0.8397565401596635 a4_x1
<= 120.26456270653664

a4_local_2: 
+0.7128199291498345 a4_x6
+1.4028788465449882 a4_x4
+0.75048723574986875 a4_x1
<= 180.62887553039735

a4_local_3: 
+1.1310970543526229 a4_x1
+0.88933429642485795 a4_x3
+0.8840974310311015 a4_x4
<= 178.4896124825909

a4_local_4: 
+1.057851083017362 a4_x3
+1.0453415360570699 a4_x6
+0.94531263998676418 a4_x5
<= 205.71225341977555

a4_local_5: 
+1.4713994267336421 a4_x4
+1.1974945483834225 a4_x5
+0.67962511187047214 a4_x6
<= 163.34060945231482

a4_local_6: 
+0.85324394562225336 a4_x5
+1.1594425820320189 a4_x3
+1.1719977682006528 a4_x2
<= 184.23176422769333

a4_local_7: 
+0.83018279602318368 a4_x6
+0.64176927340222012 a4_x3
+1.5581923931924733 a4_x4
<= 97.928872969313701

a4_local_8: 
+0.79669556493233518 a4_x6
+1.0626200880852859 a4_x4
+1.2551845949900975 a4_x1
<= 128.35968451596028

a4_act_1: 
+0.10000000000000001 a4_x1
-10 a4_z1
<= 0

a4_act_2: 
+0.10000000000000001 a4_x2
-10 a4_z2
<= 0

coupling_1: 
+0.0010587961773999871 a1_x1
+0.087226653009093894 a2_x1
+6.3302016622715067 a3_x1
+944.46884239385076 a4_x1
+0.84137909034871683 short_1
-0.84137909034871683 surp_1
= 67061.064484942443

coupling_2: 
+0.00086468046198776667 a1_x2
+0.074635433858596487 a2_x2
+11.259317594278537 a3_x2
+1156.4965833750362 a4_x2
+0.97983451253548548 short_2
-0.97983451253548548 surp_2
= 78528.850198614091

coupling_3: 
+0.00090187892219249397 a1_x3
+0.10068417731843839 a2_x3
+8.0436965878217332 a3_x3
+1108.7962867221365 a4_x3
+1.0903858847285874 short_3
-1.0903858847285874 surp_3
= 73474.565293337058

bounds
  0 <= a1_x1 <= 100
  0 <= a1_x2 <= 100
  0 <= a1_x3 <= 100
  0 <= a1_x4 <= 100
  0 <= a1_x5 <= 100
  0 <= a1_x6 <= 100
  0 <= a2_x1 <= 100
  0 <= a2_x2 <= 100
  0 <= a2_x3 <= 100
  0 <= a2_x4 <= 100
  0 <= a2_x5 <= 100
  0 <= a2_x6 <= 100
  0 <= a3_x1 <= 100
  0 <= a3_x2 <= 100
  0 <= a3_x3 <= 100
  0 <= a3_x4 <= 100
  0 <= a3_x5 <= 100
  0 <= a3_x6 <= 100
  0 <= a4_x1 <= 100
  0 <= a4_x2 <= 100
  0 <= a4_x3 <= 100
  0 <= a4_x4 <= 100
  0 <= a4_x5 <= 100
  0 <= a4_x6 <= 100
  0 <= short_1 <= +inf
  0 <= surp_1 <= +inf
  0 <= short_2 <= +inf
  0 <= surp_2 <= +inf
  0 <= short_3 <= +inf
  0 <= surp_3 <= +inf
 0 <= a1_z1 <= 1
 0 <= a1_z2 <= 1
 0 <= a2_z1 <= 1
 0 <= a2_z2 <= 1
 0 <= a3_z1 <= 1
 0 <= a3_z2 <= 1
 0 <= a4_z1 <= 1
 0 <= a4_z2 <= 1

binary
  a1_z1
  a1_z2
  a2_z1
  a2_z2
  a3_z1
  a3_z2
  a4_z1
  a4_z2
end
