min
obj: 
  +7.7820756929973847 a1_x1
  +2.6204029212029933 a1_x2
  +1.0229393332967094 a1_x3
  +7.1910932224071349 a1_x4
  +4.2632745770435907 a1_x5
  +6.0246265469097295 a1_x6
  +42.771027111197313 a1_z1
  +28.114118371176183 a1_z2
  +1.0942907269569377 a2_x1
  +2.3925011221889392 a2_x2
  +1.8354708126815493 a2_x3
  +3.2680190161516656 a2_x4
  +8.5745129304172316 a2_x5
  +5.2855415708546367 a2_x6
  +40.375428510282923 a2_z1
  +37.679921062184903 a2_z2
  +8.2763747483341881 a3_x1
  +6.9098336189226917 a3_x2
  +7.224692972136415 a3_x3
  +2.7635056217757095 a3_x4
  +4.5804152664090756 a3_x5
  +5.5391766018428115 a3_x6
  +12.640130628939682 a3_z1
  +24.719908715545547 a3_z2
  +3.7933549198548668 a4_x1
  +7.8772143187643042 a4_x2
  +7.8222341244321543 a4_x3
  +1.2624357252124174 a4_x4
  +2.9341291076023293 a4_x5
  +4.8680356039416175 a4_x6
  +47.52172151037577 a4_z1
  +34.587285029007681 a4_z2
  +1000000 short_1
  +1000000 surp_1
  +1000000 short_2
  +1000000 surp_2
  +1000000 short_3
  +1000000 surp_3

s.t.

a1_local_1: 
+0.00088679212429721387 a1_x4
+0.0013625371621266162 a1_x6
+0.00063307816455164686 a1_x3
<= 0.14408204712186551

a1_local_2: 
+0.00071640751935760408 a1_x6
+0.0013833621076180008 a1_x2
+0.00096983152520084158 a1_x4
<= 0.20397877671564638

a1_local_3: 
+0.0014450104004679902 a1_x2
+0.0014490156228902406 a1_x5
+0.0010648424990039342 a1_x4
<= 0.26206948836575272

a1_local_4: 
+0.0010142073681811304 a1_x2
+0.00055163413817395867 a1_x1
+0.00086355839508213991 a1_x3
<= 0.14036112880798945

a1_local_5: 
+0.001496890642389372 a1_x3
+0.00057194387692118497 a1_x2
+0.00097784473755248855 a1_x6
<= 0.13304341790235891

a1_local_6: 
+0.0011093955519301587 a1_x4
+0.0012896460877189352 a1_x5
+0.00089569905112334678 a1_x2
<= 0.12092731661487696

a1_local_7: 
+0.00080763814962738541 a1_x1
+0.0014698989791395141 a1_x5
+0.00078620916609128933 a1_x3
<= 0.20205653523515479

a1_local_8: 
+0.0010516762300609524 a1_x1
+0.0011997749428466222 a1_x5
+0.0012215878816147047 a1_x4
<= 0.11089702877038

a1_act_1: 
+1 a1_x1
-100 a1_z1
<= 0

a1_act_2: 
+1 a1_x2
-100 a1_z2
<= 0

a2_local_1: 
+0.079488210285249494 a2_x2
+0.091788938793641209 a2_x3
+0.073642866231798332 a2_x4
<= 17.071841262385124

a2_local_2: 
+0.062737882096464789 a2_x1
+0.1092465469584647 a2_x4
+0.05442213630423625 a2_x5
<= 13.966608495511229

a2_local_3: 
+0.086805481379017987 a2_x5
+0.086355434503462017 a2_x2
+0.13231862361115043 a2_x6
<= 10.278533011284868

a2_local_4: 
+0.05148000698419878 a2_x5
+0.071380372233970577 a2_x4
+0.10723904884267449 a2_x6
<= 10.439724476677805

a2_local_5: 
+0.084603053976749581 a2_x1
+0.10759052044235046 a2_x3
+0.072777624437813312 a2_x2
<= 17.844967045028707

a2_local_6: 
+0.065086895818060639 a2_x5
+0.055811098052034935 a2_x6
+0.050913855406587882 a2_x1
<= 5.173443784890015

a2_local_7: 
+0.14789538400210503 a2_x5
+0.1238673114334695 a2_x6
+0.12435921567305015 a2_x3
<= 22.615090858344075

a2_local_8: 
+0.051378578226284666 a2_x5
+0.0575211341595432 a2_x2
+0.050763422893999904 a2_x4
<= 5.7048132322886085

a2_act_1: 
+1 a2_x1
-100 a2_z1
<= 0

a2_act_2: 
+1 a2_x2
-100 a2_z2
<= 0

a3_local_1: 
+14.956868176703876 a3_x1
+14.802998739077303 a3_x5
+8.8963449522615932 a3_x3
<= 2165.4268925113597

a3_local_2: 
+7.2025752892450443 a3_x1
+7.080654621277346 a3_x3
+6.2764913053968838 a3_x5
<= 1207.8419585290499

a3_local_3: 
+13.36846942361926 a3_x5
+11.463196463977122 a3_x2
+5.7580843291901651 a3_x4
<= 1461.2252616788389

a3_local_4: 
+14.968426576358471 a3_x6
+10.697987732930262 a3_x3
+7.9113724080805481 a3_x4
<= 2074.3909505277807

a3_local_5: 
+12.13526930422181 a3_x2
+14.196061529162357 a3_x4
+13.004140739998977 a3_x1
<= 2138.356085282915

a3_local_6: 
+6.1747409822709542 a3_x6
+5.1175623117854663 a3_x4
+14.64860145892931 a3_x5
<= 1355.1788962449498

a3_local_7: 
+5.5225636040131567 a3_x6
+13.221038499139226 a3_x5
+6.222995436090498 a3_x3
<= 1323.8422370834871

a3_local_8: 
+11.418906153605679 a3_x4
+11.620464057856461 a3_x6
+5.3471150636640887 a3_x2
<= 1732.0539269799031

a3_act_1: 
+1 a3_x1
-100 a3_z1
<= 0

a3_act_2: 
+1 a3_x2
-100 a3_z2
<= 0

a4_local_1: 
+588.02134406814275 a4_x2
+1307.4359603982782 a4_x3
+984.01070193230896 a4_x4
<= 158670.78554945521

a4_local_2: 
+1128.3919379255944 a4_x4
+809.52130996422864 a4_x6
+1364.4171156052757 a4_x1
<= 125599.40473667104

a4_local_3: 
+955.38318524557258 a4_x3
+572.342328978605 a4_x2
+860.73719826550428 a4_x5
<= 154601.66832898901

a4_local_4: 
+887.26609320833006 a4_x2
+1075.4849126130321 a4_x1
+748.65572510366133 a4_x5
<= 104755.64139592783

a4_local_5: 
+1013.4994350261854 a4_x6
+1367.3089241876855 a4_x2
+578.20455843654702 a4_x3
<= 189571.4113055596

a4_local_6: 
+711.78231781487852 a4_x5
+1419.4314221294367 a4_x6
+918.51659711587683 a4_x2
<= 122918.72906258651

a4_local_7: 
+1329.1593620549306 a4_x6
+1369.2673384369632 a4_x5
+1061.9080401981864 a4_x3
<= 176346.21196239302

a4_local_8: 
+1107.6923667583901 a4_x5
+1430.7669664222931 a4_x6
+1314.3295814786622 a4_x4
<= 124914.5331545402

a4_act_1: 
+1 a4_x1
-100 a4_z1
<= 0

a4_act_2: 
+1 a4_x2
-100 a4_z2
<= 0

coupling_1: 
+0.0033121113434958624 a1_x1
+0.33246539250008705 a2_x1
+59.563630769489208 a3_x1
+6165.8780434071041 a4_x1
+4.494306435967566 short_1
-4.494306435967566 surp_1
= 403889.16203575878

coupling_2: 
+0.0078366743602500087 a1_x2
+1.7560239277621679 a2_x2
+106.66330864439716 a3_x2
+18421.13331808184 a4_x2
+15.584294322363149 short_2
-15.584294322363149 surp_2
= 1296707.5254803181

coupling_3: 
+0.036010721919974238 a1_x3
+3.6512152416485204 a2_x3
+380.15868431839937 a3_x3
+22242.732553536451 a4_x3
+29.296077112012327 short_3
-29.296077112012327 surp_3
= 1158920.7859719233

bounds
  0 <= a1_x1 <= 100
  0 <= a1_x2 <= 100
  0 <= a1_x3 <= 100
  0 <= a1_x4 <= 100
  0 <= a1_x5 <= 100
  0 <= a1_x6 <= 100
  0 <= a2_x1 <= 100
  0 <= a2_x2 <= 100
  0 <= a2_x3 <= 100
  0 <= a2_x4 <= 100
  0 <= a2_x5 <= 100
  0 <= a2_x6 <= 100
  0 <= a3_x1 <= 100
  0 <= a3_x2 <= 100
  0 <= a3_x3 <= 100
  0 <= a3_x4 <= 100
  0 <= a3_x5 <= 100
  0 <= a3_x6 <= 100
  0 <= a4_x1 <= 100
  0 <= a4_x2 <= 100
  0 <= a4_x3 <= 100
  0 <= a4_x4 <= 100
  0 <= a4_x5 <= 100
  0 <= a4_x6 <= 100
  0 <= short_1 <= +inf
  0 <= surp_1 <= +inf
  0 <= short_2 <= +inf
  0 <= surp_2 <= +inf
  0 <= short_3 <= +inf
  0 <= surp_3 <= +inf
 0 <= a1_z1 <= 1
 0 <= a1_z2 <= 1
 0 <= a2_z1 <= 1
 0 <= a2_z2 <= 1
 0 <= a3_z1 <= 1
 0 <= a3_z2 <= 1
 0 <= a4_z1 <= 1
 0 <= a4_z2 <= 1

binary
  a1_z1
  a1_z2
  a2_z1
  a2_z2
  a3_z1
  a3_z2
  a4_z1
  a4_z2
end
