min
obj: 
  +3.043052453503527 a1_x1
  +8.5242104678500681 a1_x2
  +7.6930756521091874 a1_x3
  +6.9189962156082423 a1_x4
  +9.2097073421305335 a1_x5
  +1.6783613276554563 a1_x6
  +29.957301038510835 a1_z1
  +31.080729858907144 a1_z2
  +8.695776775262491 a2_x1
  +6.9077742042221582 a2_x2
  +5.0875445936298673 a2_x3
  +7.5917023578038236 a2_x4
  +8.2794490372741638 a2_x5
  +1.0351287904006585 a2_x6
  +28.928861886453006 a2_z1
  +23.934213589769115 a2_z2
  +5.1403805558345264 a3_x1
  +3.338751629164217 a3_x2
  +6.1106898664601106 a3_x3
  +6.5508211726549801 a3_x4
  +5.1951326468311683 a3_x5
  +3.9370151452755238 a3_x6
  +16.85304582879688 a3_z1
  +38.539597563502319 a3_z2
  +1.4163415069349607 a4_x1
  +8.5438219758017482 a4_x2
  +7.1495610706401269 a4_x3
  +5.5659057933768521 a4_x4
  +2.526471255000704 a4_x5
  +2.3501129539553487 a4_x6
  +43.904023055410626 a4_z1
  +7.4539102618189466 a4_z2
  +1000000 short_1
  +1000000 surp_1
  +1000000 short_2
  +1000000 surp_2
  +1000000 short_3
  +1000000 surp_3

s.t.

a1_local_1: 
+0.32057420966845834 a1_x4
+0.39881655547319067 a1_x3
+0.85917258520971362 a1_x1
<= 98.060632019235271

a1_local_2: 
+0.44020292127886668 a1_x6
+0.76696171523614187 a1_x4
+0.46689518680276298 a1_x2
<= 74.836805004755618

a1_local_3: 
+0.81574044103210464 a1_x3
+0.48179282396386131 a1_x1
+0.32006750481995982 a1_x4
<= 67.944737415627245

a1_local_4: 
+0.64260247416647354 a1_x3
+0.36048964248785259 a1_x1
+0.67609857110787253 a1_x2
<= 83.320818839767554

a1_local_5: 
+0.3701180977001175 a1_x3
+0.6363425943164378 a1_x2
+0.67681658993664717 a1_x4
<= 66.484282117220644

a1_local_6: 
+0.39889648326338079 a1_x3
+0.75200527944347917 a1_x5
+0.52475675825018409 a1_x4
<= 58.21750904981667

a1_local_7: 
+0.68680950089366721 a1_x5
+0.5786963994661728 a1_x6
+0.43977629168371424 a1_x1
<= 75.345730114436861

a1_local_8: 
+0.63546041559223021 a1_x2
+0.51496752828059766 a1_x3
+0.57532469530859021 a1_x6
<= 86.098527282309291

a1_act_1: 
+0.0099995000374968751 a1_x1
-0.99995000374968757 a1_z1
<= 0

a1_act_2: 
+0.0099995000374968751 a1_x2
-0.99995000374968757 a1_z2
<= 0

a2_local_1: 
+0.475603467576521 a2_x6
+0.58297101831276987 a2_x3
+0.65874587925584882 a2_x1
<= 58.040944589352968

a2_local_2: 
+0.40170922928354114 a2_x4
+0.5001770261915498 a2_x1
+0.76710666636303004 a2_x5
<= 87.692321519524512

a2_local_3: 
+0.44787885382424336 a2_x6
+0.53186909153428885 a2_x5
+0.7186931207181354 a2_x3
<= 104.17839826132287

a2_local_4: 
+0.4683005803784383 a2_x4
+0.73025412611403573 a2_x3
+0.49741680481327116 a2_x6
<= 82.947938463106183

a2_local_5: 
+0.66102465728570348 a2_x6
+0.60063208541513891 a2_x2
+0.44976382739186516 a2_x5
<= 97.595256118018327

a2_local_6: 
+0.59417728467194975 a2_x2
+0.50536418773908043 a2_x1
+0.62574786626139489 a2_x4
<= 71.621017882212641

a2_local_7: 
+0.38305599011855623 a2_x6
+0.66936231184550099 a2_x2
+0.63657065901213106 a2_x5
<= 76.987364942342509

a2_local_8: 
+0.7469602397484344 a2_x2
+0.38795529051050076 a2_x4
+0.53994545354125756 a2_x5
<= 72.876626582553698

a2_act_1: 
+0.0099995000374968751 a2_x1
-0.99995000374968757 a2_z1
<= 0

a2_act_2: 
+0.0099995000374968751 a2_x2
-0.99995000374968757 a2_z2
<= 0

a3_local_1: 
+0.43916412540896543 a3_x6
+0.67204660813131256 a3_x5
+0.596228334996733 a3_x2
<= 113.89811782152444

a3_local_2: 
+0.7642593799654499 a3_x4
+0.3593013411197572 a3_x3
+0.53554658658642362 a3_x1
<= 71.417708978819789

a3_local_3: 
+0.55605910967858829 a3_x2
+0.53905068947928658 a3_x4
+0.63263150468132823 a3_x3
<= 93.475562299258925

a3_local_4: 
+0.50218270487831196 a3_x5
+0.64335141499858828 a3_x2
+0.57785074867167596 a3_x1
<= 114.45244424013073

a3_local_5: 
+0.60492717680726615 a3_x6
+0.70975801389622761 a3_x2
+0.36098015523027449 a3_x3
<= 116.53785360552817

a3_local_6: 
+0.66469134061111479 a3_x1
+0.69315613126423525 a3_x4
+0.27878306872440656 a3_x3
<= 92.594312019392376

a3_local_7: 
+0.6580352043409412 a3_x2
+0.56043963372902372 a3_x6
+0.50288874196352173 a3_x5
<= 120.30235159497802

a3_local_8: 
+0.5887213146905721 a3_x2
+0.46340501164364856 a3_x3
+0.66231639630357508 a3_x4
<= 78.105449569679834

a3_act_1: 
+0.0099995000374968751 a3_x1
-0.99995000374968757 a3_z1
<= 0

a3_act_2: 
+0.0099995000374968751 a3_x2
-0.99995000374968757 a3_z2
<= 0

a4_local_1: 
+0.51602702371966702 a4_x4
+0.42875634124771345 a4_x5
+0.74154171199663255 a4_x6
<= 62.21350526964266

a4_local_2: 
+0.5774745961366714 a4_x3
+0.67175147683171188 a4_x1
+0.46397526247764792 a4_x2
<= 113.62231781999407

a4_local_3: 
+0.38039709920775344 a4_x4
+0.48483302235681563 a4_x6
+0.78754999037945661 a4_x2
<= 51.235526999622742

a4_local_4: 
+0.65355168662442198 a4_x2
+0.59376740934225081 a4_x3
+0.46937240706433192 a4_x1
<= 101.87652858896053

a4_local_5: 
+0.42022637349550407 a4_x4
+0.76044650119543955 a4_x5
+0.49510697211656313 a4_x2
<= 115.09185861552946

a4_local_6: 
+0.75499499136017834 a4_x6
+0.31340401870487727 a4_x5
+0.57598653116255838 a4_x3
<= 112.9200426844295

a4_local_7: 
+0.27999188131792924 a4_x4
+0.65744062282580895 a4_x3
+0.69955441093202975 a4_x5
<= 107.46880002059513

a4_local_8: 
+0.55105963022109283 a4_x1
+0.32422238895329442 a4_x6
+0.76890384733203865 a4_x4
<= 90.824733720910217

a4_act_1: 
+0.0099995000374968751 a4_x1
-0.99995000374968757 a4_z1
<= 0

a4_act_2: 
+0.0099995000374968751 a4_x2
-0.99995000374968757 a4_z2
<= 0

coupling_1: 
+1.1504155683035711e-06 a1_x1
+4.4928860544828078e-05 a2_x1
+0.0043435020311860502 a3_x1
+0.99998992318648139 a4_x1
+0.0008017155587154264 short_1
-0.0008017155587154264 surp_1
= 20.268710184286032

coupling_2: 
+6.1380912589729029e-07 a1_x2
+7.4581315959486693e-05 a2_x2
+0.010808902987337681 a3_x2
+0.99994090975125605 a4_x2
+0.00081824791211517292 short_2
-0.00081824791211517292 surp_2
= 33.576526809754313

coupling_3: 
+1.1362463287758933e-06 a1_x3
+0.0001656958976621271 a2_x3
+0.018728434368337352 a3_x3
+0.97227127719927076 a4_x3
+0.0017535794986970105 short_3
-0.0017535794986970105 surp_3
= 20.655606747373163

bounds
  0 <= a1_x1 <= 100
  0 <= a1_x2 <= 100
  0 <= a1_x3 <= 100
  0 <= a1_x4 <= 100
  0 <= a1_x5 <= 100
  0 <= a1_x6 <= 100
  0 <= a2_x1 <= 100
  0 <= a2_x2 <= 100
  0 <= a2_x3 <= 100
  0 <= a2_x4 <= 100
  0 <= a2_x5 <= 100
  0 <= a2_x6 <= 100
  0 <= a3_x1 <= 100
  0 <= a3_x2 <= 100
  0 <= a3_x3 <= 100
  0 <= a3_x4 <= 100
  0 <= a3_x5 <= 100
  0 <= a3_x6 <= 100
  0 <= a4_x1 <= 100
  0 <= a4_x2 <= 100
  0 <= a4_x3 <= 100
  0 <= a4_x4 <= 100
  0 <= a4_x5 <= 100
  0 <= a4_x6 <= 100
  0 <= short_1 <= +inf
  0 <= surp_1 <= +inf
  0 <= short_2 <= +inf
  0 <= surp_2 <= +inf
  0 <= short_3 <= +inf
  0 <= surp_3 <= +inf
 0 <= a1_z1 <= 1
 0 <= a1_z2 <= 1
 0 <= a2_z1 <= 1
 0 <= a2_z2 <= 1
 0 <= a3_z1 <= 1
 0 <= a3_z2 <= 1
 0 <= a4_z1 <= 1
 0 <= a4_z2 <= 1

binary
  a1_z1
  a1_z2
  a2_z1
  a2_z2
  a3_z1
  a3_z2
  a4_z1
  a4_z2
end
