min
obj: 
  +1.5770974257819579 a1_x1
  +5.2436233239928463 a1_x2
  +8.0695966456126804 a1_x3
  +3.4781022885686368 a1_x4
  +9.412058306823841 a1_x5
  +8.3165688602967034 a1_x6
  +34.001400959855452 a1_z1
  +10.410503430419741 a1_z2
  +7.418259317223229 a2_x1
  +8.2806614137575387 a2_x2
  +6.0649431138157652 a2_x3
  +8.6541766135972331 a2_x4
  +4.3292904508020413 a2_x5
  +7.270244042047584 a2_x6
  +22.659258388720176 a2_z1
  +14.3292458598275 a2_z2
  +6.5706299309399387 a3_x1
  +3.4667216339522406 a3_x2
  +8.7306868906336064 a3_x3
  +5.7873163324378032 a3_x4
  +5.6599350909197002 a3_x5
  +4.8869920304691288 a3_x6
  +21.678337067529544 a3_z1
  +5.900585939248967 a3_z2
  +6.0616245234979713 a4_x1
  +4.5273516228701549 a4_x2
  +9.793261850532609 a4_x3
  +5.1742521510836195 a4_x4
  +5.4489998276629183 a4_x5
  +4.6550473123840108 a4_x6
  +25.907898635489875 a4_z1
  +20.492987297835271 a4_z2
  +1000000 short_1
  +1000000 surp_1
  +1000000 short_2
  +1000000 surp_2
  +1000000 short_3
  +1000000 surp_3

s.t.

a1_local_1: 
+0.0013596352847283126 a1_x1
+0.0013899837350269163 a1_x6
+0.00084774976891834335 a1_x5
<= 0.1892327819886766

a1_local_2: 
+0.00068309729952000593 a1_x5
+0.00090677427658082004 a1_x2
+0.00050009063877707823 a1_x4
<= 0.13891990291781159

a1_local_3: 
+0.00095733733688663756 a1_x4
+0.0010315489260569351 a1_x2
+0.00071461148554972465 a1_x6
<= 0.13738424291027582

a1_local_4: 
+0.00088454130087827659 a1_x3
+0.00073758039142452121 a1_x4
+0.0014156802199848759 a1_x1
<= 0.20968324870626207

a1_local_5: 
+0.00069880301739105031 a1_x4
+0.0010382173348933014 a1_x6
+0.0013673131826474629 a1_x3
<= 0.21165634876039383

a1_local_6: 
+0.0010902814260508552 a1_x2
+0.00081728509743204979 a1_x4
+0.000594379314738457 a1_x3
<= 0.11094097830047916

a1_local_7: 
+0.00077255037158126521 a1_x2
+0.00063596028887263662 a1_x4
+0.0014513754083666612 a1_x3
<= 0.11147067851790111

a1_local_8: 
+0.00089489294982925192 a1_x6
+0.0011579374288391542 a1_x4
+0.0014877492569468566 a1_x3
<= 0.18190154639248796

a1_act_1: 
+1 a1_x1
-100 a1_z1
<= 0

a1_act_2: 
+1 a1_x2
-100 a1_z2
<= 0

a2_local_1: 
+0.076678929049071157 a2_x1
+0.072175654969378264 a2_x3
+0.13281894177090633 a2_x6
<= 16.379616454094116

a2_local_2: 
+0.063058704894805293 a2_x2
+0.14293542108356902 a2_x3
+0.1080440863161941 a2_x5
<= 11.956096133334899

a2_local_3: 
+0.12622231546018017 a2_x6
+0.12623165888456978 a2_x5
+0.11390282969860495 a2_x1
<= 18.685738601896944

a2_local_4: 
+0.1449790841556611 a2_x6
+0.059965926016389129 a2_x4
+0.13491977774742631 a2_x2
<= 18.262476780360561

a2_local_5: 
+0.08639737440774449 a2_x1
+0.072554429403127618 a2_x2
+0.10371652131402742 a2_x3
<= 15.779371604224206

a2_local_6: 
+0.13332273803441669 a2_x4
+0.071475505924706376 a2_x6
+0.084491880368612771 a2_x1
<= 13.998772652333388

a2_local_7: 
+0.073346509576809937 a2_x5
+0.11203237939918331 a2_x1
+0.0726761845021964 a2_x6
<= 17.09441373434899

a2_local_8: 
+0.072932939064814239 a2_x1
+0.084174262155648882 a2_x2
+0.10273239164531943 a2_x6
<= 10.542729928341306

a2_act_1: 
+1 a2_x1
-100 a2_z1
<= 0

a2_act_2: 
+1 a2_x2
-100 a2_z2
<= 0

a3_local_1: 
+10.670084326264586 a3_x2
+12.282869230176093 a3_x4
+8.4138656770337228 a3_x6
<= 1154.5864328815326

a3_local_2: 
+12.250069777504095 a3_x2
+5.5515775526371955 a3_x4
+5.1232861525411266 a3_x6
<= 1431.5260070468723

a3_local_3: 
+9.4207392012829274 a3_x6
+14.435634053285646 a3_x3
+11.075204221242325 a3_x2
<= 2169.3928811210403

a3_local_4: 
+13.979660538051601 a3_x3
+14.485652857211031 a3_x2
+6.5035858498274539 a3_x5
<= 1720.5559127251356

a3_local_5: 
+12.596373390601752 a3_x4
+11.390066063527664 a3_x2
+5.8914943502632529 a3_x6
<= 997.4898702654483

a3_local_6: 
+9.7312418884192642 a3_x3
+14.233059729206747 a3_x5
+13.846963294142167 a3_x1
<= 1895.5593865001229

a3_local_7: 
+8.6910248300395949 a3_x2
+13.861499920465086 a3_x3
+8.4159188331820722 a3_x5
<= 1165.5535242566534

a3_local_8: 
+8.2496047089499864 a3_x2
+6.7778110826676139 a3_x5
+11.10648178627136 a3_x3
<= 1284.2120513006671

a3_act_1: 
+1 a3_x1
-100 a3_z1
<= 0

a3_act_2: 
+1 a3_x2
-100 a3_z2
<= 0

a4_local_1: 
+549.58064319463358 a4_x4
+1414.0868601021493 a4_x5
+740.29898216289303 a4_x1
<= 106020.88713115212

a4_local_2: 
+664.04099881629645 a4_x6
+1306.8785430691464 a4_x4
+699.13069661309976 a4_x1
<= 168268.27367933642

a4_local_3: 
+1107.0484916385776 a4_x1
+870.4259175912083 a4_x3
+865.30039461971535 a4_x4
<= 174694.69619041649

a4_local_4: 
+1142.401540158304 a4_x3
+1128.8921474436343 a4_x6
+1020.8682802230182 a4_x5
<= 222154.13767490551

a4_local_5: 
+1497.3328683873206 a4_x4
+1218.6004115751996 a4_x5
+691.60351682621774 a4_x6
<= 166219.4906642719

a4_local_6: 
+892.33748435442646 a4_x5
+1212.5653890802935 a4_x3
+1225.695822995239 a4_x2
<= 192672.81048121164

a4_local_7: 
+683.86147291638883 a4_x6
+528.65619798879413 a4_x3
+1283.5579708471339 a4_x4
<= 80668.719745387993

a4_local_8: 
+865.58493735763159 a4_x6
+1154.5036559333455 a4_x4
+1363.7189998905585 a4_x1
<= 139458.8025482849

a4_act_1: 
+1 a4_x1
-100 a4_z1
<= 0

a4_act_2: 
+1 a4_x2
-100 a4_z2
<= 0

coupling_1: 
+7.8761603989975615e-06 a1_x1
+0.00064886058793144931 a2_x1
+0.047089028761402835 a3_x1
+7.0257035804723396 a4_x1
+0.0062588407602889359 short_1
-0.0062588407602889359 surp_1
= 498.85304809840716

coupling_2: 
+0.0095137825492814347 a1_x2
+0.82118807977878183 a2_x2
+123.88240969272654 a3_x2
+12724.535243832866 a4_x2
+10.780783071140641 short_2
-10.780783071140641 surp_2
= 864026.00437765021

coupling_3: 
+0.020060486540454798 a1_x3
+2.2395174498847017 a2_x3
+178.91588678359182 a3_x3
+24662.948028347659 a4_x3
+24.253445585937623 short_3
-24.253445585937623 surp_3
= 1634294.2404614303

bounds
  0 <= a1_x1 <= 100
  0 <= a1_x2 <= 100
  0 <= a1_x3 <= 100
  0 <= a1_x4 <= 100
  0 <= a1_x5 <= 100
  0 <= a1_x6 <= 100
  0 <= a2_x1 <= 100
  0 <= a2_x2 <= 100
  0 <= a2_x3 <= 100
  0 <= a2_x4 <= 100
  0 <= a2_x5 <= 100
  0 <= a2_x6 <= 100
  0 <= a3_x1 <= 100
  0 <= a3_x2 <= 100
  0 <= a3_x3 <= 100
  0 <= a3_x4 <= 100
  0 <= a3_x5 <= 100
  0 <= a3_x6 <= 100
  0 <= a4_x1 <= 100
  0 <= a4_x2 <= 100
  0 <= a4_x3 <= 100
  0 <= a4_x4 <= 100
  0 <= a4_x5 <= 100
  0 <= a4_x6 <= 100
  0 <= short_1 <= +inf
  0 <= surp_1 <= +inf
  0 <= short_2 <= +inf
  0 <= surp_2 <= +inf
  0 <= short_3 <= +inf
  0 <= surp_3 <= +inf
 0 <= a1_z1 <= 1
 0 <= a1_z2 <= 1
 0 <= a2_z1 <= 1
 0 <= a2_z2 <= 1
 0 <= a3_z1 <= 1
 0 <= a3_z2 <= 1
 0 <= a4_z1 <= 1
 0 <= a4_z2 <= 1

binary
  a1_z1
  a1_z2
  a2_z1
  a2_z2
  a3_z1
  a3_z2
  a4_z1
  a4_z2
end
