min
obj: 
  +4.6820518769511636 a1_x1
  +5.7129162548306427 a1_x2
  +9.0056358908477314 a1_x3
  +9.0172471176233611 a1_x4
  +9.406385688684578 a1_x5
  +5.7753562095118767 a1_x6
  +36.440798325108226 a1_z1
  +20.355895911925103 a1_z2
  +7.5922132430360731 a2_x1
  +9.5705581106952309 a2_x2
  +1.2604999258751248 a2_x3
  +5.3940318901522675 a2_x4
  +5.1816392623674004 a2_x5
  +3.5951202349319828 a2_x6
  +41.62149658815251 a2_z1
  +8.2240572055779673 a2_z2
  +7.862026295743088 a3_x1
  +4.4443242856945142 a3_x2
  +6.878356128261002 a3_x3
  +6.0922718983064614 a3_x4
  +7.9699820931728009 a3_x5
  +3.3886243612057902 a3_x6
  +44.384252789712569 a3_z1
  +46.436857763791892 a3_z2
  +5.3272595951622712 a4_x1
  +2.1426688948262615 a4_x2
  +3.7175386403807593 a4_x3
  +7.4752828100284079 a4_x4
  +1.4623010448148774 a4_x5
  +9.334818787187654 a4_x6
  +27.5499217848452 a4_z1
  +29.024926983261683 a4_z2
  +1000000 short_1
  +1000000 surp_1
  +1000000 short_2
  +1000000 surp_2
  +1000000 short_3
  +1000000 surp_3

s.t.

a1_local_1: 
+0.71433844523206813 a1_x4
+0.58447109877792236 a1_x2
+0.38485597352355055 a1_x6
<= 73.865137022017976

a1_local_2: 
+0.63507832848342716 a1_x5
+0.70513762142893033 a1_x4
+0.3153671694013927 a1_x1
<= 87.462344294708473

a1_local_3: 
+0.73282679124353745 a1_x6
+0.5793327867679644 a1_x2
+0.35684508713357005 a1_x1
<= 88.193063718139683

a1_local_4: 
+0.69073629674759374 a1_x5
+0.45689189619863813 a1_x2
+0.56047583671683188 a1_x6
<= 61.887982276581589

a1_local_5: 
+0.67415338813499182 a1_x6
+0.65482511177276703 a1_x2
+0.3416449652166621 a1_x1
<= 89.007603634038972

a1_local_6: 
+0.72264038807664033 a1_x5
+0.49351272606175872 a1_x4
+0.48397939908175208 a1_x2
<= 68.392650472563787

a1_local_7: 
+0.69642447315368716 a1_x1
+0.40880718903925839 a1_x4
+0.58980474343839351 a1_x3
<= 109.98056815811319

a1_local_8: 
+0.49110413697685423 a1_x5
+0.62941656160882142 a1_x6
+0.60220554515609348 a1_x4
<= 65.254215562775684

a1_act_1: 
+0.0099995000374968751 a1_x1
-0.99995000374968757 a1_z1
<= 0

a1_act_2: 
+0.0099995000374968751 a1_x2
-0.99995000374968757 a1_z2
<= 0

a2_local_1: 
+0.38951833761824833 a2_x3
+0.52478819809236765 a2_x4
+0.75688361839987139 a2_x5
<= 95.281270196296575

a2_local_2: 
+0.40261040061091308 a2_x3
+0.5776285249890043 a2_x2
+0.71010573328128213 a2_x5
<= 106.76247289549049

a2_local_3: 
+0.65985280170855598 a2_x4
+0.69155764060677405 a2_x6
+0.29384061971715392 a2_x5
<= 112.07236459497345

a2_local_4: 
+0.4682361225787785 a2_x1
+0.54938211080138299 a2_x4
+0.69205074224641072 a2_x5
<= 118.71935989283288

a2_local_5: 
+0.46815634139722817 a2_x2
+0.72579877151780436 a2_x5
+0.50402954603158712 a2_x1
<= 56.046424972762452

a2_local_6: 
+0.71717789227412976 a2_x5
+0.53788526000785097 a2_x4
+0.44309741355544296 a2_x3
<= 113.85102744378888

a2_local_7: 
+0.54884622668452876 a2_x3
+0.62289241071838297 a2_x5
+0.55747005670582528 a2_x6
<= 55.597239595371555

a2_local_8: 
+0.68152136429795562 a2_x2
+0.42810071574506536 a2_x6
+0.59351361162488592 a2_x4
<= 106.98434432294792

a2_act_1: 
+0.0099995000374968751 a2_x1
-0.99995000374968757 a2_z1
<= 0

a2_act_2: 
+0.0099995000374968751 a2_x2
-0.99995000374968757 a2_z2
<= 0

a3_local_1: 
+0.47165918475742169 a3_x2
+0.69047543130792333 a3_x6
+0.54843531267971934 a3_x5
<= 116.90425546168949

a3_local_2: 
+0.45912010802469044 a3_x4
+0.71509657562696161 a3_x5
+0.52711062779457396 a3_x3
<= 82.575269832625182

a3_local_3: 
+0.5710383692622425 a3_x4
+0.63428405376980912 a3_x5
+0.52115153263101555 a3_x1
<= 97.519879195786274

a3_local_4: 
+0.67410012765829042 a3_x3
+0.31894913582251783 a3_x4
+0.66622853935353565 a3_x5
<= 67.676638339284523

a3_local_5: 
+0.51714418357569147 a3_x5
+0.44727244801312249 a3_x3
+0.72973231437437402 a3_x2
<= 85.451339276243417

a3_local_6: 
+0.43747467947771451 a3_x1
+0.59762406601363394 a3_x3
+0.67190875908653169 a3_x5
<= 91.632926449614715

a3_local_7: 
+0.34973093666598259 a3_x6
+0.71086290622709902 a3_x4
+0.6102148805864186 a3_x1
<= 114.64537337574723

a3_local_8: 
+0.62124283604109287 a3_x4
+0.52052328412134763 a3_x3
+0.58575835406347121 a3_x5
<= 56.205868108235052

a3_act_1: 
+0.0099995000374968751 a3_x1
-0.99995000374968757 a3_z1
<= 0

a3_act_2: 
+0.0099995000374968751 a3_x2
-0.99995000374968757 a3_z2
<= 0

a4_local_1: 
+0.40619392836994889 a4_x1
+0.63037479663045715 a4_x4
+0.66153919636594372 a4_x6
<= 58.102038659642552

a4_local_2: 
+0.67935752393686377 a4_x3
+0.54322306387818664 a4_x5
+0.49333767091229597 a4_x2
<= 77.83465502821285

a4_local_3: 
+0.61601167301985948 a4_x5
+0.42250416838824228 a4_x1
+0.66484573127743951 a4_x3
<= 96.155774226156225

a4_local_4: 
+0.70787620322294342 a4_x3
+0.59306796611274448 a4_x1
+0.38364263120977904 a4_x5
<= 87.315149705663458

a4_local_5: 
+0.52441771081369937 a4_x6
+0.53802423647095943 a4_x4
+0.65993634962378045 a4_x2
<= 90.344570108916912

a4_local_6: 
+0.73208625377010117 a4_x1
+0.53810842559023664 a4_x4
+0.41771885204004838 a4_x5
<= 69.51072037264278

a4_local_7: 
+0.7121374123433617 a4_x2
+0.59501038812936236 a4_x5
+0.37258951133794221 a4_x4
<= 66.015852474322827

a4_local_8: 
+0.58309573455085484 a4_x5
+0.44485242451755302 a4_x6
+0.67978355728088469 a4_x2
<= 98.894411062553601

a4_act_1: 
+0.0099995000374968751 a4_x1
-0.99995000374968757 a4_z1
<= 0

a4_act_2: 
+0.0099995000374968751 a4_x2
-0.99995000374968757 a4_z2
<= 0

coupling_1: 
+9.2632490179723635e-07 a1_x1
+0.00012294793123292529 a2_x1
+0.0054682049383990607 a3_x1
+0.99998415452375355 a4_x1
+0.00094189147832481805 short_1
-0.00094189147832481805 surp_1
= 24.624352962581163

coupling_2: 
+9.2663075853907721e-07 a1_x2
+9.2397303723095302e-05 a2_x2
+0.0087277396966673245 a3_x2
+0.99996144290594324 a4_x2
+0.00068217414605571572 short_2
-0.00068217414605571572 surp_2
= 77.635282019271898

coupling_3: 
+9.9532690093012496e-07 a1_x3
+9.4116688967944116e-05 a2_x3
+0.011291771411296945 a3_x3
+0.99993381290016925 a4_x3
+0.001558341808216469 short_3
-0.001558341808216469 surp_3
= 39.166596748224784

bounds
  0 <= a1_x1 <= 100
  0 <= a1_x2 <= 100
  0 <= a1_x3 <= 100
  0 <= a1_x4 <= 100
  0 <= a1_x5 <= 100
  0 <= a1_x6 <= 100
  0 <= a2_x1 <= 100
  0 <= a2_x2 <= 100
  0 <= a2_x3 <= 100
  0 <= a2_x4 <= 100
  0 <= a2_x5 <= 100
  0 <= a2_x6 <= 100
  0 <= a3_x1 <= 100
  0 <= a3_x2 <= 100
  0 <= a3_x3 <= 100
  0 <= a3_x4 <= 100
  0 <= a3_x5 <= 100
  0 <= a3_x6 <= 100
  0 <= a4_x1 <= 100
  0 <= a4_x2 <= 100
  0 <= a4_x3 <= 100
  0 <= a4_x4 <= 100
  0 <= a4_x5 <= 100
  0 <= a4_x6 <= 100
  0 <= short_1 <= +inf
  0 <= surp_1 <= +inf
  0 <= short_2 <= +inf
  0 <= surp_2 <= +inf
  0 <= short_3 <= +inf
  0 <= surp_3 <= +inf
 0 <= a1_z1 <= 1
 0 <= a1_z2 <= 1
 0 <= a2_z1 <= 1
 0 <= a2_z2 <= 1
 0 <= a3_z1 <= 1
 0 <= a3_z2 <= 1
 0 <= a4_z1 <= 1
 0 <= a4_z2 <= 1

binary
  a1_z1
  a1_z2
  a2_z1
  a2_z2
  a3_z1
  a3_z2
  a4_z1
  a4_z2
end
