min
obj: 
  +4.0092711480649195 a1_x1
  +1.9679731558453351 a1_x2
  +5.1245063990813229 a1_x3
  +5.3289660462088069 a1_x4
  +7.7326436197250805 a1_x5
  +5.1395422066191525 a1_x6
  +7.4601303692563201 a1_z1
  +49.872667351617643 a1_z2
  +4.2007388618696755 a2_x1
  +7.5341317217871078 a2_x2
  +3.4571921689270946 a2_x3
  +4.7657113746642423 a2_x4
  +9.3861788498988687 a2_x5
  +1.7288685547688603 a2_x6
  +29.540804107775944 a2_z1
  +23.537170412908246 a2_z2
  +8.2162616662184611 a3_x1
  +4.9087522557742478 a3_x2
  +9.9244206014586318 a3_x3
  +6.7861238771840311 a3_x4
  +8.6736711514090779 a3_x5
  +9.6443958243312533 a3_x6
  +44.884441558292828 a3_z1
  +12.682768889922908 a3_z2
  +8.6978778464740216 a4_x1
  +4.1276908151999692 a4_x2
  +7.0223714932865171 a4_x3
  +1.0610858298808366 a4_x4
  +7.0927412879620659 a4_x5
  +7.9355051703127861 a4_x6
  +37.985653916409667 a4_z1
  +17.373101516361629 a4_z2
  +1000000 short_1
  +1000000 surp_1
  +1000000 short_2
  +1000000 surp_2
  +1000000 short_3
  +1000000 surp_3

s.t.

a1_local_1: 
+1.5342020906071259 a1_x3
+0.65180461304434323 a1_x6
+1.037068538077017 a1_x4
<= 121.83398493957591

a1_local_2: 
+1.1127864586592253 a1_x2
+1.3435150093642723 a1_x5
+0.74431621011303961 a1_x3
<= 99.99603331044581

a1_local_3: 
+1.2850624035155884 a1_x4
+0.77817232631214361 a1_x2
+1.048626134996022 a1_x5
<= 174.39566554251988

a1_local_4: 
+1.4453356761077845 a1_x3
+0.69188079733349495 a1_x6
+0.86628748776881193 a1_x5
<= 175.24498812792297

a1_local_5: 
+0.65595763508653182 a1_x1
+1.5244886963897952 a1_x6
+1.4636198825631899 a1_x3
<= 253.37658705215719

a1_local_6: 
+1.4572489264575241 a1_x1
+1.4505932406887987 a1_x3
+0.68622455768825563 a1_x2
<= 250.1871151356352

a1_local_7: 
+0.66069759356104596 a1_x1
+1.5135517515814949 a1_x5
+0.91044694277086713 a1_x4
<= 120.70295413703424

a1_local_8: 
+1.2550546428624703 a1_x3
+0.79677805718422456 a1_x1
+0.9722932121729323 a1_x6
<= 108.7677896093667

a1_act_1: 
+0.10000000000000001 a1_x1
-10 a1_z1
<= 0

a1_act_2: 
+0.10000000000000001 a1_x2
-10 a1_z2
<= 0

a2_local_1: 
+0.95237966640450911 a2_x6
+1.0500014177909431 a2_x5
+1.0481277126574349 a2_x3
<= 169.09502598158269

a2_local_2: 
+1.2036805221840321 a2_x4
+1.3058411628274287 a2_x5
+0.76578992029534709 a2_x3
<= 101.15459810589847

a2_local_3: 
+1.1184100288534704 a2_x1
+0.89709597059702373 a2_x5
+0.89412646006504648 a2_x6
<= 117.09210539019432

a2_local_4: 
+0.90666536941904252 a2_x1
+1.251049191607748 a2_x4
+0.79932908050952045 a2_x5
<= 189.93990861834061

a2_local_5: 
+0.98905561698035471 a2_x5
+1.1631249513075976 a2_x1
+0.85975285705614779 a2_x3
<= 199.79752018033116

a2_local_6: 
+0.81941375927154747 a2_x6
+0.93798102820212947 a2_x2
+1.2203846819572475 a2_x4
<= 136.34925634893534

a2_local_7: 
+1.056106209673163 a2_x6
+0.9468744628530058 a2_x4
+0.94897629678036388 a2_x3
<= 162.89717282780785

a2_local_8: 
+1.3222288064857903 a2_x3
+1.0659841572749202 a2_x5
+0.75629875487117282 a2_x4
<= 122.29730658392012

a2_act_1: 
+0.10000000000000001 a2_x1
-10 a2_z1
<= 0

a2_act_2: 
+0.10000000000000001 a2_x2
-10 a2_z2
<= 0

a3_local_1: 
+1.2171056400547078 a3_x1
+0.93316711007291298 a3_x2
+0.82162136719295042 a3_x5
<= 109.27943141639859

a3_local_2: 
+0.81824039485710354 a3_x6
+1.1941994522268038 a3_x2
+1.2221347250579562 a3_x3
<= 201.75420785209309

a3_local_3: 
+1.6001406872121191 a3_x1
+0.62494504888959013 a3_x6
+1.2408150540206375 a3_x3
<= 124.98502416534014

a3_local_4: 
+1.0882002815035217 a3_x1
+0.72139684909229052 a3_x2
+1.3861995672122307 a3_x3
<= 105.36195632304532

a3_local_5: 
+1.2382143136559545 a3_x6
+0.8076146342125522 a3_x5
+1.0784151054942492 a3_x3
<= 209.70372275543352

a3_local_6: 
+0.69598732747975822 a3_x5
+1.4368077700798134 a3_x3
+1.1035551115838445 a3_x4
<= 128.06658536367243

a3_local_7: 
+0.91130667672903898 a3_x1
+0.70396555294661367 a3_x5
+1.4205240523691318 a3_x2
<= 157.2455208033611

a3_local_8: 
+0.86788193626099086 a3_x1
+0.81069305837257799 a3_x3
+1.233512473891716 a3_x6
<= 179.25845410838812

a3_act_1: 
+0.10000000000000001 a3_x1
-10 a3_z1
<= 0

a3_act_2: 
+0.10000000000000001 a3_x2
-10 a3_z2
<= 0

a4_local_1: 
+0.87153560648869466 a4_x3
+1.1474000517648062 a4_x5
+1.1125015849824367 a4_x2
<= 178.9540336187201

a4_local_2: 
+1.179750078545001 a4_x6
+0.84763715483987179 a4_x4
+0.86915693443033959 a4_x5
<= 114.58289428619062

a4_local_3: 
+1.0942402044502175 a4_x6
+0.91387612695370957 a4_x3
+0.95683690475189276 a4_x2
<= 195.71115316432102

a4_local_4: 
+0.72176562294919289 a4_x3
+0.71620093032760879 a4_x6
+1.3962562147784061 a4_x5
<= 104.95433676534134

a4_local_5: 
+0.79051140347389837 a4_x1
+1.3589296617212792 a4_x6
+0.73587325979282603 a4_x3
<= 113.66169983994574

a4_local_6: 
+0.8343669320432876 a4_x6
+0.94198930832259731 a4_x3
+1.198513461638625 a4_x4
<= 173.74920279111555

a4_local_7: 
+0.99167645099652602 a4_x6
+0.97330624719013004 a4_x4
+1.0274258517161818 a4_x5
<= 99.315702386605238

a4_local_8: 
+1.1794754987999088 a4_x2
+1.2086339014672749 a4_x4
+0.82738039929709528 a4_x1
<= 99.234546196623597

a4_act_1: 
+0.10000000000000001 a4_x1
-10 a4_z1
<= 0

a4_act_2: 
+0.10000000000000001 a4_x2
-10 a4_z2
<= 0

coupling_1: 
+0.00070182843806045395 a1_x1
+0.16390763224058696 a2_x1
+14.347792143498223 a3_x1
+1424.8496438297111 a4_x1
+1.1677461660753488 short_1
-1.1677461660753488 surp_1
= 106824.47338769987

coupling_2: 
+0.00095935129498944866 a1_x2
+0.12346264769507734 a2_x2
+12.578004854943881 a3_x2
+1042.3710326163668 a4_x2
+1.5230995389366377 short_2
-1.5230995389366377 surp_2
= 25992.149397003002

coupling_3: 
+0.00073657455720324918 a1_x3
+0.068690985677228755 a2_x3
+5.9530168896268236 a3_x3
+864.23441016536447 a4_x3
+0.81685093377368523 short_3
-0.81685093377368523 surp_3
= 43243.950317729286

bounds
  0 <= a1_x1 <= 100
  0 <= a1_x2 <= 100
  0 <= a1_x3 <= 100
  0 <= a1_x4 <= 100
  0 <= a1_x5 <= 100
  0 <= a1_x6 <= 100
  0 <= a2_x1 <= 100
  0 <= a2_x2 <= 100
  0 <= a2_x3 <= 100
  0 <= a2_x4 <= 100
  0 <= a2_x5 <= 100
  0 <= a2_x6 <= 100
  0 <= a3_x1 <= 100
  0 <= a3_x2 <= 100
  0 <= a3_x3 <= 100
  0 <= a3_x4 <= 100
  0 <= a3_x5 <= 100
  0 <= a3_x6 <= 100
  0 <= a4_x1 <= 100
  0 <= a4_x2 <= 100
  0 <= a4_x3 <= 100
  0 <= a4_x4 <= 100
  0 <= a4_x5 <= 100
  0 <= a4_x6 <= 100
  0 <= short_1 <= +inf
  0 <= surp_1 <= +inf
  0 <= short_2 <= +inf
  0 <= surp_2 <= +inf
  0 <= short_3 <= +inf
  0 <= surp_3 <= +inf
 0 <= a1_z1 <= 1
 0 <= a1_z2 <= 1
 0 <= a2_z1 <= 1
 0 <= a2_z2 <= 1
 0 <= a3_z1 <= 1
 0 <= a3_z2 <= 1
 0 <= a4_z1 <= 1
 0 <= a4_z2 <= 1

binary
  a1_z1
  a1_z2
  a2_z1
  a2_z2
  a3_z1
  a3_z2
  a4_z1
  a4_z2
end
