min
obj: 
  +2.8670230128866887 a1_x1
  +4.6121734767481746 a1_x2
  +8.3726653944305163 a1_x3
  +3.8874111784256438 a1_x4
  +3.5735214707131471 a1_x5
  +7.9063268225890937 a1_x6
  +32.521673256282952 a1_z1
  +46.9551209495583 a1_z2
  +6.1895710982011405 a2_x1
  +7.6567171580139357 a2_x2
  +8.2043744709301158 a2_x3
  +3.6188691473828523 a2_x4
  +5.2859257046209569 a2_x5
  +3.3947769180807601 a2_x6
  +12.605481383042026 a2_z1
  +31.130882329794158 a2_z2
  +1.0038469274140069 a3_x1
  +6.9874663911383514 a3_x2
  +2.0892016241128126 a3_x3
  +9.3610808006140438 a3_x4
  +4.8509819599704116 a3_x5
  +1.7243146015797635 a3_x6
  +35.019467218819287 a3_z1
  +33.012677472845496 a3_z2
  +2.5033216672460403 a4_x1
  +6.4216192335644386 a4_x2
  +2.3877334915960096 a4_x3
  +7.475862409648836 a4_x4
  +7.4106096914751971 a4_x5
  +8.5860247699785965 a4_x6
  +17.162878658753439 a4_z1
  +23.317265071624306 a4_z2
  +1000000 short_1
  +1000000 surp_1
  +1000000 short_2
  +1000000 surp_2
  +1000000 short_3
  +1000000 surp_3

s.t.

a1_local_1: 
+0.39177291867941211 a1_x3
+0.68779036958806883 a1_x1
+0.61111241821069406 a1_x2
<= 101.67816044536775

a1_local_2: 
+0.4869489714903617 a1_x6
+0.69838775780659312 a1_x4
+0.52453335347750607 a1_x3
<= 66.970577928210815

a1_local_3: 
+0.47040300645458744 a1_x5
+0.63568217323300102 a1_x6
+0.61206959257281701 a1_x4
<= 63.024802297610606

a1_local_4: 
+0.61056793419217081 a1_x3
+0.70428887678463714 a1_x6
+0.36219328510305027 a1_x4
<= 56.530765797469527

a1_local_5: 
+0.72564219502028815 a1_x4
+0.57689771923724276 a1_x5
+0.37500990166261711 a1_x2
<= 61.430858365910112

a1_local_6: 
+0.61705341369718358 a1_x5
+0.59840647661207103 a1_x4
+0.51103304530468407 a1_x2
<= 83.984197294082009

a1_local_7: 
+0.5733102759242833 a1_x2
+0.73011262331751592 a1_x3
+0.37182103866246907 a1_x6
<= 104.23383534068188

a1_local_8: 
+0.66788022824517312 a1_x2
+0.64196471180922843 a1_x5
+0.3765863905013957 a1_x1
<= 88.057536219291563

a1_act_1: 
+0.0099995000374968751 a1_x1
-0.99995000374968757 a1_z1
<= 0

a1_act_2: 
+0.0099995000374968751 a1_x2
-0.99995000374968757 a1_z2
<= 0

a2_local_1: 
+0.60855645218571985 a2_x4
+0.51130682546239359 a2_x3
+0.60681494274506687 a2_x1
<= 93.04338201110005

a2_local_2: 
+0.60371186662097442 a2_x6
+0.35654461067946225 a2_x2
+0.71302729449611491 a2_x5
<= 65.437782225041758

a2_local_3: 
+0.69570721967455007 a2_x6
+0.57752474334406734 a2_x4
+0.42714942972931152 a2_x5
<= 102.29940600798633

a2_local_4: 
+0.72215275482148866 a2_x3
+0.4519359829053432 a2_x4
+0.52368813816919357 a2_x1
<= 110.46492939535649

a2_local_5: 
+0.51458283840012975 a2_x5
+0.4999073006126567 a2_x4
+0.69663275347792319 a2_x3
<= 115.24489794245299

a2_local_6: 
+0.3525679099956035 a2_x6
+0.69182723846283523 a2_x4
+0.63013565282581774 a2_x3
<= 93.817178391121985

a2_local_7: 
+0.53874347916553034 a2_x6
+0.56533272351041475 a2_x3
+0.62462338683795449 a2_x5
<= 64.426867838000987

a2_local_8: 
+0.42804311555090391 a2_x5
+0.70053246993261165 a2_x3
+0.57099330101113299 a2_x4
<= 71.522220057209111

a2_act_1: 
+0.0099995000374968751 a2_x1
-0.99995000374968757 a2_z1
<= 0

a2_act_2: 
+0.0099995000374968751 a2_x2
-0.99995000374968757 a2_z2
<= 0

a3_local_1: 
+0.54521162174487614 a3_x4
+0.62866008780688742 a3_x2
+0.55455457938146979 a3_x6
<= 57.400348309609676

a3_local_2: 
+0.47130421698944397 a3_x4
+0.81952103305188717 a3_x6
+0.32597179545711435 a3_x3
<= 60.371497618184243

a3_local_3: 
+0.63710162769497636 a3_x4
+0.53136446152404904 a3_x2
+0.55834874855923988 a3_x3
<= 54.22971138575808

a3_local_4: 
+0.56378721533952558 a3_x2
+0.73437186999541915 a3_x4
+0.37794435090252948 a3_x3
<= 86.903985393625916

a3_local_5: 
+0.52454001781291215 a3_x4
+0.64377892316446506 a3_x6
+0.55714133557117396 a3_x1
<= 65.023707917771418

a3_local_6: 
+0.51078968068259367 a3_x3
+0.59372936482145622 a3_x4
+0.621755051010351 a3_x1
<= 58.957358150830885

a3_local_7: 
+0.57222014825871059 a3_x4
+0.46253952721860964 a3_x1
+0.67721583537832652 a3_x6
<= 99.77150482458805

a3_local_8: 
+0.58264471438103871 a3_x2
+0.5727562658228138 a3_x3
+0.57660679562813355 a3_x1
<= 67.145302088158857

a3_act_1: 
+0.0099995000374968751 a3_x1
-0.99995000374968757 a3_z1
<= 0

a3_act_2: 
+0.0099995000374968751 a3_x2
-0.99995000374968757 a3_z2
<= 0

a4_local_1: 
+0.51524792990526491 a4_x1
+0.64131569030573043 a4_x4
+0.56853650374978015 a4_x5
<= 54.230488628454538

a4_local_2: 
+0.53026022173153775 a4_x6
+0.62207193170176533 a4_x2
+0.57606476114934757 a4_x3
<= 67.391399161106463

a4_local_3: 
+0.58327998912470014 a4_x1
+0.56845349214182606 a4_x4
+0.58021123873848968 a4_x5
<= 84.750177642220123

a4_local_4: 
+0.34456449555223523 a4_x2
+0.68318818009549698 a4_x6
+0.64383943571564217 a4_x5
<= 58.377444217350728

a4_local_5: 
+0.48190778861468742 a4_x2
+0.41976839610883482 a4_x5
+0.76912897286522641 a4_x1
<= 90.464514476328176

a4_local_6: 
+0.47920236764452451 a4_x5
+0.67714376241244656 a4_x6
+0.5584276281397601 a4_x4
<= 119.39779443726694

a4_local_7: 
+0.36463701504745766 a4_x1
+0.5856128627678493 a4_x5
+0.72394573154216779 a4_x2
<= 56.275021459294912

a4_local_8: 
+0.58138333225100192 a4_x1
+0.5389315825962836 a4_x6
+0.60954587215482492 a4_x5
<= 85.527877319478378

a4_act_1: 
+0.0099995000374968751 a4_x1
-0.99995000374968757 a4_z1
<= 0

a4_act_2: 
+0.0099995000374968751 a4_x2
-0.99995000374968757 a4_z2
<= 0

coupling_1: 
+9.6104831661338578e-05 a1_x1
+0.003496395002136464 a2_x1
+0.080355132412047989 a3_x1
+1.5885414589605582 a4_x1
+0.014646077907122034 short_1
-0.014646077907122034 surp_1
= 99.382709432262757

coupling_2: 
+5.7103754204648345e-05 a1_x2
+0.0014170651924913225 a2_x2
+0.031548671012114546 a3_x2
+0.99943251714598769 a4_x2
+0.008285942734715496 short_2
-0.008285942734715496 surp_2
= 41.131449280582594

coupling_3: 
+0.00016520002150744112 a1_x3
+0.0027966328885449558 a2_x3
+0.06607024460020057 a3_x3
+0.99749223419707977 a4_x3
+0.01783419536210766 short_3
-0.01783419536210766 surp_3
= 47.227020455724983

bounds
  0 <= a1_x1 <= 100
  0 <= a1_x2 <= 100
  0 <= a1_x3 <= 100
  0 <= a1_x4 <= 100
  0 <= a1_x5 <= 100
  0 <= a1_x6 <= 100
  0 <= a2_x1 <= 100
  0 <= a2_x2 <= 100
  0 <= a2_x3 <= 100
  0 <= a2_x4 <= 100
  0 <= a2_x5 <= 100
  0 <= a2_x6 <= 100
  0 <= a3_x1 <= 100
  0 <= a3_x2 <= 100
  0 <= a3_x3 <= 100
  0 <= a3_x4 <= 100
  0 <= a3_x5 <= 100
  0 <= a3_x6 <= 100
  0 <= a4_x1 <= 100
  0 <= a4_x2 <= 100
  0 <= a4_x3 <= 100
  0 <= a4_x4 <= 100
  0 <= a4_x5 <= 100
  0 <= a4_x6 <= 100
  0 <= short_1 <= +inf
  0 <= surp_1 <= +inf
  0 <= short_2 <= +inf
  0 <= surp_2 <= +inf
  0 <= short_3 <= +inf
  0 <= surp_3 <= +inf
 0 <= a1_z1 <= 1
 0 <= a1_z2 <= 1
 0 <= a2_z1 <= 1
 0 <= a2_z2 <= 1
 0 <= a3_z1 <= 1
 0 <= a3_z2 <= 1
 0 <= a4_z1 <= 1
 0 <= a4_z2 <= 1

binary
  a1_z1
  a1_z2
  a2_z1
  a2_z2
  a3_z1
  a3_z2
  a4_z1
  a4_z2
end
