min
obj: 
  +3.043052453503527 a1_x1
  +8.5242104678500681 a1_x2
  +7.6930756521091874 a1_x3
  +6.9189962156082423 a1_x4
  +9.2097073421305335 a1_x5
  +1.6783613276554563 a1_x6
  +29.957301038510835 a1_z1
  +31.080729858907144 a1_z2
  +8.695776775262491 a2_x1
  +6.9077742042221582 a2_x2
  +5.0875445936298673 a2_x3
  +7.5917023578038236 a2_x4
  +8.2794490372741638 a2_x5
  +1.0351287904006585 a2_x6
  +28.928861886453006 a2_z1
  +23.934213589769115 a2_z2
  +5.1403805558345264 a3_x1
  +3.338751629164217 a3_x2
  +6.1106898664601106 a3_x3
  +6.5508211726549801 a3_x4
  +5.1951326468311683 a3_x5
  +3.9370151452755238 a3_x6
  +16.85304582879688 a3_z1
  +38.539597563502319 a3_z2
  +1.4163415069349607 a4_x1
  +8.5438219758017482 a4_x2
  +7.1495610706401269 a4_x3
  +5.5659057933768521 a4_x4
  +2.526471255000704 a4_x5
  +2.3501129539553487 a4_x6
  +43.904023055410626 a4_z1
  +7.4539102618189466 a4_z2
  +1000000 short_1
  +1000000 surp_1
  +1000000 short_2
  +1000000 surp_2
  +1000000 short_3
  +1000000 surp_3

s.t.

a1_local_1: 
+0.61083524062177019 a1_x4
+0.75992141376050693 a1_x3
+1.6371026645124436 a1_x1
<= 186.8487481165144

a1_local_2: 
+0.757599391787391 a1_x6
+1.3199588210343172 a1_x4
+0.80353739707727589 a1_x2
<= 128.79586939178341

a1_local_3: 
+1.5964495713040783 a1_x3
+0.94289544637669398 a1_x1
+0.62638997057898815 a1_x4
<= 132.97164326229264

a1_local_4: 
+1.3016403072580986 a1_x3
+0.73019925673316299 a1_x1
+1.3694892055545198 a1_x2
<= 168.77267143465002

a1_local_5: 
+0.73949401415506255 a1_x3
+1.271409159327795 a1_x2
+1.352275989877469 a1_x4
<= 132.8352462810833

a1_local_6: 
+0.72831567822513821 a1_x3
+1.3730309945227872 a1_x5
+0.95811467466826139 a1_x4
<= 106.29505740766152

a1_local_7: 
+1.2496898448839642 a1_x5
+1.0529717669059375 a1_x6
+0.80019854853893913 a1_x1
<= 137.09593949539351

a1_local_8: 
+1.1108472102204003 a1_x2
+0.90021381050377958 a1_x3
+1.0057240656899598 a1_x6
<= 150.50868077518646

a1_act_1: 
+0.10000000000000001 a1_x1
-10 a1_z1
<= 0

a1_act_2: 
+0.10000000000000001 a1_x2
-10 a1_z2
<= 0

a2_local_1: 
+0.84969595426924693 a2_x6
+1.0415149373083277 a2_x3
+1.1768915633592929 a2_x1
<= 103.69385246671689

a2_local_2: 
+0.72364910021030626 a2_x4
+0.90103146396445433 a2_x1
+1.3818852254627014 a2_x5
<= 157.97115161166849

a2_local_3: 
+0.78942074538647899 a2_x6
+0.93745996512662444 a2_x5
+1.2667516097647358 a2_x3
<= 183.62239723176526

a2_local_4: 
+0.80080234873124057 a2_x4
+1.248747586198218 a2_x3
+0.85059161206027156 a2_x6
<= 141.84245488227077

a2_local_5: 
+1.2123180401543592 a2_x6
+1.101558171270437 a2_x2
+0.82486605567023852 a2_x5
<= 178.98952530937251

a2_local_6: 
+1.0566085598887625 a2_x2
+0.89867475651001116 a2_x1
+1.1127496268878003 a2_x4
<= 127.36161834943427

a2_local_7: 
+0.75648531364314842 a2_x6
+1.3219027282685929 a2_x2
+1.2571435170346126 a2_x5
<= 152.03994303010953

a2_local_8: 
+1.3875795903396568 a2_x2
+0.72067938081679084 a2_x4
+1.0030216487598644 a2_x5
<= 135.37818250247494

a2_act_1: 
+0.10000000000000001 a2_x1
-10 a2_z1
<= 0

a2_act_2: 
+0.10000000000000001 a2_x2
-10 a2_z2
<= 0

a3_local_1: 
+0.8083765957985245 a3_x6
+1.2370471945840882 a3_x5
+1.0974872579003281 a3_x2
<= 209.65413025638625

a3_local_2: 
+1.458448068674304 a3_x4
+0.68566034093279526 a3_x3
+1.0219918856964443 a3_x1
<= 136.28752549168843

a3_local_3: 
+0.95220563932964086 a3_x2
+0.92308011409685653 a3_x4
+1.08332958832983 a3_x3
<= 160.06923726564185

a3_local_4: 
+0.88350038998181002 a3_x5
+1.1318614132367146 a3_x2
+1.0166247400463897 a3_x1
<= 201.35854568115761

a3_local_5: 
+1.1951055956862719 a3_x6
+1.402211384298262 a3_x2
+0.71315923633044176 a3_x3
<= 230.23439232522406

a3_local_6: 
+1.5120678842717903 a3_x1
+1.5768207900935087 a3_x4
+0.6341874779192237 a3_x3
<= 210.63744465520037

a3_local_7: 
+1.1439014425380363 a3_x2
+0.97424530062977988 a3_x6
+0.8742011879810605 a3_x5
<= 209.12867977639809

a3_local_8: 
+1.0626656519816333 a3_x2
+0.83646468463381485 a3_x3
+1.1955077343615257 a3_x4
<= 140.98347795324287

a3_act_1: 
+0.10000000000000001 a3_x1
-10 a3_z1
<= 0

a3_act_2: 
+0.10000000000000001 a3_x2
-10 a3_z2
<= 0

a4_local_1: 
+0.91516494212742927 a4_x4
+0.76039190621515773 a4_x5
+1.3151113153971994 a4_x6
<= 110.33456840928443

a4_local_2: 
+1.0343824794820666 a4_x3
+1.2032528579603108 a4_x1
+0.83108051095357138 a4_x2
<= 203.5222598836697

a4_local_3: 
+0.69499156390075534 a4_x4
+0.88579766023522089 a4_x6
+1.4388663862153008 a4_x2
<= 93.608124538562208

a4_local_4: 
+1.1799977855624757 a4_x2
+1.0720563384693167 a4_x3
+0.84745921749617903 a4_x1
<= 183.93966475194694

a4_local_5: 
+0.74337391844943024 a4_x4
+1.3452180325156611 a4_x5
+0.87583653270600847 a4_x2
<= 203.59570773482002

a4_local_6: 
+1.5521001995625889 a4_x6
+0.64428830064052511 a4_x5
+1.1840989942889348 a4_x3
<= 232.13825626759404

a4_local_7: 
+0.63264775270628992 a4_x4
+1.4855014031506408 a4_x3
+1.580658424411183 a4_x5
<= 242.82809379700919

a4_local_8: 
+1.1036746786148355 a4_x1
+0.64935992640976536 a4_x6
+1.5399779988409239 a4_x4
<= 181.90582888368266

a4_act_1: 
+0.10000000000000001 a4_x1
-10 a4_z1
<= 0

a4_act_2: 
+0.10000000000000001 a4_x2
-10 a4_z2
<= 0

coupling_1: 
+0.010725796758020068 a1_x1
+0.090247161430738451 a2_x1
+1.8796695611282344 a3_x1
+93.233166967504147 a4_x1
+0.74747233760096843 short_1
-0.74747233760096843 surp_1
= 1921.446128077728

coupling_2: 
+0.0078348286399547926 a1_x2
+0.20509710796744887 a2_x2
+6.4038986015975761 a3_x2
+127.63521015639851 a4_x2
+1.0444341581027428 short_2
-1.0444341581027428 surp_2
= 4459.4437301995367

coupling_3: 
+0.010810418786872099 a1_x3
+0.33963709296529759 a2_x3
+8.2706218709093076 a3_x3
+92.503354376462738 a4_x3
+1.6683819588143964 short_3
-1.6683819588143964 surp_3
= 2107.4019729331844

bounds
  0 <= a1_x1 <= 100
  0 <= a1_x2 <= 100
  0 <= a1_x3 <= 100
  0 <= a1_x4 <= 100
  0 <= a1_x5 <= 100
  0 <= a1_x6 <= 100
  0 <= a2_x1 <= 100
  0 <= a2_x2 <= 100
  0 <= a2_x3 <= 100
  0 <= a2_x4 <= 100
  0 <= a2_x5 <= 100
  0 <= a2_x6 <= 100
  0 <= a3_x1 <= 100
  0 <= a3_x2 <= 100
  0 <= a3_x3 <= 100
  0 <= a3_x4 <= 100
  0 <= a3_x5 <= 100
  0 <= a3_x6 <= 100
  0 <= a4_x1 <= 100
  0 <= a4_x2 <= 100
  0 <= a4_x3 <= 100
  0 <= a4_x4 <= 100
  0 <= a4_x5 <= 100
  0 <= a4_x6 <= 100
  0 <= short_1 <= +inf
  0 <= surp_1 <= +inf
  0 <= short_2 <= +inf
  0 <= surp_2 <= +inf
  0 <= short_3 <= +inf
  0 <= surp_3 <= +inf
 0 <= a1_z1 <= 1
 0 <= a1_z2 <= 1
 0 <= a2_z1 <= 1
 0 <= a2_z2 <= 1
 0 <= a3_z1 <= 1
 0 <= a3_z2 <= 1
 0 <= a4_z1 <= 1
 0 <= a4_z2 <= 1

binary
  a1_z1
  a1_z2
  a2_z1
  a2_z2
  a3_z1
  a3_z2
  a4_z1
  a4_z2
end
