min
obj: 
  +4.0092711480649195 a1_x1
  +1.9679731558453351 a1_x2
  +5.1245063990813229 a1_x3
  +5.3289660462088069 a1_x4
  +7.7326436197250805 a1_x5
  +5.1395422066191525 a1_x6
  +7.4601303692563201 a1_z1
  +49.872667351617643 a1_z2
  +4.2007388618696755 a2_x1
  +7.5341317217871078 a2_x2
  +3.4571921689270946 a2_x3
  +4.7657113746642423 a2_x4
  +9.3861788498988687 a2_x5
  +1.7288685547688603 a2_x6
  +29.540804107775944 a2_z1
  +23.537170412908246 a2_z2
  +8.2162616662184611 a3_x1
  +4.9087522557742478 a3_x2
  +9.9244206014586318 a3_x3
  +6.7861238771840311 a3_x4
  +8.6736711514090779 a3_x5
  +9.6443958243312533 a3_x6
  +44.884441558292828 a3_z1
  +12.682768889922908 a3_z2
  +8.6978778464740216 a4_x1
  +4.1276908151999692 a4_x2
  +7.0223714932865171 a4_x3
  +1.0610858298808366 a4_x4
  +7.0927412879620659 a4_x5
  +7.9355051703127861 a4_x6
  +37.985653916409667 a4_z1
  +17.373101516361629 a4_z2
  +1000000 short_1
  +1000000 surp_1
  +1000000 short_2
  +1000000 surp_2
  +1000000 short_3
  +1000000 surp_3

s.t.

a1_local_1: 
+0.78148208496250937 a1_x3
+0.33201208048706404 a1_x6
+0.52825536371465343 a1_x4
<= 62.059018921159932

a1_local_2: 
+0.58670733409151177 a1_x2
+0.7083570287203097 a1_x5
+0.39243448368583239 a1_x3
<= 52.722070498580713

a1_local_3: 
+0.70141876087231569 a1_x4
+0.42474565233078199 a1_x2
+0.57236601289947653 a1_x5
<= 95.189456396584447

a1_local_4: 
+0.7934523099992018 a1_x3
+0.37982485727240278 a1_x6
+0.47556966845555815 a1_x5
<= 96.20501517013254

a1_local_5: 
+0.29643645414095615 a1_x1
+0.6889378206202974 a1_x6
+0.66143035005606721 a1_x3
<= 114.504432924499

a1_local_6: 
+0.67227183458255091 a1_x1
+0.66920137077852315 a1_x3
+0.31657559251331513 a1_x2
<= 115.4186823043454

a1_local_7: 
+0.35035242415218676 a1_x1
+0.80260096360918498 a1_x5
+0.48278864123371185 a1_x4
<= 64.005943106757897

a1_local_8: 
+0.70654102497080074 a1_x3
+0.44855129487686723 a1_x1
+0.54735867207663391 a1_x6
<= 61.231521664377041

a1_act_1: 
+0.0099995000374968751 a1_x1
-0.99995000374968757 a1_z1
<= 0

a1_act_2: 
+0.0099995000374968751 a1_x2
-0.99995000374968757 a1_z2
<= 0

a2_local_1: 
+0.54020985595266835 a2_x6
+0.59558297458864928 a2_x5
+0.59452016947428599 a2_x3
<= 95.91426911987989

a2_local_2: 
+0.62236660167150082 a2_x4
+0.67518906541499335 a2_x5
+0.39595396079329126 a2_x3
<= 52.302286450880331

a2_local_3: 
+0.66189878647611888 a2_x1
+0.53092043076500484 a2_x5
+0.52916301142251321 a2_x6
<= 69.297592532458964

a2_local_4: 
+0.52120176967801146 a2_x1
+0.71917277819711223 a2_x4
+0.45949889051526144 a2_x5
<= 109.1880420753166

a2_local_5: 
+0.56445943596860604 a2_x5
+0.66380175462785884 a2_x1
+0.49066564552552366 a2_x3
<= 114.02553467441254

a2_local_6: 
+0.46992072583456412 a2_x6
+0.53791716407550028 a2_x2
+0.69987115673107125 a2_x4
<= 78.194124501223243

a2_local_7: 
+0.61883597777255406 a2_x6
+0.55483054514833396 a2_x4
+0.5560621357228791 a2_x3
<= 95.451224791565394

a2_local_8: 
+0.71118421980183011 a2_x3
+0.57335848946414758 a2_x5
+0.40678870198698158 a2_x4
<= 65.779775890614857

a2_act_1: 
+0.0099995000374968751 a2_x1
-0.99995000374968757 a2_z1
<= 0

a2_act_2: 
+0.0099995000374968751 a2_x2
-0.99995000374968757 a2_z2
<= 0

a3_local_1: 
+0.69953121069518209 a3_x1
+0.53633760029317357 a3_x2
+0.4722267080281386 a3_x5
<= 62.808330227898971

a3_local_2: 
+0.43189630367180154 a3_x6
+0.63034082954767856 a3_x2
+0.64508605742162761 a3_x3
<= 106.49302719498324

a3_local_3: 
+0.75510023010438276 a3_x1
+0.2949091626694999 a3_x6
+0.58553584712627349 a3_x3
<= 58.979951738668213

a3_local_4: 
+0.57146074104189981 a3_x1
+0.37883649267024905 a3_x2
+0.72795297462758335 a3_x3
<= 55.330091952192632

a3_local_5: 
+0.6766708424050234 a3_x6
+0.44135273582621332 a3_x5
+0.58934228901173602 a3_x3
<= 114.60083538641481

a3_local_6: 
+0.35861113214213275 a3_x5
+0.7403227627214527 a3_x3
+0.56861257715619817 a3_x4
<= 65.986981879608095

a3_local_7: 
+0.49835127935034829 a3_x1
+0.38496605246954757 a3_x5
+0.77681860225916632 a3_x2
<= 85.990269209633823

a3_local_8: 
+0.50684948942356089 a3_x1
+0.4734507604635752 a3_x3
+0.7203804359416891 a3_x6
<= 104.68826708287507

a3_act_1: 
+0.0099995000374968751 a3_x1
-0.99995000374968757 a3_z1
<= 0

a3_act_2: 
+0.0099995000374968751 a3_x2
-0.99995000374968757 a3_z2
<= 0

a4_local_1: 
+0.47876737216214965 a4_x3
+0.63031011413906768 a4_x5
+0.61113907039801108 a4_x2
<= 98.306198594265908

a4_local_2: 
+0.69690273659467505 a4_x6
+0.50071677348457844 a4_x4
+0.51342895173338821 a4_x5
<= 67.68648211786379

a4_local_3: 
+0.63729999423649852 a4_x6
+0.53225356559906001 a4_x3
+0.55727449183795075 a4_x2
<= 113.98476886188539

a4_local_4: 
+0.41786782847028681 a4_x3
+0.41464613717888871 a4_x6
+0.80836567149536542 a4_x5
<= 60.76354899457381

a4_local_5: 
+0.45540817434513819 a4_x1
+0.78287001754602537 a4_x6
+0.42393151612862451 a4_x3
<= 65.479722353915278

a4_local_6: 
+0.48012846594096414 a4_x6
+0.54205873239743174 a4_x3
+0.68967310142187344 a4_x4
<= 99.982315922170088

a4_local_7: 
+0.57385155974912394 a4_x6
+0.56322130822241245 a4_x4
+0.59453859869459436 a4_x5
<= 57.470832008627426

a4_local_8: 
+0.62719280563484525 a4_x2
+0.64269795211341441 a4_x4
+0.43996423367032295 a4_x1
<= 52.768534410666504

a4_act_1: 
+0.0099995000374968751 a4_x1
-0.99995000374968757 a4_z1
<= 0

a4_act_2: 
+0.0099995000374968751 a4_x2
-0.99995000374968757 a4_z2
<= 0

coupling_1: 
+4.919915368729572e-05 a1_x1
+0.0024754786230910372 a2_x1
+0.046685112904795663 a3_x1
+0.99883949988968912 a4_x1
+0.008186063712559713 short_1
-0.008186063712559713 surp_1
= 77.782593965702802

coupling_2: 
+9.1871622265821351e-05 a1_x2
+0.0025472562629628407 a2_x2
+0.055909053980913885 a3_x2
+0.99821950801054837 a4_x2
+0.014585858824110143 short_2
-0.014585858824110143 surp_2
= 26.033887429023963

coupling_3: 
+8.5177307583953873e-05 a1_x3
+0.001711355663330981 a2_x3
+0.03195295119981903 a3_x3
+0.99939862787005684 a4_x3
+0.0094460448783981171 short_3
-0.0094460448783981171 surp_3
= 51.338182964041565

bounds
  0 <= a1_x1 <= 100
  0 <= a1_x2 <= 100
  0 <= a1_x3 <= 100
  0 <= a1_x4 <= 100
  0 <= a1_x5 <= 100
  0 <= a1_x6 <= 100
  0 <= a2_x1 <= 100
  0 <= a2_x2 <= 100
  0 <= a2_x3 <= 100
  0 <= a2_x4 <= 100
  0 <= a2_x5 <= 100
  0 <= a2_x6 <= 100
  0 <= a3_x1 <= 100
  0 <= a3_x2 <= 100
  0 <= a3_x3 <= 100
  0 <= a3_x4 <= 100
  0 <= a3_x5 <= 100
  0 <= a3_x6 <= 100
  0 <= a4_x1 <= 100
  0 <= a4_x2 <= 100
  0 <= a4_x3 <= 100
  0 <= a4_x4 <= 100
  0 <= a4_x5 <= 100
  0 <= a4_x6 <= 100
  0 <= short_1 <= +inf
  0 <= surp_1 <= +inf
  0 <= short_2 <= +inf
  0 <= surp_2 <= +inf
  0 <= short_3 <= +inf
  0 <= surp_3 <= +inf
 0 <= a1_z1 <= 1
 0 <= a1_z2 <= 1
 0 <= a2_z1 <= 1
 0 <= a2_z2 <= 1
 0 <= a3_z1 <= 1
 0 <= a3_z2 <= 1
 0 <= a4_z1 <= 1
 0 <= a4_z2 <= 1

binary
  a1_z1
  a1_z2
  a2_z1
  a2_z2
  a3_z1
  a3_z2
  a4_z1
  a4_z2
end
