min
obj: 
  +9.9278906915658744 a1_x1
  +4.1029321056614965 a1_x2
  +3.3290118192963942 a1_x3
  +9.1017647242801925 a1_x4
  +1.0276781995025082 a1_x5
  +7.5015228430107515 a1_x6
  +48.476105885704612 a1_z1
  +46.462393702811802 a1_z2
  +6.9375805284658387 a2_x1
  +8.736124438174345 a2_x2
  +2.0422875685559534 a2_x3
  +7.9141637375248139 a2_x4
  +8.8510497644699591 a2_x5
  +5.3589026031734779 a2_x6
  +22.325512980558837 a2_z1
  +43.599104627831977 a2_z2
  +2.4447445858231625 a3_x1
  +8.7712175698219141 a3_x2
  +5.7628145052800139 a3_x3
  +8.5270938060320436 a3_x4
  +1.138926571582954 a3_x5
  +2.911442950069294 a3_x6
  +15.137864115812766 a3_z1
  +21.64888772902043 a3_z2
  +4.3135462509833289 a4_x1
  +3.737467766634015 a4_x2
  +6.3047039607963935 a4_x3
  +7.2324424815448989 a4_x4
  +3.5312943582825165 a4_x5
  +2.1943254476366931 a4_x6
  +13.983355852863056 a4_z1
  +25.767819676338174 a4_z2
  +1000000 short_1
  +1000000 surp_1
  +1000000 short_2
  +1000000 surp_2
  +1000000 short_3
  +1000000 surp_3

s.t.

a1_local_1: 
+0.011134504074834206 a1_x4
+0.010828677723760305 a1_x6
+0.0075423202546379374 a1_x1
<= 1.1764228728839257

a1_local_2: 
+0.0072981777699219035 a1_x4
+0.0063301305721456258 a1_x3
+0.007610500400152995 a1_x5
<= 1.0712936586724351

a1_local_3: 
+0.0077521577989207403 a1_x4
+0.0097322373212838341 a1_x3
+0.013540471482407491 a1_x2
<= 1.6693932213038172

a1_local_4: 
+0.0089624177448794917 a1_x4
+0.011305541739845238 a1_x5
+0.006183442815288571 a1_x2
<= 1.7329111716502101

a1_local_5: 
+0.013077237350602035 a1_x2
+0.0056190733572091516 a1_x1
+0.011651134280048088 a1_x6
<= 1.5289584718010465

a1_local_6: 
+0.0059182175107169053 a1_x3
+0.011999305552737831 a1_x5
+0.0096166051266273079 a1_x4
<= 1.8862263844787797

a1_local_7: 
+0.0066232905162996823 a1_x6
+0.0073614684931468648 a1_x4
+0.012469721548745545 a1_x3
<= 0.886602772222433

a1_local_8: 
+0.014141426269262423 a1_x1
+0.0077447165674464436 a1_x3
+0.012722878826710684 a1_x4
<= 2.1055666297007232

a1_act_1: 
+1 a1_x1
-100 a1_z1
<= 0

a1_act_2: 
+1 a1_x2
-100 a1_z2
<= 0

a2_local_1: 
+0.1747021419322877 a2_x3
+0.1687402083800017 a2_x1
+0.30884531729752479 a2_x6
<= 39.231687501288889

a2_local_2: 
+0.17698502415892864 a2_x4
+0.31597937776604895 a2_x1
+0.28073068559749037 a2_x5
<= 27.203119347229084

a2_local_3: 
+0.11171551526477647 a2_x2
+0.26349264713258014 a2_x5
+0.30310866986429025 a2_x1
<= 35.013352322657447

a2_local_4: 
+0.21640498885506507 a2_x2
+0.20896819223075633 a2_x1
+0.18658336937596309 a2_x4
<= 34.083549976365902

a2_local_5: 
+0.2216991282931586 a2_x4
+0.29762725754513503 a2_x5
+0.30611506670066568 a2_x2
<= 32.015792825086258

a2_local_6: 
+0.22956956679581378 a2_x1
+0.26579963088221581 a2_x2
+0.17387445727152168 a2_x3
<= 43.720042225584969

a2_local_7: 
+0.23712958769306847 a2_x1
+0.26770820138656631 a2_x2
+0.31743168201174288 a2_x4
<= 52.494582370823558

a2_local_8: 
+0.1370056685786116 a2_x6
+0.31867571784930876 a2_x3
+0.26463879408644442 a2_x5
<= 32.430480318885465

a2_act_1: 
+1 a2_x1
-100 a2_z1
<= 0

a2_act_2: 
+1 a2_x2
-100 a2_z2
<= 0

a3_local_1: 
+6.4766237009169441 a3_x4
+2.4950628307392488 a3_x6
+6.6119524863635251 a3_x3
<= 667.74158835935827

a3_local_2: 
+5.7320927920168563 a3_x6
+5.653591073059312 a3_x4
+5.005071952161976 a3_x3
<= 654.00654225448488

a3_local_3: 
+4.4799084357024235 a3_x2
+3.2749829876511622 a3_x1
+3.5792676176239047 a3_x4
<= 521.96325023575685

a3_local_4: 
+2.3400185138514931 a3_x5
+2.5147784429385096 a3_x3
+4.3411709393574887 a3_x2
<= 534.92212221301179

a3_local_5: 
+2.4361943514858768 a3_x1
+3.3083341020887445 a3_x2
+6.3920788224597711 a3_x5
<= 422.59125832921637

a3_local_6: 
+4.3574291607722415 a3_x6
+3.7296814091179904 a3_x4
+3.3548820624324893 a3_x2
<= 671.13004380704263

a3_local_7: 
+5.032565418622081 a3_x2
+3.0906625849847518 a3_x3
+2.581475489492183 a3_x5
<= 560.00717752699472

a3_local_8: 
+2.7352371128229103 a3_x5
+3.6639719543425535 a3_x2
+6.6017962172609268 a3_x3
<= 741.00317462194766

a3_act_1: 
+1 a3_x1
-100 a3_z1
<= 0

a3_act_2: 
+1 a3_x2
-100 a3_z2
<= 0

a4_local_1: 
+68.556465866345619 a4_x1
+138.6228281926399 a4_x4
+104.7816259537659 a4_x6
<= 13392.807255954636

a4_local_2: 
+136.4733417055499 a4_x6
+136.27381719005083 a4_x3
+108.7765539509241 a4_x4
<= 25519.209696951319

a4_local_3: 
+73.524033586375907 a4_x1
+139.21278594327404 a4_x2
+59.598220757298535 a4_x5
<= 9587.0417562173061

a4_local_4: 
+130.32955764842242 a4_x4
+108.53606089393621 a4_x5
+124.30817034139248 a4_x1
<= 13225.953099642973

a4_local_5: 
+56.416931736229948 a4_x4
+123.70642344216276 a4_x6
+84.924011403493665 a4_x2
<= 18050.085955371189

a4_local_6: 
+137.64657945147633 a4_x6
+126.61144102702735 a4_x2
+92.876616409906248 a4_x3
<= 18039.831564232722

a4_local_7: 
+139.35486177297295 a4_x6
+122.47874733283086 a4_x3
+62.220460593405633 a4_x4
<= 20172.021434932481

a4_local_8: 
+120.98890439555181 a4_x2
+118.93236725313537 a4_x4
+136.9451483213137 a4_x3
<= 17136.182067958925

a4_act_1: 
+1 a4_x1
-100 a4_z1
<= 0

a4_act_2: 
+1 a4_x2
-100 a4_z2
<= 0

coupling_1: 
+0.00024551504481960346 a1_x1
+0.003087464412676219 a2_x1
+0.11321962304990028 a3_x1
+0.98131950505780985 a4_x1
+0.018614237246445727 short_1
-0.018614237246445727 surp_1
= 48.830602768414259

coupling_2: 
+0.00037792007999762806 a1_x2
+0.01363932540001111 a2_x2
+0.19236893033057101 a3_x2
+4.1705162780163167 a4_x2
+0.058153634155294939 short_2
-0.058153634155294939 surp_2
= 207.18057317319114

coupling_3: 
+0.0031454252073209146 a1_x3
+0.03226541672377508 a2_x3
+1.0258703700505452 a3_x3
+22.708756338411234 a4_x3
+0.28041596501854932 short_3
-0.28041596501854932 surp_3
= 1604.0697308325098

bounds
  0 <= a1_x1 <= 100
  0 <= a1_x2 <= 100
  0 <= a1_x3 <= 100
  0 <= a1_x4 <= 100
  0 <= a1_x5 <= 100
  0 <= a1_x6 <= 100
  0 <= a2_x1 <= 100
  0 <= a2_x2 <= 100
  0 <= a2_x3 <= 100
  0 <= a2_x4 <= 100
  0 <= a2_x5 <= 100
  0 <= a2_x6 <= 100
  0 <= a3_x1 <= 100
  0 <= a3_x2 <= 100
  0 <= a3_x3 <= 100
  0 <= a3_x4 <= 100
  0 <= a3_x5 <= 100
  0 <= a3_x6 <= 100
  0 <= a4_x1 <= 100
  0 <= a4_x2 <= 100
  0 <= a4_x3 <= 100
  0 <= a4_x4 <= 100
  0 <= a4_x5 <= 100
  0 <= a4_x6 <= 100
  0 <= short_1 <= +inf
  0 <= surp_1 <= +inf
  0 <= short_2 <= +inf
  0 <= surp_2 <= +inf
  0 <= short_3 <= +inf
  0 <= surp_3 <= +inf
 0 <= a1_z1 <= 1
 0 <= a1_z2 <= 1
 0 <= a2_z1 <= 1
 0 <= a2_z2 <= 1
 0 <= a3_z1 <= 1
 0 <= a3_z2 <= 1
 0 <= a4_z1 <= 1
 0 <= a4_z2 <= 1

binary
  a1_z1
  a1_z2
  a2_z1
  a2_z2
  a3_z1
  a3_z2
  a4_z1
  a4_z2
end
