min
obj: 
  +3.0571104005516858 a1_x1
  +8.0556013187453051 a1_x2
  +1.9742345173811016 a1_x3
  +4.4385591714508195 a1_x4
  +2.091774352732247 a1_x5
  +8.3606733491801819 a1_x6
  +15.666425601953888 a1_z1
  +12.324732571684713 a1_z2
  +9.2229319073823621 a2_x1
  +7.6338140335244935 a2_x2
  +9.9611693691396663 a2_x3
  +9.9407775368738864 a2_x4
  +8.2998138303753102 a2_x5
  +5.1593396215897407 a2_x6
  +11.18650581061075 a2_z1
  +36.513419228591097 a2_z2
  +6.077667458974199 a3_x1
  +8.7735643157403977 a3_x2
  +3.6647749932252576 a3_x3
  +8.9894067496513301 a3_x4
  +1.8313374509796332 a3_x5
  +5.9661400049633215 a3_x6
  +11.771775193454559 a3_z1
  +18.836022336426041 a3_z2
  +3.5739044594919878 a4_x1
  +7.8515457332568142 a4_x2
  +9.0641405667365316 a4_x3
  +3.8803458463891136 a4_x4
  +5.5605295549433134 a4_x5
  +7.2488159045117166 a4_x6
  +49.908526082373854 a4_z1
  +15.565550238545768 a4_z2
  +1000000 short_1
  +1000000 surp_1
  +1000000 short_2
  +1000000 surp_2
  +1000000 short_3
  +1000000 surp_3

s.t.

a1_local_1: 
+0.93641113939327514 a1_x5
+1.5412958802844956 a1_x1
+0.64880469272091867 a1_x6
<= 122.3139070921633

a1_local_2: 
+1.42509446969425 a1_x6
+0.70170786657711692 a1_x4
+1.399789242719242 a1_x1
<= 170.76251724253328

a1_local_3: 
+0.74154992491184912 a1_x3
+1.0061544686743915 a1_x1
+1.348526871092157 a1_x2
<= 94.910061755848119

a1_local_4: 
+0.63765526498193759 a1_x4
+0.64799871988579472 a1_x5
+1.5682455002207603 a1_x2
<= 199.28639678685963

a1_local_5: 
+1.1220829943323527 a1_x4
+0.98305582258854085 a1_x1
+0.89119967511405629 a1_x2
<= 134.96875396608175

a1_local_6: 
+0.9987940765614618 a1_x4
+0.84275201067255201 a1_x2
+1.1865886848516178 a1_x6
<= 106.85560184061178

a1_local_7: 
+0.88050814813363976 a1_x3
+0.72656307409630827 a1_x5
+1.3763429984984989 a1_x6
<= 100.83796566783244

a1_local_8: 
+0.74907819048164292 a1_x4
+0.98046715461884715 a1_x6
+1.3349741224704716 a1_x3
<= 95.215572034983992

a1_act_1: 
+0.10000000000000001 a1_x1
-10 a1_z1
<= 0

a1_act_2: 
+0.10000000000000001 a1_x2
-10 a1_z2
<= 0

a2_local_1: 
+1.2817970685266742 a2_x3
+0.780154694182147 a2_x4
+0.99618256361011714 a2_x1
<= 135.01382311787077

a2_local_2: 
+1.558334018909119 a2_x5
+1.5141877257474516 a2_x1
+0.64171094763113123 a2_x6
<= 243.71730436898639

a2_local_3: 
+0.59559162989353576 a2_x1
+1.5280978717079508 a2_x5
+1.6790027760778869 a2_x3
<= 231.55559576339911

a2_local_4: 
+0.94191347088911292 a2_x2
+1.0214081718705479 a2_x5
+1.0616686467559029 a2_x3
<= 183.5415299308265

a2_local_5: 
+1.2093303354549756 a2_x5
+1.0433631916549051 a2_x6
+0.82690392416541769 a2_x4
<= 106.65132430767086

a2_local_6: 
+1.4681963018769426 a2_x4
+0.85656259784090549 a2_x5
+0.68110783191702629 a2_x1
<= 187.68773921141448

a2_local_7: 
+0.88296062350807314 a2_x4
+0.83526915904650456 a2_x5
+1.197218871509087 a2_x1
<= 142.08546329822266

a2_local_8: 
+0.84084261766403245 a2_x4
+1.1892832011513961 a2_x2
+0.98034508504519868 a2_x6
<= 133.04397799646577

a2_act_1: 
+0.10000000000000001 a2_x1
-10 a2_z1
<= 0

a2_act_2: 
+0.10000000000000001 a2_x2
-10 a2_z2
<= 0

a3_local_1: 
+0.71525722236828926 a3_x3
+1.3980984305043413 a3_x1
+0.95310549583272386 a3_x2
<= 135.56867515840148

a3_local_2: 
+0.83214602838172391 a3_x1
+1.2017121585555148 a3_x3
+0.99123766943260638 a3_x2
<= 175.87450430004066

a3_local_3: 
+1.2071314873930894 a3_x4
+0.88311468776609736 a3_x5
+0.82841016943364743 a3_x1
<= 181.15950969639357

a3_local_4: 
+1.2424348301370787 a3_x4
+1.2015085891412134 a3_x5
+0.80487118981497741 a3_x2
<= 204.46026260461412

a3_local_5: 
+0.78677056995359018 a3_x6
+1.106729305397586 a3_x3
+1.2710185639747404 a3_x2
<= 136.20469179777294

a3_local_6: 
+0.76209475168910823 a3_x3
+1.3121727945030432 a3_x4
+1.2534107267950565 a3_x5
<= 205.43733131494469

a3_local_7: 
+0.68780525395679804 a3_x6
+1.2867449771639869 a3_x2
+1.4538999146156728 a3_x3
<= 167.41103894496902

a3_local_8: 
+0.75526019341285855 a3_x5
+0.96866075602448143 a3_x3
+1.3240470088609 a3_x4
<= 138.99839974417381

a3_act_1: 
+0.10000000000000001 a3_x1
-10 a3_z1
<= 0

a3_act_2: 
+0.10000000000000001 a3_x2
-10 a3_z2
<= 0

a4_local_1: 
+0.94765009017920843 a4_x2
+1.3443654000705547 a4_x5
+0.74384538604423944 a4_x1
<= 153.69279556270695

a4_local_2: 
+1.0202170774580532 a4_x2
+0.88930699721177431 a4_x6
+1.1244710804427256 a4_x3
<= 198.63186747652009

a4_local_3: 
+1.3368222771295615 a4_x5
+1.117599279056436 a4_x2
+0.74804259108189786 a4_x1
<= 162.2196017687746

a4_local_4: 
+1.335083279192921 a4_x6
+1.2989015849129901 a4_x4
+0.74901694567286914 a4_x2
<= 179.9246956404549

a4_local_5: 
+0.87390053584235805 a4_x6
+1.3989937520565123 a4_x4
+0.71479947535863264 a4_x1
<= 132.57431920621318

a4_local_6: 
+1.4860067777684767 a4_x5
+0.59747702325111229 a4_x2
+1.6737045293534445 a4_x3
<= 117.65900888876506

a4_local_7: 
+1.2103650399027102 a4_x6
+1.1297978193026581 a4_x2
+0.82619702902223668 a4_x3
<= 169.63700442523569

a4_local_8: 
+0.73782061008822519 a4_x3
+1.268775249893725 a4_x2
+1.3553430011672141 a4_x1
<= 154.36472863905155

a4_act_1: 
+0.10000000000000001 a4_x1
-10 a4_z1
<= 0

a4_act_2: 
+0.10000000000000001 a4_x2
-10 a4_z2
<= 0

coupling_1: 
+5.191585721539017e-05 a1_x1
+0.0013753296414051569 a2_x1
+0.053232103672966727 a3_x1
+0.99851325595360108 a4_x1
+0.0082379183235243257 short_1
-0.0082379183235243257 surp_1
= 39.628916874387635

coupling_2: 
+0.00016669851411066678 a1_x2
+0.0018595737035065002 a2_x2
+0.076285994089913531 a3_x2
+0.99692834233034211 a4_x2
+0.012466787104873898 short_2
-0.012466787104873898 surp_2
= 84.345122421095908

coupling_3: 
+6.1204824915791768e-05 a1_x3
+0.0018724268238685378 a2_x3
+0.057036870340625614 a3_x3
+0.99829967275581244 a4_x3
+0.0083978886972586909 short_3
-0.0083978886972586909 surp_3
= 35.835519246282516

bounds
  0 <= a1_x1 <= 100
  0 <= a1_x2 <= 100
  0 <= a1_x3 <= 100
  0 <= a1_x4 <= 100
  0 <= a1_x5 <= 100
  0 <= a1_x6 <= 100
  0 <= a2_x1 <= 100
  0 <= a2_x2 <= 100
  0 <= a2_x3 <= 100
  0 <= a2_x4 <= 100
  0 <= a2_x5 <= 100
  0 <= a2_x6 <= 100
  0 <= a3_x1 <= 100
  0 <= a3_x2 <= 100
  0 <= a3_x3 <= 100
  0 <= a3_x4 <= 100
  0 <= a3_x5 <= 100
  0 <= a3_x6 <= 100
  0 <= a4_x1 <= 100
  0 <= a4_x2 <= 100
  0 <= a4_x3 <= 100
  0 <= a4_x4 <= 100
  0 <= a4_x5 <= 100
  0 <= a4_x6 <= 100
  0 <= short_1 <= +inf
  0 <= surp_1 <= +inf
  0 <= short_2 <= +inf
  0 <= surp_2 <= +inf
  0 <= short_3 <= +inf
  0 <= surp_3 <= +inf
 0 <= a1_z1 <= 1
 0 <= a1_z2 <= 1
 0 <= a2_z1 <= 1
 0 <= a2_z2 <= 1
 0 <= a3_z1 <= 1
 0 <= a3_z2 <= 1
 0 <= a4_z1 <= 1
 0 <= a4_z2 <= 1

binary
  a1_z1
  a1_z2
  a2_z1
  a2_z2
  a3_z1
  a3_z2
  a4_z1
  a4_z2
end
