min
obj: 
  +1.5869078218103445 a1_x1
  +1.8591431952918778 a1_x2
  +3.3231109040519993 a1_x3
  +9.2087059181463786 a1_x4
  +9.6203246603591985 a1_x5
  +2.6522167369866532 a1_x6
  +45.971215901918207 a1_z1
  +15.231591264695247 a1_z2
  +9.6966969925339086 a2_x1
  +9.5099240901526567 a2_x2
  +7.5753998333245365 a2_x3
  +7.2545869758953661 a2_x4
  +4.0776176539598987 a2_x5
  +7.0823179577413251 a2_x6
  +41.740356324700421 a2_z1
  +13.295788449057502 a2_z2
  +8.20725746769123 a3_x1
  +8.7650426689296079 a3_x2
  +7.7797720123238729 a3_x3
  +6.0483854765360672 a3_x4
  +6.4868155236610479 a3_x5
  +7.5914186799784584 a3_x6
  +13.335393596501099 a3_z1
  +17.076428731733131 a3_z2
  +4.0749166189662294 a4_x1
  +3.9578684115063361 a4_x2
  +4.7726522238702849 a4_x3
  +6.6226528859876028 a4_x4
  +9.5073045520096944 a4_x5
  +5.1085987408368467 a4_x6
  +30.995431749404506 a4_z1
  +14.100841079092167 a4_z2
  +1000000 short_1
  +1000000 surp_1
  +1000000 short_2
  +1000000 surp_2
  +1000000 short_3
  +1000000 surp_3

s.t.

a1_local_1: 
+0.53246830785528043 a1_x4
+0.69012198110526712 a1_x1
+0.49011136726776261 a1_x3
<= 75.931814365354427

a1_local_2: 
+0.6832348154560749 a1_x3
+0.60389170852950547 a1_x5
+0.41049359473445873 a1_x2
<= 84.219465282752438

a1_local_3: 
+0.50958828296615233 a1_x1
+0.73980277515074666 a1_x2
+0.43933089550231103 a1_x5
<= 105.8945993200079

a1_local_4: 
+0.45062289360061841 a1_x3
+0.63146466142478863 a1_x5
+0.63102407967896323 a1_x6
<= 112.67898500574827

a1_local_5: 
+0.53247556794846995 a1_x4
+0.60570088277220469 a1_x5
+0.59126661511278178 a1_x6
<= 93.251725521306753

a1_local_6: 
+0.5388363761414604 a1_x4
+0.56651283452979539 a1_x6
+0.62347298903782133 a1_x1
<= 112.3536903086321

a1_local_7: 
+0.62936826550831781 a1_x5
+0.54691841509895278 a1_x2
+0.5520650628292838 a1_x4
<= 62.794793516606362

a1_local_8: 
+0.58622759388607071 a1_x2
+0.47341285231839841 a1_x6
+0.65743249039449403 a1_x3
<= 62.937929107792939

a1_act_1: 
+0.0099995000374968751 a1_x1
-0.99995000374968757 a1_z1
<= 0

a1_act_2: 
+0.0099995000374968751 a1_x2
-0.99995000374968757 a1_z2
<= 0

a2_local_1: 
+0.33605806935615096 a2_x5
+0.59684928849931784 a2_x3
+0.72858486179612203 a2_x6
<= 54.193337951737661

a2_local_2: 
+0.64885288438045774 a2_x5
+0.55926572252859474 a2_x1
+0.51595715523261165 a2_x4
<= 106.39236681572727

a2_local_3: 
+0.70420377354837282 a2_x6
+0.4218933320904184 a2_x1
+0.57105434212330108 a2_x3
<= 92.464126339695241

a2_local_4: 
+0.31152223204326313 a2_x4
+0.73618456743677285 a2_x2
+0.60082125595780544 a2_x5
<= 75.440842778789474

a2_local_5: 
+0.51109331040276573 a2_x5
+0.64216338199646661 a2_x3
+0.57132286746147509 a2_x1
<= 94.271771324037104

a2_local_6: 
+0.62672817374121104 a2_x6
+0.26087873167654946 a2_x2
+0.73427112403923489 a2_x1
<= 81.922087083214024

a2_local_7: 
+0.6082303293999104 a2_x2
+0.53784200562423667 a2_x1
+0.58376522968071232 a2_x3
<= 55.669065228086083

a2_local_8: 
+0.64747528664165765 a2_x6
+0.53996813179999203 a2_x3
+0.53778264180682689 a2_x5
<= 82.421864558868108

a2_act_1: 
+0.0099995000374968751 a2_x1
-0.99995000374968757 a2_z1
<= 0

a2_act_2: 
+0.0099995000374968751 a2_x2
-0.99995000374968757 a2_z2
<= 0

a3_local_1: 
+0.70503740847773999 a3_x2
+0.6047665368860462 a3_x3
+0.37037776459967331 a3_x1
<= 56.197030555299676

a3_local_2: 
+0.49574343623345007 a3_x6
+0.80971240511796705 a3_x2
+0.3140131628284531 a3_x3
<= 78.972640593996559

a3_local_3: 
+0.69477170374508623 a3_x4
+0.53868829008248909 a3_x2
+0.47655766262138111 a3_x3
<= 59.190489731768601

a3_local_4: 
+0.58951766107536552 a3_x4
+0.6572155206519722 a3_x1
+0.46961333743238964 a3_x3
<= 96.602387510134037

a3_local_5: 
+0.53447684292787667 a3_x3
+0.53741971666554778 a3_x4
+0.65231476490492857 a3_x6
<= 57.841595876608103

a3_local_6: 
+0.67314669660253024 a3_x3
+0.45454329667832338 a3_x4
+0.58332145194386864 a3_x5
<= 109.18886243920755

a3_local_7: 
+0.4636542972641009 a3_x5
+0.59152824592302922 a3_x6
+0.65963552580478624 a3_x2
<= 86.025905751169958

a3_local_8: 
+0.55179200407085471 a3_x4
+0.62769603711190192 a3_x6
+0.54911134502711179 a3_x5
<= 58.144802456674114

a3_act_1: 
+0.0099995000374968751 a3_x1
-0.99995000374968757 a3_z1
<= 0

a3_act_2: 
+0.0099995000374968751 a3_x2
-0.99995000374968757 a3_z2
<= 0

a4_local_1: 
+0.68273213045907311 a4_x4
+0.32570646856175339 a4_x6
+0.65405820411936333 a4_x5
<= 66.898944369983809

a4_local_2: 
+0.441041663298329 a4_x5
+0.66064954687021393 a4_x4
+0.60747380804049833 a4_x2
<= 54.052014173447496

a4_local_3: 
+0.60116332172399312 a4_x4
+0.72855972185531837 a4_x2
+0.32833426915854536 a4_x1
<= 73.264685613368641

a4_local_4: 
+0.62033979026957808 a4_x6
+0.70332783652929676 a4_x1
+0.34714334066969316 a4_x5
<= 111.98715338350438

a4_local_5: 
+0.53199719226271047 a4_x3
+0.29003253091656628 a4_x6
+0.79552505833237175 a4_x1
<= 94.954731567267416

a4_local_6: 
+0.6985682632599024 a4_x5
+0.4989634813080856 a4_x2
+0.51287213405190935 a4_x1
<= 91.341146817584743

a4_local_7: 
+0.82597002230669148 a4_x2
+0.39562557118909619 a4_x4
+0.40156435308924621 a4_x1
<= 101.75096161790387

a4_local_8: 
+0.7577552540788498 a4_x6
+0.38714041844742531 a4_x5
+0.52528970227889493 a4_x4
<= 64.625519327183994

a4_act_1: 
+0.0099995000374968751 a4_x1
-0.99995000374968757 a4_z1
<= 0

a4_act_2: 
+0.0099995000374968751 a4_x2
-0.99995000374968757 a4_z2
<= 0

coupling_1: 
+0.00014066978836753082 a1_x1
+0.0014005861182742857 a2_x1
+0.039273489735688775 a3_x1
+0.99912538506450077 a4_x1
+0.010101398275228228 short_1
-0.010101398275228228 surp_1
= 60.283763908258614

coupling_2: 
+9.4487876187707639e-05 a1_x2
+0.0018888839079455621 a2_x2
+0.048167006404868103 a3_x2
+0.99873713012282883 a4_x2
+0.010012681899286184 short_2
-0.010012681899286184 surp_2
= 46.462085603458355

coupling_3: 
+0.0001091977292058001 a1_x3
+0.0014675340248960994 a2_x3
+0.052025425844021429 a3_x3
+0.99858845506570926 a4_x3
+0.0074928931318290516 short_3
-0.0074928931318290516 surp_3
= 46.272654284146945

bounds
  0 <= a1_x1 <= 100
  0 <= a1_x2 <= 100
  0 <= a1_x3 <= 100
  0 <= a1_x4 <= 100
  0 <= a1_x5 <= 100
  0 <= a1_x6 <= 100
  0 <= a2_x1 <= 100
  0 <= a2_x2 <= 100
  0 <= a2_x3 <= 100
  0 <= a2_x4 <= 100
  0 <= a2_x5 <= 100
  0 <= a2_x6 <= 100
  0 <= a3_x1 <= 100
  0 <= a3_x2 <= 100
  0 <= a3_x3 <= 100
  0 <= a3_x4 <= 100
  0 <= a3_x5 <= 100
  0 <= a3_x6 <= 100
  0 <= a4_x1 <= 100
  0 <= a4_x2 <= 100
  0 <= a4_x3 <= 100
  0 <= a4_x4 <= 100
  0 <= a4_x5 <= 100
  0 <= a4_x6 <= 100
  0 <= short_1 <= +inf
  0 <= surp_1 <= +inf
  0 <= short_2 <= +inf
  0 <= surp_2 <= +inf
  0 <= short_3 <= +inf
  0 <= surp_3 <= +inf
 0 <= a1_z1 <= 1
 0 <= a1_z2 <= 1
 0 <= a2_z1 <= 1
 0 <= a2_z2 <= 1
 0 <= a3_z1 <= 1
 0 <= a3_z2 <= 1
 0 <= a4_z1 <= 1
 0 <= a4_z2 <= 1

binary
  a1_z1
  a1_z2
  a2_z1
  a2_z2
  a3_z1
  a3_z2
  a4_z1
  a4_z2
end
