min
obj: 
  +1.5869078218103445 a1_x1
  +1.8591431952918778 a1_x2
  +3.3231109040519993 a1_x3
  +9.2087059181463786 a1_x4
  +9.6203246603591985 a1_x5
  +2.6522167369866532 a1_x6
  +45.971215901918207 a1_z1
  +15.231591264695247 a1_z2
  +9.6966969925339086 a2_x1
  +9.5099240901526567 a2_x2
  +7.5753998333245365 a2_x3
  +7.2545869758953661 a2_x4
  +4.0776176539598987 a2_x5
  +7.0823179577413251 a2_x6
  +41.740356324700421 a2_z1
  +13.295788449057502 a2_z2
  +8.20725746769123 a3_x1
  +8.7650426689296079 a3_x2
  +7.7797720123238729 a3_x3
  +6.0483854765360672 a3_x4
  +6.4868155236610479 a3_x5
  +7.5914186799784584 a3_x6
  +13.335393596501099 a3_z1
  +17.076428731733131 a3_z2
  +4.0749166189662294 a4_x1
  +3.9578684115063361 a4_x2
  +4.7726522238702849 a4_x3
  +6.6226528859876028 a4_x4
  +9.5073045520096944 a4_x5
  +5.1085987408368467 a4_x6
  +30.995431749404506 a4_z1
  +14.100841079092167 a4_z2
  +1000000 short_1
  +1000000 surp_1
  +1000000 short_2
  +1000000 surp_2
  +1000000 short_3
  +1000000 surp_3

s.t.

a1_local_1: 
+0.0069026813349135421 a1_x4
+0.0089464331444935648 a1_x1
+0.0063535848743651972 a1_x3
<= 0.98434612917527131

a1_local_2: 
+0.014449070887233103 a1_x3
+0.012771120422091706 a1_x5
+0.0086811311644212474 a1_x2
<= 1.7810758416095254

a1_local_3: 
+0.007623254584171648 a1_x1
+0.011067179300559849 a1_x2
+0.0065722297294827769 a1_x5
<= 1.5841445274339043

a1_local_4: 
+0.0093765416981877181 a1_x3
+0.013139489388724201 a1_x5
+0.013130321782795032 a1_x6
<= 2.3446194510309661

a1_local_5: 
+0.010538838025278715 a1_x4
+0.011988124675651492 a1_x5
+0.011702439438557387 a1_x6
<= 1.8456524392907125

a1_local_6: 
+0.012948527956256367 a1_x4
+0.013613608138366118 a1_x6
+0.0149823912897958 a1_x1
<= 2.6999196126431544

a1_local_7: 
+0.0092912544732829377 a1_x5
+0.008074061641326593 a1_x2
+0.0081500407085396947 a1_x4
<= 0.92702863829465898

a1_local_8: 
+0.012098913430472607 a1_x2
+0.0097705757572827071 a1_x6
+0.013568482395949521 a1_x3
<= 1.2989503798696949

a1_act_1: 
+1 a1_x1
-100 a1_z1
<= 0

a1_act_2: 
+1 a1_x2
-100 a1_z2
<= 0

a2_local_1: 
+0.13365419029945028 a2_x5
+0.23737388165685852 a2_x3
+0.28976664644406114 a2_x6
<= 21.553318798269149

a2_local_2: 
+0.28000331070837847 a2_x5
+0.24134323456578641 a2_x1
+0.22265403318157642 a2_x4
<= 45.912125320901303

a2_local_3: 
+0.2891230480572955 a2_x6
+0.1732156098999541 a2_x1
+0.23445624434686604 a2_x3
<= 37.962747499323335

a2_local_4: 
+0.13135316310508499 a2_x4
+0.31041178322239127 a2_x2
+0.25333592377402947 a2_x5
<= 31.809586305645194

a2_local_5: 
+0.23559003935060344 a2_x5
+0.29600719351001215 a2_x3
+0.26335303962612805 a2_x1
<= 43.454864041125603

a2_local_6: 
+0.27300710559321728 a2_x6
+0.11364057087252194 a2_x2
+0.31985355484817302 a2_x1
<= 35.685824917101705

a2_local_7: 
+0.25572075898544272 a2_x2
+0.22612710883421266 a2_x1
+0.24543479729224604 a2_x3
<= 23.405172225103424

a2_local_8: 
+0.19362475047231015 a2_x6
+0.16147518977143038 a2_x3
+0.16082162821731882 a2_x5
<= 24.647910565744532

a2_act_1: 
+1 a2_x1
-100 a2_z1
<= 0

a2_act_2: 
+1 a2_x2
-100 a2_z2
<= 0

a3_local_1: 
+5.9784312589415318 a3_x2
+5.1281749379621875 a3_x3
+3.1406532176504878 a3_x1
<= 476.52802545172113

a3_local_2: 
+3.9178677636628954 a3_x6
+6.3991692032322689 a3_x2
+2.4816507049668379 a3_x3
<= 624.12195539156585

a3_local_3: 
+4.4436659606042861 a3_x4
+3.4453775320906828 a3_x2
+3.0479984320615761 a3_x3
<= 378.57437629477994

a3_local_4: 
+3.9527889691762774 a3_x4
+4.4067115065997076 a3_x1
+3.148815620883485 a3_x3
<= 647.73097900002256

a3_local_5: 
+2.8443566930574842 a3_x3
+2.8600179564467707 a3_x4
+3.4714616584201123 a3_x6
<= 307.81900571688072

a3_local_6: 
+5.4800956148322006 a3_x3
+3.7004426218688944 a3_x4
+4.7488271827955835 a3_x5
<= 888.90788480676702

a3_local_7: 
+3.5183268134823966 a3_x5
+4.4886668814324437 a3_x6
+5.0054822553334093 a3_x2
<= 652.78646751342262

a3_local_8: 
+5.7261658495793348 a3_x4
+6.5138522941788013 a3_x6
+5.6983475808161002 a3_x5
<= 603.39182101520771

a3_act_1: 
+1 a3_x1
-100 a3_z1
<= 0

a3_act_2: 
+1 a3_x2
-100 a3_z2
<= 0

a4_local_1: 
+141.40647442705222 a4_x4
+67.45984459005038 a4_x6
+135.46757298857304 a4_x5
<= 13856.01093636824

a4_local_2: 
+61.513562907119422 a4_x5
+92.143012424365708 a4_x4
+84.726413431944266 a4_x2
<= 7538.8160593477214

a4_local_3: 
+121.70123597254326 a4_x4
+147.4917304923558 a4_x2
+66.468936019158107 a4_x1
<= 14831.914173866518

a4_local_4: 
+111.40687811464198 a4_x6
+126.31070872433253 a4_x1
+62.343503429776291 a4_x5
<= 20111.78283756406

a4_local_5: 
+91.772138852192953 a4_x3
+50.03204168375408 a4_x6
+137.2319951599012 a4_x1
<= 16380.159400842729

a4_local_6: 
+100.09553427829485 a4_x5
+71.494825736606842 a4_x2
+73.487750552554786 a4_x1
<= 13087.970600944294

a4_local_7: 
+122.97370265999001 a4_x2
+58.902308851630195 a4_x4
+59.786498325616222 a4_x1
<= 15149.087934721765

a4_local_8: 
+147.40553525210521 a4_x6
+75.310121957964711 a4_x5
+102.18419378822585 a4_x4
<= 12571.551587522959

a4_act_1: 
+1 a4_x1
-100 a4_z1
<= 0

a4_act_2: 
+1 a4_x2
-100 a4_z2
<= 0

coupling_1: 
+4200.0663740977452 a1_x1
+41818.180916164063 a2_x1
+1172613.2920692812 a3_x1
+29831515.224526182 a4_x1
+301603.80362772959 short_1
-301603.80362772959 surp_1
= 1799930266.7150848

coupling_2: 
+375.84948134516935 a1_x2
+7513.5145985526442 a2_x2
+191596.47888851902 a3_x2
+3972730.126890738 a4_x2
+39827.98058922249 short_2
-39827.98058922249 surp_2
= 184814724.18306395

coupling_3: 
+43.311493442172633 a1_x3
+582.07337055207313 a2_x3
+20635.034324046068 a3_x3
+396073.77953341632 a4_x3
+2971.933520068811 short_3
-2971.933520068811 surp_3
= 18353291.567104317

bounds
  0 <= a1_x1 <= 100
  0 <= a1_x2 <= 100
  0 <= a1_x3 <= 100
  0 <= a1_x4 <= 100
  0 <= a1_x5 <= 100
  0 <= a1_x6 <= 100
  0 <= a2_x1 <= 100
  0 <= a2_x2 <= 100
  0 <= a2_x3 <= 100
  0 <= a2_x4 <= 100
  0 <= a2_x5 <= 100
  0 <= a2_x6 <= 100
  0 <= a3_x1 <= 100
  0 <= a3_x2 <= 100
  0 <= a3_x3 <= 100
  0 <= a3_x4 <= 100
  0 <= a3_x5 <= 100
  0 <= a3_x6 <= 100
  0 <= a4_x1 <= 100
  0 <= a4_x2 <= 100
  0 <= a4_x3 <= 100
  0 <= a4_x4 <= 100
  0 <= a4_x5 <= 100
  0 <= a4_x6 <= 100
  0 <= short_1 <= +inf
  0 <= surp_1 <= +inf
  0 <= short_2 <= +inf
  0 <= surp_2 <= +inf
  0 <= short_3 <= +inf
  0 <= surp_3 <= +inf
 0 <= a1_z1 <= 1
 0 <= a1_z2 <= 1
 0 <= a2_z1 <= 1
 0 <= a2_z2 <= 1
 0 <= a3_z1 <= 1
 0 <= a3_z2 <= 1
 0 <= a4_z1 <= 1
 0 <= a4_z2 <= 1

binary
  a1_z1
  a1_z2
  a2_z1
  a2_z2
  a3_z1
  a3_z2
  a4_z1
  a4_z2
end
