min
obj: 
  +9.9278906915658744 a1_x1
  +4.1029321056614965 a1_x2
  +3.3290118192963942 a1_x3
  +9.1017647242801925 a1_x4
  +1.0276781995025082 a1_x5
  +7.5015228430107515 a1_x6
  +48.476105885704612 a1_z1
  +46.462393702811802 a1_z2
  +6.9375805284658387 a2_x1
  +8.736124438174345 a2_x2
  +2.0422875685559534 a2_x3
  +7.9141637375248139 a2_x4
  +8.8510497644699591 a2_x5
  +5.3589026031734779 a2_x6
  +22.325512980558837 a2_z1
  +43.599104627831977 a2_z2
  +2.4447445858231625 a3_x1
  +8.7712175698219141 a3_x2
  +5.7628145052800139 a3_x3
  +8.5270938060320436 a3_x4
  +1.138926571582954 a3_x5
  +2.911442950069294 a3_x6
  +15.137864115812766 a3_z1
  +21.64888772902043 a3_z2
  +4.3135462509833289 a4_x1
  +3.737467766634015 a4_x2
  +6.3047039607963935 a4_x3
  +7.2324424815448989 a4_x4
  +3.5312943582825165 a4_x5
  +2.1943254476366931 a4_x6
  +13.983355852863056 a4_z1
  +25.767819676338174 a4_z2
  +1000000 short_1
  +1000000 surp_1
  +1000000 short_2
  +1000000 surp_2
  +1000000 short_3
  +1000000 surp_3

s.t.

a1_local_1: 
+0.6448703090665312 a1_x4
+0.62715795005958974 a1_x6
+0.43682398075367784 a1_x1
<= 68.134168933867841

a1_local_2: 
+0.59341904434827586 a1_x4
+0.5147065682893962 a1_x3
+0.61881417757234047 a1_x5
<= 87.107505350964786

a1_local_3: 
+0.42156404829575267 a1_x4
+0.52924120877758873 a1_x3
+0.73633382111385659 a1_x2
<= 90.781971010484568

a1_local_4: 
+0.57098764821340886 a1_x4
+0.72026599000039815 a1_x5
+0.39394163176347169 a1_x2
<= 110.40222656755894

a1_local_5: 
+0.71095354765033913 a1_x2
+0.30548502185222132 a1_x1
+0.63342241396034049 a1_x6
<= 83.122942605836556

a1_local_6: 
+0.35918304043566246 a1_x3
+0.72825087008787792 a1_x5
+0.58364219662361805 a1_x4
<= 114.47712533380438

a1_local_7: 
+0.41594824736734476 a1_x6
+0.46230644877178778 a1_x4
+0.78310906196777763 a1_x3
<= 55.679404113317027

a1_local_8: 
+0.68853074985386409 a1_x1
+0.37708187307670138 a1_x3
+0.61946320915986774 a1_x4
<= 102.5177618445927

a1_act_1: 
+0.0099995000374968751 a1_x1
-0.99995000374968757 a1_z1
<= 0

a1_act_2: 
+0.0099995000374968751 a1_x2
-0.99995000374968757 a1_z2
<= 0

a2_local_1: 
+0.44463472549717409 a2_x3
+0.42946099803663429 a2_x1
+0.78604275459254147 a2_x6
<= 99.848636141435989

a2_local_2: 
+0.3862347039863343 a2_x4
+0.68956230628680104 a2_x1
+0.6126390284539639 a2_x5
<= 59.365411274273043

a2_local_3: 
+0.26798414590432956 a2_x2
+0.63206844480409485 a2_x5
+0.72709970336045382 a2_x1
<= 83.990332902247872

a2_local_4: 
+0.61132284953184846 a2_x2
+0.59031462912152288 a2_x1
+0.52707970202368792 a2_x4
<= 96.282682778944135

a2_local_5: 
+0.46083535089669581 a2_x4
+0.61866351357893934 a2_x5
+0.6363067156097606 a2_x2
<= 66.549693877347707

a2_local_6: 
+0.58578923820273943 a2_x1
+0.67823695214596613 a2_x2
+0.443672858252119 a2_x3
<= 111.55977940358265

a2_local_7: 
+0.49589496813760747 a2_x1
+0.5598421997367985 a2_x2
+0.66382595005744072 a2_x4
<= 109.77879017725587

a2_local_8: 
+0.31401648478168342 a2_x6
+0.73040356462989209 a2_x3
+0.60655113557003726 a2_x5
<= 74.330540737259639

a2_act_1: 
+0.0099995000374968751 a2_x1
-0.99995000374968757 a2_z1
<= 0

a2_act_2: 
+0.0099995000374968751 a2_x2
-0.99995000374968757 a2_z2
<= 0

a3_local_1: 
+0.67563906867660972 a3_x4
+0.26028406235977947 a3_x6
+0.68975651918578773 a3_x3
<= 69.658563737751805

a3_local_2: 
+0.60465004494781682 a3_x6
+0.59636928788082255 a3_x4
+0.52796022162386802 a3_x3
<= 68.98790712548842

a3_local_3: 
+0.67841394787247555 a3_x2
+0.49594632786713544 a3_x1
+0.54202560382991671 a3_x4
<= 79.043389908317792

a3_local_4: 
+0.4227031611441372 a3_x5
+0.45427196029214911 a3_x3
+0.7841932310668599 a3_x2
<= 96.628838911708129

a3_local_5: 
+0.32061076179745063 a3_x1
+0.43538706840208602 a3_x2
+0.84121747490639764 a3_x5
<= 55.614325342818923

a3_local_6: 
+0.65576841122668783 a3_x6
+0.561295929732467 a3_x4
+0.50489075066096301 a3_x2
<= 101.0012707758729

a3_local_7: 
+0.78080195138319797 a3_x2
+0.47951594796831615 a3_x3
+0.40051562810986185 a3_x5
<= 86.885049796609493

a3_local_8: 
+0.34060344929533887 a3_x5
+0.45625349258386411 a3_x2
+0.82208396215541357 a3_x3
<= 92.272891454939938

a3_act_1: 
+0.0099995000374968751 a3_x1
-0.99995000374968757 a3_z1
<= 0

a3_act_2: 
+0.0099995000374968751 a3_x2
-0.99995000374968757 a3_z2
<= 0

a4_local_1: 
+0.36699818472717499 a4_x1
+0.74207918488137992 a4_x4
+0.56091961614187191 a4_x6
<= 71.694710181219108

a4_local_2: 
+0.61634848862001845 a4_x6
+0.615447384917027 a4_x3
+0.49126271685790707 a4_x4
<= 115.25127274621158

a4_local_3: 
+0.4367624102631863 a4_x1
+0.82698009021235541 a4_x2
+0.35403746605897052 a4_x5
<= 56.950894292545797

a4_local_4: 
+0.61978555737435792 a4_x4
+0.51614602404951659 a4_x5
+0.59115069544747401 a4_x1
<= 62.89635951794056

a4_local_5: 
+0.35193122180860054 a4_x4
+0.77168593554715237 a4_x6
+0.52975959830381714 a4_x2
<= 112.59720457191493

a4_local_6: 
+0.65918409742660733 a4_x6
+0.60633725015088269 a4_x2
+0.44478249153865645 a4_x3
<= 86.392049368642887

a4_local_7: 
+0.71214253670041727 a4_x6
+0.62590084556639336 a4_x3
+0.31796405290719371 a4_x4
<= 103.08470283908015

a4_local_8: 
+0.55491793394775091 a4_x2
+0.5454855868423869 a4_x4
+0.62810155319850658 a4_x3
<= 78.595428204025225

a4_act_1: 
+0.0099995000374968751 a4_x1
-0.99995000374968757 a4_z1
<= 0

a4_act_2: 
+0.0099995000374968751 a4_x2
-0.99995000374968757 a4_z2
<= 0

coupling_1: 
+0.00024551504481960346 a1_x1
+0.003087464412676219 a2_x1
+0.11321962304990028 a3_x1
+0.98131950505780985 a4_x1
+0.018614237246445727 short_1
-0.018614237246445727 surp_1
= 48.830602768414259

coupling_2: 
+9.0502811407125065e-05 a1_x2
+0.0032662918953800064 a2_x2
+0.046067753326066503 a3_x2
+0.99873880261145376 a4_x2
+0.013926403129012456 short_2
-0.013926403129012456 surp_2
= 49.614787182599756

coupling_3: 
+0.00013834924500797022 a1_x3
+0.0014191709385466197 a2_x3
+0.045122163719615534 a3_x3
+0.99882816707159872 a4_x3
+0.012333892714473804 short_3
-0.012333892714473804 surp_3
= 70.553842985774097

bounds
  0 <= a1_x1 <= 100
  0 <= a1_x2 <= 100
  0 <= a1_x3 <= 100
  0 <= a1_x4 <= 100
  0 <= a1_x5 <= 100
  0 <= a1_x6 <= 100
  0 <= a2_x1 <= 100
  0 <= a2_x2 <= 100
  0 <= a2_x3 <= 100
  0 <= a2_x4 <= 100
  0 <= a2_x5 <= 100
  0 <= a2_x6 <= 100
  0 <= a3_x1 <= 100
  0 <= a3_x2 <= 100
  0 <= a3_x3 <= 100
  0 <= a3_x4 <= 100
  0 <= a3_x5 <= 100
  0 <= a3_x6 <= 100
  0 <= a4_x1 <= 100
  0 <= a4_x2 <= 100
  0 <= a4_x3 <= 100
  0 <= a4_x4 <= 100
  0 <= a4_x5 <= 100
  0 <= a4_x6 <= 100
  0 <= short_1 <= +inf
  0 <= surp_1 <= +inf
  0 <= short_2 <= +inf
  0 <= surp_2 <= +inf
  0 <= short_3 <= +inf
  0 <= surp_3 <= +inf
 0 <= a1_z1 <= 1
 0 <= a1_z2 <= 1
 0 <= a2_z1 <= 1
 0 <= a2_z2 <= 1
 0 <= a3_z1 <= 1
 0 <= a3_z2 <= 1
 0 <= a4_z1 <= 1
 0 <= a4_z2 <= 1

binary
  a1_z1
  a1_z2
  a2_z1
  a2_z2
  a3_z1
  a3_z2
  a4_z1
  a4_z2
end
