min
obj: 
  +7.7820756929973847 a1_x1
  +2.6204029212029933 a1_x2
  +1.0229393332967094 a1_x3
  +7.1910932224071349 a1_x4
  +4.2632745770435907 a1_x5
  +6.0246265469097295 a1_x6
  +42.771027111197313 a1_z1
  +28.114118371176183 a1_z2
  +1.0942907269569377 a2_x1
  +2.3925011221889392 a2_x2
  +1.8354708126815493 a2_x3
  +3.2680190161516656 a2_x4
  +8.5745129304172316 a2_x5
  +5.2855415708546367 a2_x6
  +40.375428510282923 a2_z1
  +37.679921062184903 a2_z2
  +8.2763747483341881 a3_x1
  +6.9098336189226917 a3_x2
  +7.224692972136415 a3_x3
  +2.7635056217757095 a3_x4
  +4.5804152664090756 a3_x5
  +5.5391766018428115 a3_x6
  +12.640130628939682 a3_z1
  +24.719908715545547 a3_z2
  +3.7933549198548668 a4_x1
  +7.8772143187643042 a4_x2
  +7.8222341244321543 a4_x3
  +1.2624357252124174 a4_x4
  +2.9341291076023293 a4_x5
  +4.8680356039416175 a4_x6
  +47.52172151037577 a4_z1
  +34.587285029007681 a4_z2
  +1000000 short_1
  +1000000 surp_1
  +1000000 short_2
  +1000000 surp_2
  +1000000 short_3
  +1000000 surp_3

s.t.

a1_local_1: 
+0.0088679212429721398 a1_x4
+0.013625371621266162 a1_x6
+0.006330781645516469 a1_x3
<= 1.4408204712186554

a1_local_2: 
+0.0071640751935760404 a1_x6
+0.013833621076180008 a1_x2
+0.0096983152520084166 a1_x4
<= 2.0397877671564641

a1_local_3: 
+0.014450104004679902 a1_x2
+0.014490156228902406 a1_x5
+0.010648424990039342 a1_x4
<= 2.6206948836575275

a1_local_4: 
+0.010142073681811303 a1_x2
+0.0055163413817395871 a1_x1
+0.0086355839508213995 a1_x3
<= 1.4036112880798943

a1_local_5: 
+0.014968906423893719 a1_x3
+0.0057194387692118499 a1_x2
+0.0097784473755248864 a1_x6
<= 1.330434179023589

a1_local_6: 
+0.011093955519301587 a1_x4
+0.012896460877189351 a1_x5
+0.0089569905112334685 a1_x2
<= 1.2092731661487697

a1_local_7: 
+0.0080763814962738541 a1_x1
+0.014698989791395141 a1_x5
+0.0078620916609128937 a1_x3
<= 2.0205653523515483

a1_local_8: 
+0.010516762300609524 a1_x1
+0.011997749428466223 a1_x5
+0.012215878816147049 a1_x4
<= 1.1089702877038004

a1_act_1: 
+1 a1_x1
-100 a1_z1
<= 0

a1_act_2: 
+1 a1_x2
-100 a1_z2
<= 0

a2_local_1: 
+0.17125215768709062 a2_x2
+0.19775327389823391 a2_x3
+0.15865874568316388 a2_x4
<= 36.780167038400208

a2_local_2: 
+0.13516466956775397 a2_x1
+0.23536455053351349 a2_x4
+0.11724893835949013 a2_x5
<= 30.0901458448234

a2_local_3: 
+0.18701674036787302 a2_x5
+0.18604714376703479 a2_x2
+0.28507183284513432 a2_x6
<= 22.144428082149993

a2_local_4: 
+0.11091031288984149 a2_x5
+0.15378435012825487 a2_x4
+0.2310395269526814 a2_x6
<= 22.491704566929613

a2_local_5: 
+0.18227175437014917 a2_x1
+0.23179674955958429 a2_x3
+0.15679463874693714 a2_x2
<= 38.445816044285593

a2_local_6: 
+0.14022546621692095 a2_x5
+0.12024136573207493 a2_x6
+0.1096905762912203 a2_x1
<= 11.145846757096892

a2_local_7: 
+0.31863094578972151 a2_x5
+0.2668640327132496 a2_x6
+0.26792380827117596 a2_x3
<= 48.722736263439394

a2_local_8: 
+0.11069179125522448 a2_x5
+0.12392552684329783 a2_x2
+0.10936647926759209 a2_x4
<= 12.290647527795494

a2_act_1: 
+1 a2_x1
-100 a2_z1
<= 0

a2_act_2: 
+1 a2_x2
-100 a2_z2
<= 0

a3_local_1: 
+6.9423632314807016 a3_x1
+6.8709433651285234 a3_x5
+4.1293175390384809 a3_x3
<= 1005.1021284285542

a3_local_2: 
+3.3431393035815118 a3_x1
+3.2865487424789639 a3_x3
+2.9132891957397864 a3_x5
<= 560.63057474774246

a3_local_3: 
+6.2050938399165005 a3_x5
+5.3207444704705678 a3_x2
+2.6726659925369791 a3_x4
<= 678.24068580014068

a3_local_4: 
+6.9477281653578213 a3_x6
+4.9655660403295574 a3_x3
+3.6721337827898903 a3_x4
<= 962.84698725171438

a3_local_5: 
+5.6326930495359848 a3_x2
+6.589228067503992 a3_x4
+6.0359874449508251 a3_x1
<= 992.536972773711

a3_local_6: 
+2.8660608793760054 a3_x6
+2.375362008170101 a3_x4
+6.799278495981012 a3_x5
<= 629.01832323582482

a3_local_7: 
+2.5633469557303803 a3_x6
+6.1366624666369267 a3_x5
+2.8884586127780931 a3_x3
<= 614.47313451116713

a3_local_8: 
+5.3001867294648353 a3_x4
+5.3937416212345175 a3_x6
+2.4819109571545908 a3_x2
<= 803.94821666850794

a3_act_1: 
+1 a3_x1
-100 a3_z1
<= 0

a3_act_2: 
+1 a3_x2
-100 a3_z2
<= 0

a4_local_1: 
+58.802134406814275 a4_x2
+130.74359603982782 a4_x3
+98.401070193230893 a4_x4
<= 15867.078554945521

a4_local_2: 
+112.83919379255944 a4_x4
+80.952130996422866 a4_x6
+136.44171156052758 a4_x1
<= 12559.940473667106

a4_local_3: 
+95.538318524557255 a4_x3
+57.234232897860501 a4_x2
+86.07371982655043 a4_x5
<= 15460.166832898905

a4_local_4: 
+88.726609320833006 a4_x2
+107.54849126130321 a4_x1
+74.865572510366135 a4_x5
<= 10475.564139592787

a4_local_5: 
+101.34994350261854 a4_x6
+136.73089241876855 a4_x2
+57.820455843654706 a4_x3
<= 18957.141130555963

a4_local_6: 
+71.178231781487852 a4_x5
+141.94314221294366 a4_x6
+91.851659711587686 a4_x2
<= 12291.87290625865

a4_local_7: 
+132.91593620549307 a4_x6
+136.92673384369633 a4_x5
+106.19080401981864 a4_x3
<= 17634.621196239303

a4_local_8: 
+110.769236675839 a4_x5
+143.07669664222931 a4_x6
+131.43295814786623 a4_x4
<= 12491.45331545402

a4_act_1: 
+1 a4_x1
-100 a4_z1
<= 0

a4_act_2: 
+1 a4_x2
-100 a4_z2
<= 0

coupling_1: 
+0.14885643327714634 a1_x1
+3.2191592293335747 a2_x1
+124.25403766263592 a3_x1
+2771.1345373875652 a4_x1
+20.198790340379485 short_1
-20.198790340379485 surp_1
= 188053.03907106721

coupling_2: 
+1.2212903973865308 a1_x2
+58.959107987290551 a2_x2
+771.55849884999111 a3_x2
+28708.036338047739 a4_x2
+242.87022952604028 short_2
-242.87022952604028 surp_2
= 2067207.6315454298

coupling_3: 
+10.549728862267978 a1_x3
+230.45187134473645 a2_x3
+5169.4108817140122 a3_x3
+65162.480807027066 a4_x3
+858.26013415297246 short_3
-858.26013415297246 surp_3
= 3614704.4101045206

bounds
  0 <= a1_x1 <= 100
  0 <= a1_x2 <= 100
  0 <= a1_x3 <= 100
  0 <= a1_x4 <= 100
  0 <= a1_x5 <= 100
  0 <= a1_x6 <= 100
  0 <= a2_x1 <= 100
  0 <= a2_x2 <= 100
  0 <= a2_x3 <= 100
  0 <= a2_x4 <= 100
  0 <= a2_x5 <= 100
  0 <= a2_x6 <= 100
  0 <= a3_x1 <= 100
  0 <= a3_x2 <= 100
  0 <= a3_x3 <= 100
  0 <= a3_x4 <= 100
  0 <= a3_x5 <= 100
  0 <= a3_x6 <= 100
  0 <= a4_x1 <= 100
  0 <= a4_x2 <= 100
  0 <= a4_x3 <= 100
  0 <= a4_x4 <= 100
  0 <= a4_x5 <= 100
  0 <= a4_x6 <= 100
  0 <= short_1 <= +inf
  0 <= surp_1 <= +inf
  0 <= short_2 <= +inf
  0 <= surp_2 <= +inf
  0 <= short_3 <= +inf
  0 <= surp_3 <= +inf
 0 <= a1_z1 <= 1
 0 <= a1_z2 <= 1
 0 <= a2_z1 <= 1
 0 <= a2_z2 <= 1
 0 <= a3_z1 <= 1
 0 <= a3_z2 <= 1
 0 <= a4_z1 <= 1
 0 <= a4_z2 <= 1

binary
  a1_z1
  a1_z2
  a2_z1
  a2_z2
  a3_z1
  a3_z2
  a4_z1
  a4_z2
end
