min
obj: 
  +4.6820518769511636 a1_x1
  +5.7129162548306427 a1_x2
  +9.0056358908477314 a1_x3
  +9.0172471176233611 a1_x4
  +9.406385688684578 a1_x5
  +5.7753562095118767 a1_x6
  +36.440798325108226 a1_z1
  +20.355895911925103 a1_z2
  +7.5922132430360731 a2_x1
  +9.5705581106952309 a2_x2
  +1.2604999258751248 a2_x3
  +5.3940318901522675 a2_x4
  +5.1816392623674004 a2_x5
  +3.5951202349319828 a2_x6
  +41.62149658815251 a2_z1
  +8.2240572055779673 a2_z2
  +7.862026295743088 a3_x1
  +4.4443242856945142 a3_x2
  +6.878356128261002 a3_x3
  +6.0922718983064614 a3_x4
  +7.9699820931728009 a3_x5
  +3.3886243612057902 a3_x6
  +44.384252789712569 a3_z1
  +46.436857763791892 a3_z2
  +5.3272595951622712 a4_x1
  +2.1426688948262615 a4_x2
  +3.7175386403807593 a4_x3
  +7.4752828100284079 a4_x4
  +1.4623010448148774 a4_x5
  +9.334818787187654 a4_x6
  +27.5499217848452 a4_z1
  +29.024926983261683 a4_z2
  +1000000 short_1
  +1000000 surp_1
  +1000000 short_2
  +1000000 surp_2
  +1000000 short_3
  +1000000 surp_3

s.t.

a1_local_1: 
+0.0012957580237500511 a1_x4
+0.0010601880956378677 a1_x2
+0.00069810076583414317 a1_x6
<= 0.13398599026905639

a1_local_2: 
+0.0010700466556347484 a1_x5
+0.0011880899091204907 a1_x4
+0.00053136372283527479 a1_x1
<= 0.14736574184481871

a1_local_3: 
+0.0012510684960142151 a1_x6
+0.00098902633868452037 a1_x2
+0.00060919940674206889 a1_x1
<= 0.15056158549759061

a1_local_4: 
+0.0012445424349400601 a1_x5
+0.00082321047218287093 a1_x2
+0.0010098440835338417 a1_x6
<= 0.11150741682273185

a1_local_5: 
+0.001205365072150733 a1_x6
+0.0011708067214223417 a1_x2
+0.00061085046132833016 a1_x1
<= 0.15914279815919913

a1_local_6: 
+0.0012462886668514832 a1_x5
+0.00085112779134138264 a1_x4
+0.00083468631150077392 a1_x2
<= 0.11795214685793494

a1_local_7: 
+0.0014761759920281538 a1_x1
+0.00086652807460299293 a1_x4
+0.0012501795037520814 a1_x3
<= 0.23312028879374996

a1_local_8: 
+0.00096086537733216268 a1_x5
+0.001231479306389708 a1_x6
+0.0011782398371553563 a1_x4
<= 0.12767254791461025

a1_act_1: 
+1 a1_x1
-100 a1_z1
<= 0

a1_act_2: 
+1 a1_x2
-100 a1_z2
<= 0

a2_local_1: 
+0.054082613960028239 a2_x3
+0.072864137030756046 a2_x4
+0.10508939013471458 a2_x5
<= 13.229313374965582

a2_local_2: 
+0.075146202122615802 a2_x3
+0.10781288765701989 a2_x2
+0.13253941994695981 a2_x5
<= 19.926942660053463

a2_local_3: 
+0.13000313114037235 a2_x4
+0.13624956719155987 a2_x6
+0.057892003368850919 a2_x5
<= 22.080315903678063

a2_local_4: 
+0.091037536695756302 a2_x1
+0.10681447171700914 a2_x4
+0.13455304237443388 a2_x5
<= 23.082196271438011

a2_local_5: 
+0.086205772786747459 a2_x2
+0.13364775493508829 a2_x5
+0.092811423622561076 a2_x1
<= 10.320324535798449

a2_local_6: 
+0.12026605442546323 a2_x5
+0.090199849509627922 a2_x4
+0.074304545955066623 a2_x3
<= 19.092074658815495

a2_local_7: 
+0.058202117778879972 a2_x3
+0.06605430754476159 a2_x5
+0.059116627428762364 a2_x6
<= 5.8957808759253316

a2_local_8: 
+0.10267329351558714 a2_x2
+0.06449469194146859 a2_x6
+0.089414654395509913 a2_x4
<= 16.117521125046295

a2_act_1: 
+1 a2_x1
-100 a2_z1
<= 0

a2_act_2: 
+1 a2_x2
-100 a2_z2
<= 0

a3_local_1: 
+9.1853298008456505 a3_x2
+13.446668189460347 a3_x6
+10.68050699359112 a3_x5
<= 2276.6526683673001

a3_local_2: 
+9.5593930436159695 a3_x4
+14.889108778033219 a3_x5
+10.975031545088672 a3_x3
<= 1719.3092748842494

a3_local_3: 
+8.6943235557234022 a3_x4
+9.6572683843211848 a3_x5
+7.934773371024316 a3_x1
<= 1484.7853112543676

a3_local_4: 
+14.794121720921996 a3_x3
+6.9998092932169165 a3_x4
+14.621368103559444 a3_x5
<= 1485.2636636225657

a3_local_5: 
+8.3026311890714428 a3_x5
+7.1808565093192369 a3_x3
+11.715684842680218 a3_x2
<= 1371.9016420476146

a3_local_6: 
+6.6239661312679043 a3_x1
+9.0488473006735095 a3_x3
+10.173619348221401 a3_x5
<= 1387.4480736481819

a3_local_7: 
+5.4077547734156086 a3_x6
+10.991799327335858 a3_x4
+9.4355176718383014 a3_x1
<= 1772.7172523911725

a3_local_8: 
+14.843915067763341 a3_x4
+12.437332025474568 a3_x3
+13.996052354277575 a3_x5
<= 1342.9774704932977

a3_act_1: 
+1 a3_x1
-100 a3_z1
<= 0

a3_act_2: 
+1 a3_x2
-100 a3_z2
<= 0

a4_local_1: 
+896.10255459542816 a4_x1
+1390.6669355693828 a4_x4
+1459.4185742939478 a4_x6
<= 128178.63989017697

a4_local_2: 
+1288.5433039160662 a4_x3
+1030.3358935906308 a4_x5
+935.71783637545241 a4_x2
<= 147629.66481628519

a4_local_3: 
+1327.1102850498562 a4_x5
+910.22565302329281 a4_x1
+1432.3163774225068 a4_x3
<= 207154.05654066207

a4_local_4: 
+1339.1259458899515 a4_x3
+1121.937278696216 a4_x1
+725.75656458492722 a4_x5
<= 165178.57488040719

a4_local_5: 
+971.47721903564775 a4_x6
+996.68313682538474 a4_x4
+1222.5237943971806 a4_x2
<= 167362.18078561689

a4_local_6: 
+1121.6032220672143 a4_x1
+824.41671436308343 a4_x4
+639.97214529514315 a4_x5
<= 106494.89392359545

a4_local_7: 
+1347.3484533009844 a4_x2
+1125.7466778863411 a4_x5
+704.93122972634899 a4_x4
<= 124900.55315579848

a4_local_8: 
+798.17396698449045 a4_x5
+608.93881289209878 a4_x6
+930.5256520589254 a4_x2
<= 135372.18626919822

a4_act_1: 
+1 a4_x1
-100 a4_z1
<= 0

a4_act_2: 
+1 a4_x2
-100 a4_z2
<= 0

coupling_1: 
+133.48715108702328 a1_x1
+17717.292324198865 a2_x1
+787990.36641536595 a3_x1
+144101746.22376731 a4_x1
+135730.35749204751 short_1
-135730.35749204751 surp_1
= 3548468488.7114921

coupling_2: 
+0.0048354345577098024 a1_x2
+0.48215657784364629 a2_x2
+45.543938349830988 a3_x2
+5218.0958519313463 a4_x2
+3.5597873368833088 short_2
-3.5597873368833088 surp_2
= 405123.96347104711

coupling_3: 
+2.2746649617262662e-06 a1_x3
+0.00021508906722908001 a2_x3
+0.025805588858391241 a3_x3
+2.2851933431356546 a4_x3
+0.0035613480417646267 short_3
-0.0035613480417646267 surp_3
= 89.509170514726492

bounds
  0 <= a1_x1 <= 100
  0 <= a1_x2 <= 100
  0 <= a1_x3 <= 100
  0 <= a1_x4 <= 100
  0 <= a1_x5 <= 100
  0 <= a1_x6 <= 100
  0 <= a2_x1 <= 100
  0 <= a2_x2 <= 100
  0 <= a2_x3 <= 100
  0 <= a2_x4 <= 100
  0 <= a2_x5 <= 100
  0 <= a2_x6 <= 100
  0 <= a3_x1 <= 100
  0 <= a3_x2 <= 100
  0 <= a3_x3 <= 100
  0 <= a3_x4 <= 100
  0 <= a3_x5 <= 100
  0 <= a3_x6 <= 100
  0 <= a4_x1 <= 100
  0 <= a4_x2 <= 100
  0 <= a4_x3 <= 100
  0 <= a4_x4 <= 100
  0 <= a4_x5 <= 100
  0 <= a4_x6 <= 100
  0 <= short_1 <= +inf
  0 <= surp_1 <= +inf
  0 <= short_2 <= +inf
  0 <= surp_2 <= +inf
  0 <= short_3 <= +inf
  0 <= surp_3 <= +inf
 0 <= a1_z1 <= 1
 0 <= a1_z2 <= 1
 0 <= a2_z1 <= 1
 0 <= a2_z2 <= 1
 0 <= a3_z1 <= 1
 0 <= a3_z2 <= 1
 0 <= a4_z1 <= 1
 0 <= a4_z2 <= 1

binary
  a1_z1
  a1_z2
  a2_z1
  a2_z2
  a3_z1
  a3_z2
  a4_z1
  a4_z2
end
