min
obj: 
  +3.0571104005516858 a1_x1
  +8.0556013187453051 a1_x2
  +1.9742345173811016 a1_x3
  +4.4385591714508195 a1_x4
  +2.091774352732247 a1_x5
  +8.3606733491801819 a1_x6
  +15.666425601953888 a1_z1
  +12.324732571684713 a1_z2
  +9.2229319073823621 a2_x1
  +7.6338140335244935 a2_x2
  +9.9611693691396663 a2_x3
  +9.9407775368738864 a2_x4
  +8.2998138303753102 a2_x5
  +5.1593396215897407 a2_x6
  +11.18650581061075 a2_z1
  +36.513419228591097 a2_z2
  +6.077667458974199 a3_x1
  +8.7735643157403977 a3_x2
  +3.6647749932252576 a3_x3
  +8.9894067496513301 a3_x4
  +1.8313374509796332 a3_x5
  +5.9661400049633215 a3_x6
  +11.771775193454559 a3_z1
  +18.836022336426041 a3_z2
  +3.5739044594919878 a4_x1
  +7.8515457332568142 a4_x2
  +9.0641405667365316 a4_x3
  +3.8803458463891136 a4_x4
  +5.5605295549433134 a4_x5
  +7.2488159045117166 a4_x6
  +49.908526082373854 a4_z1
  +15.565550238545768 a4_z2
  +1000000 short_1
  +1000000 surp_1
  +1000000 short_2
  +1000000 surp_2
  +1000000 short_3
  +1000000 surp_3

s.t.

a1_local_1: 
+0.00082781145254359441 a1_x5
+0.0013625450699833155 a1_x1
+0.00057355998076485633 a1_x6
<= 0.10812862944139076

a1_local_2: 
+0.0011213709759732287 a1_x6
+0.00055215626186556985 a1_x4
+0.0011014589296677814 a1_x1
<= 0.13436872761213375

a1_local_3: 
+0.00063846559159221408 a1_x3
+0.00086628693024506638 a1_x1
+0.0011610654624935744 a1_x2
<= 0.081716424870792781

a1_local_4: 
+0.0005115716352366306 a1_x4
+0.00051986987792315871 a1_x5
+0.0012581561841619037 a1_x2
<= 0.15988148061093427

a1_local_5: 
+0.0014670888209154182 a1_x4
+0.0012853150925022229 a1_x1
+0.001165216019819673 a1_x2
<= 0.17646747265280505

a1_local_6: 
+0.00088592150321655568 a1_x4
+0.00074751357227122932 a1_x2
+0.0010524936581547829 a1_x6
<= 0.094779972800448642

a1_local_7: 
+0.0009417371829657091 a1_x3
+0.00077708703104756879 a1_x5
+0.0014720515431321472 a1_x6
<= 0.10785006581177525

a1_local_8: 
+0.00056064992272181495 a1_x4
+0.00073383371916740556 a1_x6
+0.00099916557191105974 a1_x3
<= 0.071264393733053669

a1_act_1: 
+1 a1_x1
-100 a1_z1
<= 0

a1_act_2: 
+1 a1_x2
-100 a1_z2
<= 0

a2_local_1: 
+0.094856858802673083 a2_x3
+0.057733806300040318 a2_x4
+0.073720521834758232 a2_x1
<= 9.9914311480065887

a2_local_2: 
+0.14850235550562285 a2_x5
+0.14429540857268053 a2_x1
+0.061152221616568553 a2_x6
<= 23.225183649402208

a2_local_3: 
+0.051477289791409087 a2_x1
+0.13207428214799935 a2_x5
+0.14511707036613578 a2_x3
<= 20.013468805909163

a2_local_4: 
+0.12083585016387755 a2_x2
+0.13103403723041093 a2_x5
+0.13619895827796863 a2_x3
<= 23.546108528031827

a2_local_5: 
+0.085792735291724181 a2_x5
+0.074018636174458557 a2_x6
+0.058662507172551531 a2_x4
<= 7.5660955212848799

a2_local_6: 
+0.13226377932572433 a2_x4
+0.077164209087480951 a2_x5
+0.061358209295671345 a2_x1
<= 16.908018150888438

a2_local_7: 
+0.098474671595138341 a2_x4
+0.09315574663324705 a2_x5
+0.13352320823883432 a2_x1
<= 15.846481671113416

a2_local_8: 
+0.099916227770973559 a2_x4
+0.14132096627137744 a2_x2
+0.11649312339050399 a2_x6
<= 15.809441778750003

a2_act_1: 
+1 a2_x1
-100 a2_z1
<= 0

a2_act_2: 
+1 a2_x2
-100 a2_z2
<= 0

a3_local_1: 
+5.4399817913202551 a3_x3
+10.633419372172197 a3_x1
+7.2489677564801491 a3_x2
<= 1031.0851834438058

a3_local_2: 
+7.5018795208168356 a3_x1
+10.833555078927546 a3_x3
+8.9361065473565571 a3_x2
<= 1585.5262142007771

a3_local_3: 
+8.585037395219274 a3_x4
+6.2806518576633588 a3_x5
+5.891597027699663 a3_x1
<= 1288.3941654126315

a3_local_4: 
+9.810425209920977 a3_x4
+9.4872663474405687 a3_x5
+6.3553664303090738 a3_x2
<= 1614.4445294261945

a3_local_5: 
+6.4477449996526044 a3_x6
+9.0698719771218901 a3_x3
+10.416255898866659 a3_x2
<= 1116.2251792414129

a3_local_6: 
+8.2885319272345086 a3_x3
+14.27117307550202 a3_x4
+13.632077643827072 a3_x5
<= 2234.3335600668311

a3_local_7: 
+5.3705729795336632 a3_x6
+10.047259403955685 a3_x2
+11.352451222874315 a3_x3
<= 1307.1915299588297

a3_local_8: 
+5.6143374042172169 a3_x5
+7.2006817808981367 a3_x3
+9.8424976076107278 a3_x4
<= 1033.2649881674083

a3_act_1: 
+1 a3_x1
-100 a3_z1
<= 0

a3_act_2: 
+1 a3_x2
-100 a3_z2
<= 0

a4_local_1: 
+872.92527892613498 a4_x2
+1238.3584975054557 a4_x5
+685.19113522987607 a4_x1
<= 141573.69669024381

a4_local_2: 
+1203.4888846563722 a4_x2
+1049.0621161313686 a4_x6
+1326.4710779025388 a4_x3
<= 234314.09837026399

a4_local_3: 
+1393.0050684541752 a4_x5
+1164.5687589596207 a4_x2
+779.48066741835657 a4_x1
<= 169037.22456789983

a4_local_4: 
+1057.3190694235377 a4_x6
+1028.6649802573927 a4_x4
+593.18389520992628 a4_x2
<= 142491.3447166238

a4_local_5: 
+798.24513523580197 a4_x6
+1277.8799314134303 a4_x4
+652.91778694716254 a4_x1
<= 121097.08258909684

a4_local_6: 
+1284.2606703765359 a4_x5
+516.36119962206556 a4_x2
+1446.4758391664568 a4_x3
<= 101685.16045279217

a4_local_7: 
+1357.2531138729869 a4_x6
+1266.9083770121947 a4_x2
+926.46305316549513 a4_x3
<= 190223.89518350895

a4_local_8: 
+627.33224859489303 a4_x3
+1078.7766288911373 a4_x2
+1152.380891661335 a4_x1
<= 131248.66803232461

a4_act_1: 
+1 a4_x1
-100 a4_z1
<= 0

a4_act_2: 
+1 a4_x2
-100 a4_z2
<= 0

coupling_1: 
+3.0952121393136274 a1_x1
+380.59568524903625 a2_x1
+68375.002207265716 a3_x1
+5953114.3601669483 a4_x1
+4911.4290248274829 short_1
-4911.4290248274829 surp_1
= 226591828.81788746

coupling_2: 
+0.001778689249387884 a1_x2
+0.092097621484704753 a2_x2
+17.536644362278537 a3_x2
+1063.7321720431567 a4_x2
+1.3302182275677399 short_2
-1.3302182275677399 surp_2
= 84825.357195441247

coupling_3: 
+31.930091153955974 a1_x3
+4534.0470154281775 a2_x3
+641067.14431079547 a3_x3
+52080533.836856171 a4_x3
+43811.145930598199 short_3
-43811.145930598199 surp_3
= 1787120847.5839541

bounds
  0 <= a1_x1 <= 100
  0 <= a1_x2 <= 100
  0 <= a1_x3 <= 100
  0 <= a1_x4 <= 100
  0 <= a1_x5 <= 100
  0 <= a1_x6 <= 100
  0 <= a2_x1 <= 100
  0 <= a2_x2 <= 100
  0 <= a2_x3 <= 100
  0 <= a2_x4 <= 100
  0 <= a2_x5 <= 100
  0 <= a2_x6 <= 100
  0 <= a3_x1 <= 100
  0 <= a3_x2 <= 100
  0 <= a3_x3 <= 100
  0 <= a3_x4 <= 100
  0 <= a3_x5 <= 100
  0 <= a3_x6 <= 100
  0 <= a4_x1 <= 100
  0 <= a4_x2 <= 100
  0 <= a4_x3 <= 100
  0 <= a4_x4 <= 100
  0 <= a4_x5 <= 100
  0 <= a4_x6 <= 100
  0 <= short_1 <= +inf
  0 <= surp_1 <= +inf
  0 <= short_2 <= +inf
  0 <= surp_2 <= +inf
  0 <= short_3 <= +inf
  0 <= surp_3 <= +inf
 0 <= a1_z1 <= 1
 0 <= a1_z2 <= 1
 0 <= a2_z1 <= 1
 0 <= a2_z2 <= 1
 0 <= a3_z1 <= 1
 0 <= a3_z2 <= 1
 0 <= a4_z1 <= 1
 0 <= a4_z2 <= 1

binary
  a1_z1
  a1_z2
  a2_z1
  a2_z2
  a3_z1
  a3_z2
  a4_z1
  a4_z2
end
