min
obj: 
  +2.370294118728955 a1_x1
  +4.0871141162290519 a1_x2
  +7.6613663727576089 a1_x3
  +4.8999168943267346 a1_x4
  +9.1856075433138287 a1_x5
  +7.8055232956727103 a1_x6
  +17.430873114549655 a1_z1
  +23.402378726140935 a1_z2
  +7.1371158046195609 a2_x1
  +9.867310978744726 a2_x2
  +9.2615292817302226 a2_x3
  +3.5007890513184758 a2_x4
  +7.1637373168446201 a2_x5
  +7.9245284991421201 a2_x6
  +12.291053398517668 a2_z1
  +33.658905491272137 a2_z2
  +4.0731411682260328 a3_x1
  +2.6732854397558619 a3_x2
  +9.8971817318039896 a3_x3
  +5.2211213282041085 a3_x4
  +8.0114291145185241 a3_x5
  +2.5829750625381869 a3_x6
  +49.512564365484344 a3_z1
  +27.0926152551414 a3_z2
  +6.6365056560112565 a4_x1
  +8.2046274155609638 a4_x2
  +7.1214056561276049 a4_x3
  +6.2664722965402984 a4_x4
  +7.507966634456313 a4_x5
  +5.5736057519875928 a4_x6
  +9.0405418509815796 a4_z1
  +27.561079601884479 a4_z2
  +1000000 short_1
  +1000000 surp_1
  +1000000 short_2
  +1000000 surp_2
  +1000000 short_3
  +1000000 surp_3

s.t.

a1_local_1: 
+0.0013165649039376711 a1_x3
+0.00094617666374969471 a1_x2
+0.00052600100211459171 a1_x1
<= 0.19506841261227878

a1_local_2: 
+0.0011184374746816522 a1_x2
+0.0013536689756057897 a1_x1
+0.0008049528102114247 a1_x5
<= 0.13656955610811267

a1_local_3: 
+0.00050525508031605884 a1_x4
+0.00098919809361693641 a1_x1
+0.0012946813061984646 a1_x2
<= 0.19496998386005704

a1_local_4: 
+0.0008371851027522859 a1_x2
+0.0014474765578933678 a1_x5
+0.00057702725861033999 a1_x1
<= 0.11435869620561885

a1_local_5: 
+0.00062302457661853299 a1_x6
+0.0010746080283071417 a1_x2
+0.0011548177741338389 a1_x5
<= 0.12403982398674804

a1_local_6: 
+0.001358269646203064 a1_x1
+0.00092431027187921827 a1_x6
+0.0011549181048212116 a1_x5
<= 0.12358367908750398

a1_local_7: 
+0.0012190679423329429 a1_x5
+0.0012579723798032078 a1_x4
+0.0012472186077572289 a1_x1
<= 0.14611922388532056

a1_local_8: 
+0.0014226835532643789 a1_x6
+0.0010805879833041244 a1_x5
+0.001252387394653014 a1_x2
<= 0.26139631715449269

a1_act_1: 
+1 a1_x1
-100 a1_z1
<= 0

a1_act_2: 
+1 a1_x2
-100 a1_z2
<= 0

a2_local_1: 
+0.13138834305275113 a2_x6
+0.13718789300770001 a2_x1
+0.14549032231069314 a2_x3
<= 28.116935007609221

a2_local_2: 
+0.11969992633923365 a2_x5
+0.10849272736500531 a2_x4
+0.077463913845149529 a2_x2
<= 13.210601858661592

a2_local_3: 
+0.13481162065535746 a2_x1
+0.067057708993865026 a2_x6
+0.1333369970016654 a2_x3
<= 18.277703381252152

a2_local_4: 
+0.052752006237921194 a2_x6
+0.12473534754064459 a2_x2
+0.13783923000771867 a2_x1
<= 20.141158239517416

a2_local_5: 
+0.12129920417471377 a2_x1
+0.077264610080610613 a2_x6
+0.12780732723856145 a2_x2
<= 12.64994996223251

a2_local_6: 
+0.11526951981669993 a2_x2
+0.1005234301895114 a2_x3
+0.11563082659554345 a2_x5
<= 18.012543313695478

a2_local_7: 
+0.069626945435717624 a2_x1
+0.13895653152092005 a2_x4
+0.13426953772475719 a2_x3
<= 16.525049852157402

a2_local_8: 
+0.058155846451108301 a2_x1
+0.050824319897770878 a2_x5
+0.10320230749310455 a2_x3
<= 11.986747434846688

a2_act_1: 
+1 a2_x1
-100 a2_z1
<= 0

a2_act_2: 
+1 a2_x2
-100 a2_z2
<= 0

a3_local_1: 
+7.7811011653967714 a3_x2
+6.3328369760802321 a3_x1
+8.6686705058502049 a3_x5
<= 1523.0191085422125

a3_local_2: 
+12.241000484336739 a3_x6
+12.61238675039035 a3_x5
+10.107802293976853 a3_x3
<= 1493.7026626701545

a3_local_3: 
+8.317899841698658 a3_x5
+9.0741518658389353 a3_x1
+10.676466929460453 a3_x4
<= 1273.3695755945057

a3_local_4: 
+7.4448365994443755 a3_x5
+11.580440908824832 a3_x2
+9.1986313964344397 a3_x6
<= 1103.642303995143

a3_local_5: 
+14.955740372327796 a3_x5
+8.7216332594945385 a3_x1
+11.721017563319659 a3_x6
<= 2054.5414956979334

a3_local_6: 
+8.7909726748999404 a3_x2
+12.444707582994173 a3_x3
+10.08410841756332 a3_x1
<= 2147.9087815579132

a3_local_7: 
+12.520559565095727 a3_x4
+6.6288044092735987 a3_x3
+14.449217084588541 a3_x6
<= 1424.2114377204634

a3_local_8: 
+8.035753257736534 a3_x5
+8.2691658871777207 a3_x6
+8.7127538347745137 a3_x4
<= 1313.494201515329

a3_act_1: 
+1 a3_x1
-100 a3_z1
<= 0

a3_act_2: 
+1 a3_x2
-100 a3_z2
<= 0

a4_local_1: 
+980.89186016257622 a4_x2
+1418.0083872888765 a4_x3
+661.40910047170928 a4_x1
<= 119822.4970619637

a4_local_2: 
+929.65329186269696 a4_x2
+1186.3783508595479 a4_x1
+1073.9476495699037 a4_x6
<= 116661.56056183382

a4_local_3: 
+772.21997377676053 a4_x5
+501.2013746757392 a4_x3
+1003.6271652007172 a4_x2
<= 122470.98202240144

a4_local_4: 
+1331.2279907713648 a4_x2
+1024.6754041028119 a4_x3
+1298.3287565988826 a4_x4
<= 157083.87129624194

a4_local_5: 
+758.05903955648705 a4_x1
+542.90918198984355 a4_x3
+590.1218649074292 a4_x2
<= 75496.751215838711

a4_local_6: 
+546.57744812032354 a4_x2
+826.82086774620495 a4_x6
+1474.1064643450254 a4_x3
<= 151620.54108457034

a4_local_7: 
+1422.6332100497305 a4_x4
+1139.2564358033278 a4_x2
+511.99038198756529 a4_x5
<= 129959.05099313737

a4_local_8: 
+1337.0298958141116 a4_x5
+1310.6179207900943 a4_x2
+613.95194443455205 a4_x4
<= 174928.91792952403

a4_act_1: 
+1 a4_x1
-100 a4_z1
<= 0

a4_act_2: 
+1 a4_x2
-100 a4_z2
<= 0

coupling_1: 
+0.098546078304585838 a1_x1
+5.3564214338464122 a2_x1
+740.36803482478331 a3_x1
+86560.207228898042 a4_x1
+69.658749673692057 short_1
-69.658749673692057 surp_1
= 5876493.8041048357

coupling_2: 
+0.11277844287351438 a1_x2
+9.0098421365239787 a2_x2
+1187.817430744361 a3_x2
+97048.496881643616 a4_x2
+79.911680497730785 short_2
-79.911680497730785 surp_2
= 6439843.3563480852

coupling_3: 
+1.6408760953072654 a1_x3
+122.09847952197573 a2_x3
+15361.212528178496 a3_x3
+1936375.5282521439 a4_x3
+1515.670845320858 short_3
-1515.670845320858 surp_3
= 142514529.18695435

bounds
  0 <= a1_x1 <= 100
  0 <= a1_x2 <= 100
  0 <= a1_x3 <= 100
  0 <= a1_x4 <= 100
  0 <= a1_x5 <= 100
  0 <= a1_x6 <= 100
  0 <= a2_x1 <= 100
  0 <= a2_x2 <= 100
  0 <= a2_x3 <= 100
  0 <= a2_x4 <= 100
  0 <= a2_x5 <= 100
  0 <= a2_x6 <= 100
  0 <= a3_x1 <= 100
  0 <= a3_x2 <= 100
  0 <= a3_x3 <= 100
  0 <= a3_x4 <= 100
  0 <= a3_x5 <= 100
  0 <= a3_x6 <= 100
  0 <= a4_x1 <= 100
  0 <= a4_x2 <= 100
  0 <= a4_x3 <= 100
  0 <= a4_x4 <= 100
  0 <= a4_x5 <= 100
  0 <= a4_x6 <= 100
  0 <= short_1 <= +inf
  0 <= surp_1 <= +inf
  0 <= short_2 <= +inf
  0 <= surp_2 <= +inf
  0 <= short_3 <= +inf
  0 <= surp_3 <= +inf
 0 <= a1_z1 <= 1
 0 <= a1_z2 <= 1
 0 <= a2_z1 <= 1
 0 <= a2_z2 <= 1
 0 <= a3_z1 <= 1
 0 <= a3_z2 <= 1
 0 <= a4_z1 <= 1
 0 <= a4_z2 <= 1

binary
  a1_z1
  a1_z2
  a2_z1
  a2_z2
  a3_z1
  a3_z2
  a4_z1
  a4_z2
end
