min
obj: 
  +9.9278906915658744 a1_x1
  +4.1029321056614965 a1_x2
  +3.3290118192963942 a1_x3
  +9.1017647242801925 a1_x4
  +1.0276781995025082 a1_x5
  +7.5015228430107515 a1_x6
  +48.476105885704612 a1_z1
  +46.462393702811802 a1_z2
  +6.9375805284658387 a2_x1
  +8.736124438174345 a2_x2
  +2.0422875685559534 a2_x3
  +7.9141637375248139 a2_x4
  +8.8510497644699591 a2_x5
  +5.3589026031734779 a2_x6
  +22.325512980558837 a2_z1
  +43.599104627831977 a2_z2
  +2.4447445858231625 a3_x1
  +8.7712175698219141 a3_x2
  +5.7628145052800139 a3_x3
  +8.5270938060320436 a3_x4
  +1.138926571582954 a3_x5
  +2.911442950069294 a3_x6
  +15.137864115812766 a3_z1
  +21.64888772902043 a3_z2
  +4.3135462509833289 a4_x1
  +3.737467766634015 a4_x2
  +6.3047039607963935 a4_x3
  +7.2324424815448989 a4_x4
  +3.5312943582825165 a4_x5
  +2.1943254476366931 a4_x6
  +13.983355852863056 a4_z1
  +25.767819676338174 a4_z2
  +1000000 short_1
  +1000000 surp_1
  +1000000 short_2
  +1000000 surp_2
  +1000000 short_3
  +1000000 surp_3

s.t.

a1_local_1: 
+0.6448703090665312 a1_x4
+0.62715795005958963 a1_x6
+0.43682398075367784 a1_x1
<= 68.134168933867841

a1_local_2: 
+0.59341904434827586 a1_x4
+0.51470656828939632 a1_x3
+0.61881417757234058 a1_x5
<= 87.107505350964772

a1_local_3: 
+0.42156404829575261 a1_x4
+0.52924120877758885 a1_x3
+0.73633382111385659 a1_x2
<= 90.781971010484568

a1_local_4: 
+0.57098764821340886 a1_x4
+0.72026599000039815 a1_x5
+0.39394163176347169 a1_x2
<= 110.40222656755898

a1_local_5: 
+0.71095354765033902 a1_x2
+0.30548502185222121 a1_x1
+0.63342241396034027 a1_x6
<= 83.122942605836528

a1_local_6: 
+0.35918304043566246 a1_x3
+0.72825087008787792 a1_x5
+0.58364219662361794 a1_x4
<= 114.47712533380438

a1_local_7: 
+0.41594824736734487 a1_x6
+0.46230644877178784 a1_x4
+0.78310906196777763 a1_x3
<= 55.679404113317034

a1_local_8: 
+0.68853074985386409 a1_x1
+0.37708187307670143 a1_x3
+0.61946320915986786 a1_x4
<= 102.51776184459271

a1_act_1: 
+0.0099995000374968751 a1_x1
-0.99995000374968757 a1_z1
<= 0

a1_act_2: 
+0.0099995000374968751 a1_x2
-0.99995000374968757 a1_z2
<= 0

a2_local_1: 
+0.4446347254971742 a2_x3
+0.4294609980366344 a2_x1
+0.78604275459254147 a2_x6
<= 99.848636141436003

a2_local_2: 
+0.3862347039863343 a2_x4
+0.68956230628680093 a2_x1
+0.6126390284539639 a2_x5
<= 59.365411274273036

a2_local_3: 
+0.26798414590432956 a2_x2
+0.63206844480409496 a2_x5
+0.72709970336045382 a2_x1
<= 83.990332902247872

a2_local_4: 
+0.61132284953184857 a2_x2
+0.59031462912152299 a2_x1
+0.52707970202368792 a2_x4
<= 96.282682778944135

a2_local_5: 
+0.46083535089669581 a2_x4
+0.61866351357893945 a2_x5
+0.6363067156097606 a2_x2
<= 66.549693877347707

a2_local_6: 
+0.58578923820273932 a2_x1
+0.67823695214596602 a2_x2
+0.44367285825211888 a2_x3
<= 111.55977940358262

a2_local_7: 
+0.49589496813760753 a2_x1
+0.5598421997367985 a2_x2
+0.66382595005744083 a2_x4
<= 109.7787901772559

a2_local_8: 
+0.31401648478168348 a2_x6
+0.73040356462989209 a2_x3
+0.60655113557003737 a2_x5
<= 74.330540737259625

a2_act_1: 
+0.0099995000374968751 a2_x1
-0.99995000374968757 a2_z1
<= 0

a2_act_2: 
+0.0099995000374968751 a2_x2
-0.99995000374968757 a2_z2
<= 0

a3_local_1: 
+0.67563906867660972 a3_x4
+0.26028406235977941 a3_x6
+0.68975651918578773 a3_x3
<= 69.658563737751805

a3_local_2: 
+0.60465004494781671 a3_x6
+0.59636928788082255 a3_x4
+0.52796022162386802 a3_x3
<= 68.987907125488434

a3_local_3: 
+0.67841394787247555 a3_x2
+0.49594632786713533 a3_x1
+0.5420256038299166 a3_x4
<= 79.043389908317792

a3_local_4: 
+0.42270316114413725 a3_x5
+0.45427196029214922 a3_x3
+0.78419323106686001 a3_x2
<= 96.628838911708158

a3_local_5: 
+0.32061076179745063 a3_x1
+0.43538706840208596 a3_x2
+0.84121747490639753 a3_x5
<= 55.614325342818908

a3_local_6: 
+0.65576841122668783 a3_x6
+0.56129592973246711 a3_x4
+0.50489075066096301 a3_x2
<= 101.00127077587288

a3_local_7: 
+0.78080195138319808 a3_x2
+0.4795159479683162 a3_x3
+0.40051562810986191 a3_x5
<= 86.885049796609508

a3_local_8: 
+0.34060344929533881 a3_x5
+0.45625349258386411 a3_x2
+0.82208396215541357 a3_x3
<= 92.272891454939924

a3_act_1: 
+0.0099995000374968751 a3_x1
-0.99995000374968757 a3_z1
<= 0

a3_act_2: 
+0.0099995000374968751 a3_x2
-0.99995000374968757 a3_z2
<= 0

a4_local_1: 
+0.36699818472717499 a4_x1
+0.74207918488137992 a4_x4
+0.56091961614187202 a4_x6
<= 71.694710181219122

a4_local_2: 
+0.61634848862001834 a4_x6
+0.61544738491702677 a4_x3
+0.4912627168579069 a4_x4
<= 115.25127274621157

a4_local_3: 
+0.4367624102631863 a4_x1
+0.82698009021235541 a4_x2
+0.35403746605897052 a4_x5
<= 56.950894292545811

a4_local_4: 
+0.61978555737435792 a4_x4
+0.51614602404951671 a4_x5
+0.59115069544747401 a4_x1
<= 62.896359517940567

a4_local_5: 
+0.35193122180860054 a4_x4
+0.77168593554715237 a4_x6
+0.52975959830381714 a4_x2
<= 112.59720457191493

a4_local_6: 
+0.65918409742660733 a4_x6
+0.60633725015088269 a4_x2
+0.44478249153865645 a4_x3
<= 86.392049368642873

a4_local_7: 
+0.71214253670041738 a4_x6
+0.62590084556639336 a4_x3
+0.31796405290719371 a4_x4
<= 103.08470283908018

a4_local_8: 
+0.55491793394775102 a4_x2
+0.5454855868423869 a4_x4
+0.62810155319850658 a4_x3
<= 78.595428204025239

a4_act_1: 
+0.0099995000374968751 a4_x1
-0.99995000374968757 a4_z1
<= 0

a4_act_2: 
+0.0099995000374968751 a4_x2
-0.99995000374968757 a4_z2
<= 0

coupling_1: 
+2.5011053657670112e-06 a1_x1
+0.000145989797045892 a2_x1
+0.024848999975890598 a3_x1
+0.99968760832368453 a4_x1
+0.0018962654077249539 short_1
-0.0018962654077249539 surp_1
= 45.575427863644478

coupling_2: 
+9.0612446153665181e-07 a1_x2
+0.00015179149702467985 a2_x2
+0.0099370196872233928 a3_x2
+0.99994867083302219 a4_x2
+0.0013943273518490151 short_2
-0.0013943273518490151 surp_2
= 47.810142992601001

coupling_3: 
+1.3850478614329568e-06 a1_x3
+6.5946137449838941e-05 a2_x3
+0.0097322047649382078 a3_x3
+0.99995111405329284 a4_x3
+0.0012347759271358024 short_3
-0.0012347759271358024 surp_3
= 68.140845378360083

bounds
  0 <= a1_x1 <= 100
  0 <= a1_x2 <= 100
  0 <= a1_x3 <= 100
  0 <= a1_x4 <= 100
  0 <= a1_x5 <= 100
  0 <= a1_x6 <= 100
  0 <= a2_x1 <= 100
  0 <= a2_x2 <= 100
  0 <= a2_x3 <= 100
  0 <= a2_x4 <= 100
  0 <= a2_x5 <= 100
  0 <= a2_x6 <= 100
  0 <= a3_x1 <= 100
  0 <= a3_x2 <= 100
  0 <= a3_x3 <= 100
  0 <= a3_x4 <= 100
  0 <= a3_x5 <= 100
  0 <= a3_x6 <= 100
  0 <= a4_x1 <= 100
  0 <= a4_x2 <= 100
  0 <= a4_x3 <= 100
  0 <= a4_x4 <= 100
  0 <= a4_x5 <= 100
  0 <= a4_x6 <= 100
  0 <= short_1 <= +inf
  0 <= surp_1 <= +inf
  0 <= short_2 <= +inf
  0 <= surp_2 <= +inf
  0 <= short_3 <= +inf
  0 <= surp_3 <= +inf
 0 <= a1_z1 <= 1
 0 <= a1_z2 <= 1
 0 <= a2_z1 <= 1
 0 <= a2_z2 <= 1
 0 <= a3_z1 <= 1
 0 <= a3_z2 <= 1
 0 <= a4_z1 <= 1
 0 <= a4_z2 <= 1

binary
  a1_z1
  a1_z2
  a2_z1
  a2_z2
  a3_z1
  a3_z2
  a4_z1
  a4_z2
end
