min
obj: 
  +3.0571104005516858 a1_x1
  +8.0556013187453051 a1_x2
  +1.9742345173811016 a1_x3
  +4.4385591714508195 a1_x4
  +2.091774352732247 a1_x5
  +8.3606733491801819 a1_x6
  +15.666425601953888 a1_z1
  +12.324732571684713 a1_z2
  +9.2229319073823621 a2_x1
  +7.6338140335244935 a2_x2
  +9.9611693691396663 a2_x3
  +9.9407775368738864 a2_x4
  +8.2998138303753102 a2_x5
  +5.1593396215897407 a2_x6
  +11.18650581061075 a2_z1
  +36.513419228591097 a2_z2
  +6.077667458974199 a3_x1
  +8.7735643157403977 a3_x2
  +3.6647749932252576 a3_x3
  +8.9894067496513301 a3_x4
  +1.8313374509796332 a3_x5
  +5.9661400049633215 a3_x6
  +11.771775193454559 a3_z1
  +18.836022336426041 a3_z2
  +3.5739044594919878 a4_x1
  +7.8515457332568142 a4_x2
  +9.0641405667365316 a4_x3
  +3.8803458463891136 a4_x4
  +5.5605295549433134 a4_x5
  +7.2488159045117166 a4_x6
  +49.908526082373854 a4_z1
  +15.565550238545768 a4_z2
  +1000000 short_1
  +1000000 surp_1
  +1000000 short_2
  +1000000 surp_2
  +1000000 short_3
  +1000000 surp_3

s.t.

a1_local_1: 
+0.48857595054224545 a1_x5
+0.80417678527912262 a1_x1
+0.33851623088099797 a1_x6
<= 63.817730170114579

a1_local_2: 
+0.67309119458220135 a1_x6
+0.33142601855963488 a1_x4
+0.66113919714203429 a1_x1
<= 80.653422748388238

a1_local_3: 
+0.40330417868328156 a1_x3
+0.54721373165195375 a1_x1
+0.73341861944468467 a1_x2
<= 51.618405206867315

a1_local_4: 
+0.35176995555940394 a1_x4
+0.35747604295752738 a1_x5
+0.86514090012966272 a1_x2
<= 109.93866245782996

a1_local_5: 
+0.64571765334937958 a1_x4
+0.56571260956593794 a1_x1
+0.51285276203903507 a1_x2
<= 77.669573041095731

a1_local_6: 
+0.56583557274525664 a1_x4
+0.47743481647668351 a1_x2
+0.67222473967559615 a1_x6
<= 60.535702090541029

a1_local_7: 
+0.49241074600632256 a1_x3
+0.40631931242742997 a1_x5
+0.76969882003677093 a1_x6
<= 56.392093594483221

a1_local_8: 
+0.41206750505630674 a1_x4
+0.53935444834359425 a1_x6
+0.73436853849320616 a1_x3
<= 52.378034375473398

a1_act_1: 
+0.0099995000374968751 a1_x1
-0.99995000374968757 a1_z1
<= 0

a1_act_2: 
+0.0099995000374968751 a1_x2
-0.99995000374968757 a1_z2
<= 0

a2_local_1: 
+0.71166759814768021 a2_x3
+0.4331503254492679 a2_x4
+0.55309133541387667 a2_x1
<= 74.961135092525225

a2_local_2: 
+0.68782271375929827 a2_x5
+0.66833727431151668 a2_x1
+0.2832405377107004 a2_x6
<= 107.5727640204673

a2_local_3: 
+0.25375675207801729 a2_x1
+0.65105876798714379 a2_x5
+0.71535305367481172 a2_x3
<= 98.656181445857129

a2_local_4: 
+0.53866597001214767 a2_x2
+0.58412777891330891 a2_x5
+0.60715213139103508 a2_x3
<= 104.96460589355084

a2_local_5: 
+0.67238408142912232 a2_x5
+0.58010684148918357 a2_x6
+0.45975613046283442 a2_x4
<= 59.297820145091798

a2_local_6: 
+0.80177755721735744 a2_x4
+0.46776624244500864 a2_x5
+0.37195092575693955 a2_x1
<= 102.49570637945199

a2_local_7: 
+0.51754492599086033 a2_x4
+0.4895907060766212 a2_x5
+0.70174652838792895 a2_x1
<= 83.283001109259956

a2_local_8: 
+0.47892120412444927 a2_x4
+0.67738353263153117 a2_x2
+0.5583780349902876 a2_x6
<= 75.778250061336877

a2_act_1: 
+0.0099995000374968751 a2_x1
-0.99995000374968757 a2_z1
<= 0

a2_act_2: 
+0.0099995000374968751 a2_x2
-0.99995000374968757 a2_z2
<= 0

a3_local_1: 
+0.38935504944354188 a3_x3
+0.76106422488616876 a3_x1
+0.51882934677139469 a3_x2
<= 73.797714400590792

a3_local_2: 
+0.471175522031274 a3_x1
+0.68043027825278202 a3_x3
+0.56125597001314642 a3_x2
<= 99.583196397291331

a3_local_3: 
+0.70601884989081798 a3_x4
+0.5165101090394093 a3_x5
+0.48451490261801428 a3_x1
<= 105.95534125188667

a3_local_4: 
+0.65165291567723282 a3_x4
+0.63018723906727958 a3_x5
+0.42215224884645691 a3_x2
<= 107.2387243455895

a3_local_5: 
+0.4230104664812897 a3_x6
+0.59503761023033974 a3_x3
+0.68336841283355187 a3_x2
<= 73.231018564554191

a3_local_6: 
+0.38721326104395398 a3_x3
+0.66670280261942261 a3_x4
+0.63684634210389712 a3_x5
<= 104.38079887352127

a3_local_7: 
+0.33392485473398842 a3_x6
+0.62470608810755324 a3_x2
+0.70585869327524942 a3_x3
<= 81.276940731360227

a3_local_8: 
+0.41818308283620931 a3_x5
+0.53634170675183135 a3_x3
+0.73311696394786596 a3_x4
<= 76.962588285840852

a3_act_1: 
+0.0099995000374968751 a3_x1
-0.99995000374968757 a3_z1
<= 0

a3_act_2: 
+0.0099995000374968751 a3_x2
-0.99995000374968757 a3_z2
<= 0

a4_local_1: 
+0.52496234318269286 a4_x2
+0.74472763505073403 a4_x5
+0.41206223781350942 a4_x1
<= 85.140001488987821

a4_local_2: 
+0.57980497964627653 a4_x2
+0.50540677745012974 a4_x6
+0.63905412516065963 a4_x3
<= 112.88553036798271

a4_local_3: 
+0.7049893772258895 a4_x5
+0.5893794808849816 a4_x2
+0.39448929707965757 a4_x1
<= 85.548466674539426

a4_local_4: 
+0.6650012763426697 a4_x6
+0.64697927483056972 a4_x4
+0.37308326202381448 a4_x2
<= 89.61999158494389

a4_local_5: 
+0.48611403238797785 a4_x6
+0.77820125541204055 a4_x4
+0.3976128186950515 a4_x1
<= 73.745505646478534

a4_local_6: 
+0.64146942402042184 a4_x5
+0.25791486802359698 a4_x2
+0.72249352862103811 a4_x3
<= 50.790250617853474

a4_local_7: 
+0.6541053576323842 a4_x6
+0.6105652280791708 a4_x2
+0.44649331840156475 a4_x3
<= 91.675213501022952

a4_local_8: 
+0.36932026857460587 a4_x3
+0.63509260875151219 a4_x2
+0.67842458499761038 a4_x1
<= 77.268135722860421

a4_act_1: 
+0.0099995000374968751 a4_x1
-0.99995000374968757 a4_z1
<= 0

a4_act_2: 
+0.0099995000374968751 a4_x2
-0.99995000374968757 a4_z2
<= 0

coupling_1: 
+5.1989693149700249e-07 a1_x1
+6.3927937729609484e-05 a2_x1
+0.0114848198568196 a3_x1
+0.99993336462807514 a4_x1
+0.00082496344817236213 short_1
-0.00082496344817236213 surp_1
= 38.060201111396921

coupling_2: 
+1.6718915213770598e-06 a1_x2
+8.656780972407696e-05 a2_x2
+0.01648369271517677 a3_x2
+0.99986256737481793 a4_x2
+0.0012503480172363344 short_2
-0.0012503480172363344 surp_2
= 79.732193547379978

coupling_3: 
+6.1304382690675581e-07 a1_x3
+8.7051725606140958e-05 a2_x3
+0.012308209630769706 a3_x3
+0.99992353973400483 a4_x3
+0.00084115489783488054 short_3
-0.00084115489783488054 surp_3
= 34.311940992125074

bounds
  0 <= a1_x1 <= 100
  0 <= a1_x2 <= 100
  0 <= a1_x3 <= 100
  0 <= a1_x4 <= 100
  0 <= a1_x5 <= 100
  0 <= a1_x6 <= 100
  0 <= a2_x1 <= 100
  0 <= a2_x2 <= 100
  0 <= a2_x3 <= 100
  0 <= a2_x4 <= 100
  0 <= a2_x5 <= 100
  0 <= a2_x6 <= 100
  0 <= a3_x1 <= 100
  0 <= a3_x2 <= 100
  0 <= a3_x3 <= 100
  0 <= a3_x4 <= 100
  0 <= a3_x5 <= 100
  0 <= a3_x6 <= 100
  0 <= a4_x1 <= 100
  0 <= a4_x2 <= 100
  0 <= a4_x3 <= 100
  0 <= a4_x4 <= 100
  0 <= a4_x5 <= 100
  0 <= a4_x6 <= 100
  0 <= short_1 <= +inf
  0 <= surp_1 <= +inf
  0 <= short_2 <= +inf
  0 <= surp_2 <= +inf
  0 <= short_3 <= +inf
  0 <= surp_3 <= +inf
 0 <= a1_z1 <= 1
 0 <= a1_z2 <= 1
 0 <= a2_z1 <= 1
 0 <= a2_z2 <= 1
 0 <= a3_z1 <= 1
 0 <= a3_z2 <= 1
 0 <= a4_z1 <= 1
 0 <= a4_z2 <= 1

binary
  a1_z1
  a1_z2
  a2_z1
  a2_z2
  a3_z1
  a3_z2
  a4_z1
  a4_z2
end
