min
obj: 
  +1.5869078218103445 a1_x1
  +1.8591431952918778 a1_x2
  +3.3231109040519993 a1_x3
  +9.2087059181463786 a1_x4
  +9.6203246603591985 a1_x5
  +2.6522167369866532 a1_x6
  +45.971215901918207 a1_z1
  +15.231591264695247 a1_z2
  +9.6966969925339086 a2_x1
  +9.5099240901526567 a2_x2
  +7.5753998333245365 a2_x3
  +7.2545869758953661 a2_x4
  +4.0776176539598987 a2_x5
  +7.0823179577413251 a2_x6
  +41.740356324700421 a2_z1
  +13.295788449057502 a2_z2
  +8.20725746769123 a3_x1
  +8.7650426689296079 a3_x2
  +7.7797720123238729 a3_x3
  +6.0483854765360672 a3_x4
  +6.4868155236610479 a3_x5
  +7.5914186799784584 a3_x6
  +13.335393596501099 a3_z1
  +17.076428731733131 a3_z2
  +4.0749166189662294 a4_x1
  +3.9578684115063361 a4_x2
  +4.7726522238702849 a4_x3
  +6.6226528859876028 a4_x4
  +9.5073045520096944 a4_x5
  +5.1085987408368467 a4_x6
  +30.995431749404506 a4_z1
  +14.100841079092167 a4_z2
  +1000000 short_1
  +1000000 surp_1
  +1000000 short_2
  +1000000 surp_2
  +1000000 short_3
  +1000000 surp_3

s.t.

a1_local_1: 
+0.00069026813349135421 a1_x4
+0.00089464331444935651 a1_x1
+0.00063535848743651968 a1_x3
<= 0.098434612917527115

a1_local_2: 
+0.0014449070887233102 a1_x3
+0.0012771120422091706 a1_x5
+0.00086811311644212472 a1_x2
<= 0.17810758416095254

a1_local_3: 
+0.0007623254584171648 a1_x1
+0.0011067179300559848 a1_x2
+0.00065722297294827767 a1_x5
<= 0.15841445274339042

a1_local_4: 
+0.00093765416981877179 a1_x3
+0.0013139489388724202 a1_x5
+0.0013130321782795031 a1_x6
<= 0.23446194510309662

a1_local_5: 
+0.0010538838025278714 a1_x4
+0.0011988124675651492 a1_x5
+0.0011702439438557386 a1_x6
<= 0.18456524392907123

a1_local_6: 
+0.0012948527956256365 a1_x4
+0.0013613608138366119 a1_x6
+0.00149823912897958 a1_x1
<= 0.26999196126431541

a1_local_7: 
+0.0009291254473282937 a1_x5
+0.00080740616413265927 a1_x2
+0.00081500407085396943 a1_x4
<= 0.092702863829465881

a1_local_8: 
+0.0012098913430472606 a1_x2
+0.00097705757572827076 a1_x6
+0.0013568482395949521 a1_x3
<= 0.1298950379869695

a1_act_1: 
+1 a1_x1
-100 a1_z1
<= 0

a1_act_2: 
+1 a1_x2
-100 a1_z2
<= 0

a2_local_1: 
+0.062036779725948593 a2_x5
+0.1101791958489796 a2_x3
+0.13449776304881764 a2_x6
<= 10.004164386134249

a2_local_2: 
+0.12996602403586191 a2_x5
+0.1120216062628544 a2_x1
+0.10334684741744544 a2_x4
<= 21.310520821692606

a2_local_3: 
+0.13419903114028339 a2_x6
+0.080399564071905433 a2_x1
+0.10882494857312029 a2_x3
<= 17.620746488612067

a2_local_4: 
+0.060968737512828067 a2_x4
+0.14408038668268822 a2_x2
+0.11758811949425135 a2_x5
<= 14.764702059812471

a2_local_5: 
+0.10935120959601563 a2_x5
+0.13739436840651295 a2_x3
+0.12223765280266199 a2_x1
<= 20.169961169945012

a2_local_6: 
+0.12671867328184225 a2_x6
+0.052747280480727958 a2_x2
+0.14846286885746326 a2_x1
<= 16.563892645347998

a2_local_7: 
+0.11869506194298159 a2_x2
+0.10495890633420234 a2_x1
+0.11392074144917053 a2_x3
<= 10.863718604882402

a2_local_8: 
+0.089872647970333563 a2_x6
+0.074950143774857578 a2_x3
+0.074646787373693291 a2_x5
<= 11.440546645384625

a2_act_1: 
+1 a2_x1
-100 a2_z1
<= 0

a2_act_2: 
+1 a2_x2
-100 a2_z2
<= 0

a3_local_1: 
+12.880139696234627 a3_x2
+11.048317982897844 a3_x3
+6.7663322414664684 a3_x1
<= 1026.6485088055849

a3_local_2: 
+8.4407902209929819 a3_x6
+13.786592118827294 a3_x2
+5.3465543673226366 a3_x3
<= 1344.629991506122

a3_local_3: 
+9.57358809643973 a3_x4
+7.422840875392609 a3_x2
+6.5667135571962509 a3_x3
<= 815.61376904665804

a3_local_4: 
+8.5160256775687451 a3_x4
+9.4939721387810785 a3_x1
+6.7839176061456659 a3_x3
<= 1395.4940909659622

a3_local_5: 
+6.1279807303474163 a3_x3
+6.1617218994830214 a3_x4
+7.4790374220159066 a3_x6
<= 663.17594416757083

a3_local_6: 
+11.806508097286102 a3_x3
+7.9723619530268852 a3_x4
+10.231038019581188 a3_x5
<= 1915.0939832705653

a3_local_7: 
+7.5800053378358143 a3_x5
+9.6705396413552922 a3_x6
+10.783984611229332 a3_x2
<= 1406.3858107942895

a3_local_8: 
+12.336650347209616 a3_x4
+14.033669348322583 a3_x6
+12.276717703969473 a3_x5
<= 1299.9682708766732

a3_act_1: 
+1 a3_x1
-100 a3_z1
<= 0

a3_act_2: 
+1 a3_x2
-100 a3_z2
<= 0

a4_local_1: 
+1414.0647442705224 a4_x4
+674.59844590050375 a4_x6
+1354.6757298857303 a4_x5
<= 138560.10936368239

a4_local_2: 
+615.13562907119422 a4_x5
+921.43012424365713 a4_x4
+847.26413431944275 a4_x2
<= 75388.160593477223

a4_local_3: 
+1217.0123597254326 a4_x4
+1474.917304923558 a4_x2
+664.68936019158105 a4_x1
<= 148319.14173866517

a4_local_4: 
+1114.0687811464197 a4_x6
+1263.1070872433252 a4_x1
+623.43503429776297 a4_x5
<= 201117.82837564062

a4_local_5: 
+917.7213885219295 a4_x3
+500.32041683754079 a4_x6
+1372.319951599012 a4_x1
<= 163801.59400842726

a4_local_6: 
+1000.9553427829485 a4_x5
+714.94825736606833 a4_x2
+734.87750552554792 a4_x1
<= 130879.70600944292

a4_local_7: 
+1229.7370265999002 a4_x2
+589.02308851630187 a4_x4
+597.86498325616219 a4_x1
<= 151490.87934721765

a4_local_8: 
+1474.0553525210523 a4_x6
+753.10121957964702 a4_x5
+1021.8419378822585 a4_x4
<= 125715.51587522957

a4_act_1: 
+1 a4_x1
-100 a4_z1
<= 0

a4_act_2: 
+1 a4_x2
-100 a4_z2
<= 0

coupling_1: 
+420.00663740977456 a1_x1
+19410.28015824662 a2_x1
+2526318.7544265492 a3_x1
+298315152.24526179 a4_x1
+301603.80362772959 short_1
-301603.80362772959 surp_1
= 17440476735.481285

coupling_2: 
+37.584948134516935 a1_x2
+3487.4645461828563 a2_x2
+412782.10060538695 a3_x2
+39727301.268907383 a4_x2
+39827.98058922249 short_2
-39827.98058922249 surp_2
= 1778222884.7377169

coupling_3: 
+4.3311493442172635 a1_x3
+270.17452570978566 a2_x3
+44456.833777723485 a3_x3
+3960737.7953341631 a4_x3
+2971.933520068811 short_3
-2971.933520068811 surp_3
= 176150296.61838776

bounds
  0 <= a1_x1 <= 100
  0 <= a1_x2 <= 100
  0 <= a1_x3 <= 100
  0 <= a1_x4 <= 100
  0 <= a1_x5 <= 100
  0 <= a1_x6 <= 100
  0 <= a2_x1 <= 100
  0 <= a2_x2 <= 100
  0 <= a2_x3 <= 100
  0 <= a2_x4 <= 100
  0 <= a2_x5 <= 100
  0 <= a2_x6 <= 100
  0 <= a3_x1 <= 100
  0 <= a3_x2 <= 100
  0 <= a3_x3 <= 100
  0 <= a3_x4 <= 100
  0 <= a3_x5 <= 100
  0 <= a3_x6 <= 100
  0 <= a4_x1 <= 100
  0 <= a4_x2 <= 100
  0 <= a4_x3 <= 100
  0 <= a4_x4 <= 100
  0 <= a4_x5 <= 100
  0 <= a4_x6 <= 100
  0 <= short_1 <= +inf
  0 <= surp_1 <= +inf
  0 <= short_2 <= +inf
  0 <= surp_2 <= +inf
  0 <= short_3 <= +inf
  0 <= surp_3 <= +inf
 0 <= a1_z1 <= 1
 0 <= a1_z2 <= 1
 0 <= a2_z1 <= 1
 0 <= a2_z2 <= 1
 0 <= a3_z1 <= 1
 0 <= a3_z2 <= 1
 0 <= a4_z1 <= 1
 0 <= a4_z2 <= 1

binary
  a1_z1
  a1_z2
  a2_z1
  a2_z2
  a3_z1
  a3_z2
  a4_z1
  a4_z2
end
