min
obj: 
  +1.5869078218103445 a1_x1
  +1.8591431952918778 a1_x2
  +3.3231109040519993 a1_x3
  +9.2087059181463786 a1_x4
  +9.6203246603591985 a1_x5
  +2.6522167369866532 a1_x6
  +45.971215901918207 a1_z1
  +15.231591264695247 a1_z2
  +9.6966969925339086 a2_x1
  +9.5099240901526567 a2_x2
  +7.5753998333245365 a2_x3
  +7.2545869758953661 a2_x4
  +4.0776176539598987 a2_x5
  +7.0823179577413251 a2_x6
  +41.740356324700421 a2_z1
  +13.295788449057502 a2_z2
  +8.20725746769123 a3_x1
  +8.7650426689296079 a3_x2
  +7.7797720123238729 a3_x3
  +6.0483854765360672 a3_x4
  +6.4868155236610479 a3_x5
  +7.5914186799784584 a3_x6
  +13.335393596501099 a3_z1
  +17.076428731733131 a3_z2
  +4.0749166189662294 a4_x1
  +3.9578684115063361 a4_x2
  +4.7726522238702849 a4_x3
  +6.6226528859876028 a4_x4
  +9.5073045520096944 a4_x5
  +5.1085987408368467 a4_x6
  +30.995431749404506 a4_z1
  +14.100841079092167 a4_z2
  +1000000 short_1
  +1000000 surp_1
  +1000000 short_2
  +1000000 surp_2
  +1000000 short_3
  +1000000 surp_3

s.t.

a1_local_1: 
+0.91555290746555551 a1_x4
+1.1866305975125664 a1_x1
+0.84272224405490281 a1_x3
<= 130.56099750115044

a1_local_2: 
+1.2901250319684303 a1_x3
+1.1403046099927359 a1_x5
+0.77511867084249408 a1_x2
<= 159.02825482882679

a1_local_3: 
+0.89385193114482808 a1_x1
+1.2976635478856187 a1_x2
+0.77061577450439711 a1_x5
<= 185.74620976182044

a1_local_4: 
+0.84475758585644267 a1_x3
+1.1837715538075546 a1_x5
+1.1829456198009576 a1_x6
<= 211.23300369770558

a1_local_5: 
+0.93760678057692992 a1_x4
+1.0665451879354779 a1_x5
+1.0411286842594878 a1_x6
<= 164.20180645309395

a1_local_6: 
+0.92965033855685086 a1_x4
+0.97740032361727958 a1_x6
+1.0756732488823237 a1_x1
<= 193.84297508175339

a1_local_7: 
+1.0727317804515359 a1_x5
+0.93219947262033975 a1_x2
+0.94097171756131359 a1_x4
<= 107.03108870249422

a1_local_8: 
+1.0508014256141547 a1_x2
+0.84858322144575615 a1_x6
+1.1784348013578094 a1_x3
<= 112.81499936443518

a1_act_1: 
+0.10000000000000001 a1_x1
-10 a1_z1
<= 0

a1_act_2: 
+0.10000000000000001 a1_x2
-10 a1_z2
<= 0

a2_local_1: 
+0.6791521694381516 a2_x5
+1.2061947802310962 a2_x3
+1.4724240678304523 a2_x6
<= 109.52131906706701

a2_local_2: 
+1.1214148427201651 a2_x5
+0.96658101915817396 a2_x1
+0.89173066193269346 a2_x4
<= 183.87832152924051

a2_local_3: 
+1.2919563570357357 a2_x6
+0.77401995396686596 a2_x1
+1.0476758507008761 a2_x3
<= 169.63785243635704

a2_local_4: 
+0.65050579285849552 a2_x4
+1.5372653264250482 a2_x2
+1.2546061477204333 a2_x5
<= 157.53195180918652

a2_local_5: 
+0.89212832764996985 a2_x5
+1.1209149726633878 a2_x3
+0.99726078178352362 a2_x1
<= 164.55413519233278

a2_local_6: 
+1.431962537800604 a2_x6
+0.59606155638378677 a2_x2
+1.677679074065513 a2_x1
<= 187.17741540376434

a2_local_7: 
+1.0634245382979004 a2_x2
+0.9403582144160253 a2_x1
+1.0206499739334942 a2_x3
<= 97.331302182942167

a2_local_8: 
+1.0972566160580315 a2_x6
+0.91506752041633344 a2_x3
+0.9113638371965963 a2_x5
<= 139.67781946418825

a2_act_1: 
+0.10000000000000001 a2_x1
-10 a2_z1
<= 0

a2_act_2: 
+0.10000000000000001 a2_x2
-10 a2_z2
<= 0

a3_local_1: 
+1.379696705569873 a3_x2
+1.1834753568355136 a3_x3
+0.72479697600419912 a3_x1
<= 109.97268653781578

a3_local_2: 
+0.98314516938065866 a3_x6
+1.6058000600626208 a3_x2
+0.62274253493364762 a3_x3
<= 156.61643591920503

a3_local_3: 
+1.2074338103311233 a3_x4
+0.93617867735399618 a3_x2
+0.82820274821173256 a3_x3
<= 102.86630581952517

a3_local_4: 
+1.0611400435293448 a3_x4
+1.1829971385770535 a3_x1
+0.84531058224099498 a3_x3
<= 173.88565000843499

a3_local_5: 
+0.90518186067258943 a3_x3
+0.91016586692250856 a3_x4
+1.1047503749765342 a3_x6
<= 97.959647967246511

a3_local_6: 
+1.2169345762837114 a3_x3
+0.82173686202080909 a3_x4
+1.0545458330870501 a3_x5
<= 197.39486610868121

a3_local_7: 
+0.83838813987461258 a3_x5
+1.0696121414360911 a3_x6
+1.1927649646255225 a3_x2
<= 155.55360864620712

a3_local_8: 
+0.93987587291272368 a3_x4
+1.0691643888494093 a3_x6
+0.93530986481523093 a3_x5
<= 99.038943227033585

a3_act_1: 
+0.10000000000000001 a3_x1
-10 a3_z1
<= 0

a3_act_2: 
+0.10000000000000001 a3_x2
-10 a3_z2
<= 0

a4_local_1: 
+1.4478113571607971 a4_x4
+0.69069771766470378 a4_x6
+1.3870050257213942 a4_x5
<= 141.86684223548065

a4_local_2: 
+0.81706054229146818 a4_x5
+1.2238995132422785 a4_x4
+1.1253877361914832 a4_x2
<= 100.13513844071898

a4_local_3: 
+1.2291412385063352 a4_x4
+1.4896164927011655 a4_x2
+0.67131372732499139 a4_x1
<= 149.79730658774002

a4_local_4: 
+1.2554410253266524 a4_x6
+1.4233918798750622 a4_x1
+0.70254721425541278 a4_x5
<= 226.63912402927261

a4_local_5: 
+1.1075390609561564 a4_x3
+0.6038046095165206 a4_x6
+1.6561648987753204 a4_x1
<= 197.68163396889167

a4_local_6: 
+1.1832323776055926 a4_x5
+0.84514252561581837 a4_x2
+0.86870095092785171 a4_x1
<= 154.71330148587347

a4_local_7: 
+1.4449072343140343 a4_x2
+0.69208595282225638 a4_x4
+0.70247493631898905 a4_x1
<= 177.99762287925819

a4_local_8: 
+1.3990402867095142 a4_x6
+0.71477569981344824 a4_x5
+0.96984013205581665 a4_x4
<= 119.31782010296234

a4_act_1: 
+0.10000000000000001 a4_x1
-10 a4_z1
<= 0

a4_act_2: 
+0.10000000000000001 a4_x2
-10 a4_z2
<= 0

coupling_1: 
+0.0011865619577803 a1_x1
+0.054836038229469232 a2_x1
+7.1371103697698208 a3_x1
+842.77099349341938 a4_x1
+0.85206177196040533 short_1
-0.85206177196040533 surp_1
= 49271.140921719263

coupling_2: 
+0.00097266311209958344 a1_x2
+0.090252302775215093 a2_x2
+10.682412575291407 a3_x2
+1028.1051965067404 a4_x2
+1.0307106826356898 short_2
-1.0307106826356898 surp_2
= 46018.735981366452

coupling_3: 
+0.0010457154707990738 a1_x3
+0.065231110473652737 a2_x3
+10.733686411940136 a3_x3
+956.28306927108906 a4_x3
+0.71754553194331239 short_3
-0.71754553194331239 surp_3
= 42529.840400362249

bounds
  0 <= a1_x1 <= 100
  0 <= a1_x2 <= 100
  0 <= a1_x3 <= 100
  0 <= a1_x4 <= 100
  0 <= a1_x5 <= 100
  0 <= a1_x6 <= 100
  0 <= a2_x1 <= 100
  0 <= a2_x2 <= 100
  0 <= a2_x3 <= 100
  0 <= a2_x4 <= 100
  0 <= a2_x5 <= 100
  0 <= a2_x6 <= 100
  0 <= a3_x1 <= 100
  0 <= a3_x2 <= 100
  0 <= a3_x3 <= 100
  0 <= a3_x4 <= 100
  0 <= a3_x5 <= 100
  0 <= a3_x6 <= 100
  0 <= a4_x1 <= 100
  0 <= a4_x2 <= 100
  0 <= a4_x3 <= 100
  0 <= a4_x4 <= 100
  0 <= a4_x5 <= 100
  0 <= a4_x6 <= 100
  0 <= short_1 <= +inf
  0 <= surp_1 <= +inf
  0 <= short_2 <= +inf
  0 <= surp_2 <= +inf
  0 <= short_3 <= +inf
  0 <= surp_3 <= +inf
 0 <= a1_z1 <= 1
 0 <= a1_z2 <= 1
 0 <= a2_z1 <= 1
 0 <= a2_z2 <= 1
 0 <= a3_z1 <= 1
 0 <= a3_z2 <= 1
 0 <= a4_z1 <= 1
 0 <= a4_z2 <= 1

binary
  a1_z1
  a1_z2
  a2_z1
  a2_z2
  a3_z1
  a3_z2
  a4_z1
  a4_z2
end
