min
obj: 
  +2.370294118728955 a1_x1
  +4.0871141162290519 a1_x2
  +7.6613663727576089 a1_x3
  +4.8999168943267346 a1_x4
  +9.1856075433138287 a1_x5
  +7.8055232956727103 a1_x6
  +17.430873114549655 a1_z1
  +23.402378726140935 a1_z2
  +7.1371158046195609 a2_x1
  +9.867310978744726 a2_x2
  +9.2615292817302226 a2_x3
  +3.5007890513184758 a2_x4
  +7.1637373168446201 a2_x5
  +7.9245284991421201 a2_x6
  +12.291053398517668 a2_z1
  +33.658905491272137 a2_z2
  +4.0731411682260328 a3_x1
  +2.6732854397558619 a3_x2
  +9.8971817318039896 a3_x3
  +5.2211213282041085 a3_x4
  +8.0114291145185241 a3_x5
  +2.5829750625381869 a3_x6
  +49.512564365484344 a3_z1
  +27.0926152551414 a3_z2
  +6.6365056560112565 a4_x1
  +8.2046274155609638 a4_x2
  +7.1214056561276049 a4_x3
  +6.2664722965402984 a4_x4
  +7.507966634456313 a4_x5
  +5.5736057519875928 a4_x6
  +9.0405418509815796 a4_z1
  +27.561079601884479 a4_z2
  +1000000 short_1
  +1000000 surp_1
  +1000000 short_2
  +1000000 surp_2
  +1000000 short_3
  +1000000 surp_3

s.t.

a1_local_1: 
+1.5820778533252038 a1_x3
+1.1369930495446261 a1_x2
+0.63208014567564086 a1_x1
<= 234.4080527698766

a1_local_2: 
+1.0714459362754145 a1_x2
+1.296794104102921 a1_x1
+0.77113243870873904 a1_x5
<= 130.83153884183332

a1_local_3: 
+0.62470345210328393 a1_x4
+1.2230564084777333 a1_x1
+1.6007595229915064 a1_x2
<= 241.06323067094945

a1_local_4: 
+0.91604657951092483 a1_x2
+1.5838264983709378 a1_x5
+0.63138228905032256 a1_x1
<= 125.13109962431196

a1_local_5: 
+0.73450686554155409 a1_x6
+1.2668954069864038 a1_x2
+1.361457662159083 a1_x5
<= 146.23516589557633

a1_local_6: 
+1.2122274331561436 a1_x1
+0.82492770964307405 a1_x6
+1.0307404083030427 a1_x5
<= 110.29586540421033

a1_local_7: 
+0.98441540775382841 a1_x5
+1.0158313168642203 a1_x4
+1.007147486762614 a1_x1
<= 117.99343610534852

a1_local_8: 
+1.1474244203945447 a1_x6
+0.87151709709659808 a1_x5
+1.010076961332613 a1_x2
<= 210.82166657234529

a1_act_1: 
+0.10000000000000001 a1_x1
-10 a1_z1
<= 0

a1_act_2: 
+0.10000000000000001 a1_x2
-10 a1_z2
<= 0

a2_local_1: 
+0.95030139082433029 a2_x6
+0.99224818960639849 a2_x1
+1.0522977338090176 a2_x3
<= 203.36326513167688

a2_local_2: 
+1.2430746891492812 a2_x5
+1.1266887747449481 a2_x4
+0.80445689123021769 a2_x2
<= 137.19110195933484

a2_local_3: 
+1.4178794526189256 a2_x1
+0.70527857509531433 a2_x6
+1.4023701176761985 a2_x3
<= 192.23550565862138

a2_local_4: 
+0.61863298338434225 a2_x6
+1.4627955538699642 a2_x2
+1.6164673188444001 a2_x1
<= 236.19925949985628

a2_local_5: 
+1.2206460961634054 a2_x1
+0.77752154524147843 a2_x6
+1.286137993371522 a2_x2
<= 127.29771924818952

a2_local_6: 
+1.0691632414868897 a2_x2
+0.93238834201535603 a2_x3
+1.0725144823652573 a2_x5
<= 167.07234685559573

a2_local_7: 
+0.70786296170684293 a2_x1
+1.4127028169248159 a2_x4
+1.3650524526974133 a2_x3
<= 168.00206669271364

a2_local_8: 
+0.80299508935601671 a2_x1
+0.70176399774491705 a2_x5
+1.4249804823465568 a2_x3
<= 165.5087134811927

a2_act_1: 
+0.10000000000000001 a2_x1
-10 a2_z1
<= 0

a2_act_2: 
+0.10000000000000001 a2_x2
-10 a2_z2
<= 0

a3_local_1: 
+1.0501846345170511 a3_x2
+0.85471811043363521 a3_x1
+1.1699763791042839 a3_x5
<= 205.55590164792949

a3_local_2: 
+1.0841513276550216 a3_x6
+1.1170439751089669 a3_x5
+0.8952199038560239 a3_x3
<= 132.2930855960532

a3_local_3: 
+0.88265922331550284 a3_x5
+0.96290938705420404 a3_x1
+1.1329400674517784 a3_x4
<= 135.12442106519856

a3_local_4: 
+0.80179812752017388 a3_x5
+1.2471967265536417 a3_x2
+0.99067928904710434 a3_x6
<= 118.86067893839309

a3_local_5: 
+1.3094986294893713 a3_x5
+0.76365104741647727 a3_x1
+1.0262719232400659 a3_x6
<= 179.89208196095041

a3_local_6: 
+0.84047754887639736 a3_x2
+1.1897997767303388 a3_x3
+0.96411023430850717 a3_x1
<= 205.35487649601095

a3_local_7: 
+1.2793341068849486 a3_x4
+0.67732240915929154 a3_x3
+1.4764017644731753 a3_x6
<= 145.52402855626741

a3_local_8: 
+0.96036334267630208 a3_x5
+0.98825879016496021 a3_x6
+1.041272563791575 a3_x4
<= 156.97740354816654

a3_act_1: 
+0.10000000000000001 a3_x1
-10 a3_z1
<= 0

a3_act_2: 
+0.10000000000000001 a3_x2
-10 a3_z2
<= 0

a4_local_1: 
+1.0128535338592071 a4_x2
+1.4642131966203566 a4_x3
+0.68296065238871173 a4_x1
<= 123.7268291378515

a4_local_2: 
+0.88521527465669769 a4_x2
+1.1296687129442249 a4_x1
+1.02261227051229 a4_x6
<= 111.08506394647931

a4_local_3: 
+1.0888014735528737 a4_x5
+0.70667531768794756 a4_x3
+1.4150770162338941 a4_x2
<= 172.67953461665712

a4_local_4: 
+1.1398115788507972 a4_x2
+0.8773379903792865 a4_x3
+1.1116429042848495 a4_x4
<= 134.4968830248369

a4_local_5: 
+1.1816474499387557 a4_x1
+0.84627610380052831 a4_x3
+0.91987030090550859 a4_x2
<= 117.68284381260111

a4_local_6: 
+0.60892166887811394 a4_x2
+0.9211304717797939 a4_x6
+1.6422473548074159 a4_x3
<= 168.91482301533742

a4_local_7: 
+1.6669231192514615 a4_x4
+1.3348858146859943 a4_x2
+0.5999076912731609 a4_x5
<= 152.27519301961718

a4_local_8: 
+1.4757179826622027 a4_x5
+1.4465663334563077 a4_x2
+0.6776362501160248 a4_x4
<= 193.07402974639953

a4_act_1: 
+0.10000000000000001 a4_x1
-10 a4_z1
<= 0

a4_act_2: 
+0.10000000000000001 a4_x2
-10 a4_z2
<= 0

coupling_1: 
+0.0010669904424204701 a1_x1
+0.057995717067761923 a2_x1
+8.0162055215434034 a3_x1
+937.21551781803964 a4_x1
+0.75421793958218575 short_1
-0.75421793958218575 surp_1
= 63626.709776752105

coupling_2: 
+0.0010779997009284495 a1_x2
+0.08612113167299601 a2_x2
+11.353826161052037 a3_x2
+927.6440421446589 a4_x2
+0.76384072596088648 short_2
-0.76384072596088648 surp_2
= 61555.639848257182

coupling_3: 
+0.00092054092589071725 a1_x3
+0.068497949181203277 a2_x3
+8.6177285682534048 a3_x3
+1086.3178071440962 a4_x3
+0.85030006061241381 short_3
-0.85030006061241381 surp_3
= 79951.470452784124

bounds
  0 <= a1_x1 <= 100
  0 <= a1_x2 <= 100
  0 <= a1_x3 <= 100
  0 <= a1_x4 <= 100
  0 <= a1_x5 <= 100
  0 <= a1_x6 <= 100
  0 <= a2_x1 <= 100
  0 <= a2_x2 <= 100
  0 <= a2_x3 <= 100
  0 <= a2_x4 <= 100
  0 <= a2_x5 <= 100
  0 <= a2_x6 <= 100
  0 <= a3_x1 <= 100
  0 <= a3_x2 <= 100
  0 <= a3_x3 <= 100
  0 <= a3_x4 <= 100
  0 <= a3_x5 <= 100
  0 <= a3_x6 <= 100
  0 <= a4_x1 <= 100
  0 <= a4_x2 <= 100
  0 <= a4_x3 <= 100
  0 <= a4_x4 <= 100
  0 <= a4_x5 <= 100
  0 <= a4_x6 <= 100
  0 <= short_1 <= +inf
  0 <= surp_1 <= +inf
  0 <= short_2 <= +inf
  0 <= surp_2 <= +inf
  0 <= short_3 <= +inf
  0 <= surp_3 <= +inf
 0 <= a1_z1 <= 1
 0 <= a1_z2 <= 1
 0 <= a2_z1 <= 1
 0 <= a2_z2 <= 1
 0 <= a3_z1 <= 1
 0 <= a3_z2 <= 1
 0 <= a4_z1 <= 1
 0 <= a4_z2 <= 1

binary
  a1_z1
  a1_z2
  a2_z1
  a2_z2
  a3_z1
  a3_z2
  a4_z1
  a4_z2
end
