min
obj: 
  +3.043052453503527 a1_x1
  +8.5242104678500681 a1_x2
  +7.6930756521091874 a1_x3
  +6.9189962156082423 a1_x4
  +9.2097073421305335 a1_x5
  +1.6783613276554563 a1_x6
  +29.957301038510835 a1_z1
  +31.080729858907144 a1_z2
  +8.695776775262491 a2_x1
  +6.9077742042221582 a2_x2
  +5.0875445936298673 a2_x3
  +7.5917023578038236 a2_x4
  +8.2794490372741638 a2_x5
  +1.0351287904006585 a2_x6
  +28.928861886453006 a2_z1
  +23.934213589769115 a2_z2
  +5.1403805558345264 a3_x1
  +3.338751629164217 a3_x2
  +6.1106898664601106 a3_x3
  +6.5508211726549801 a3_x4
  +5.1951326468311683 a3_x5
  +3.9370151452755238 a3_x6
  +16.85304582879688 a3_z1
  +38.539597563502319 a3_z2
  +1.4163415069349607 a4_x1
  +8.5438219758017482 a4_x2
  +7.1495610706401269 a4_x3
  +5.5659057933768521 a4_x4
  +2.526471255000704 a4_x5
  +2.3501129539553487 a4_x6
  +43.904023055410626 a4_z1
  +7.4539102618189466 a4_z2
  +1000000 short_1
  +1000000 surp_1
  +1000000 short_2
  +1000000 surp_2
  +1000000 short_3
  +1000000 surp_3

s.t.

a1_local_1: 
+0.6108352406217703 a1_x4
+0.75992141376050704 a1_x3
+1.6371026645124438 a1_x1
<= 186.84874811651443

a1_local_2: 
+0.75759939178739077 a1_x6
+1.3199588210343169 a1_x4
+0.80353739707727567 a1_x2
<= 128.79586939178338

a1_local_3: 
+1.5964495713040785 a1_x3
+0.9428954463766942 a1_x1
+0.62638997057898826 a1_x4
<= 132.97164326229267

a1_local_4: 
+1.3016403072580982 a1_x3
+0.73019925673316288 a1_x1
+1.3694892055545194 a1_x2
<= 168.77267143464996

a1_local_5: 
+0.73949401415506255 a1_x3
+1.2714091593277952 a1_x2
+1.352275989877469 a1_x4
<= 132.83524628108324

a1_local_6: 
+0.72831567822513821 a1_x3
+1.3730309945227872 a1_x5
+0.9581146746682615 a1_x4
<= 106.2950574076615

a1_local_7: 
+1.249689844883964 a1_x5
+1.0529717669059377 a1_x6
+0.80019854853893913 a1_x1
<= 137.09593949539351

a1_local_8: 
+1.1108472102204003 a1_x2
+0.90021381050377969 a1_x3
+1.0057240656899598 a1_x6
<= 150.50868077518646

a1_act_1: 
+0.10000000000000001 a1_x1
-10 a1_z1
<= 0

a1_act_2: 
+0.10000000000000001 a1_x2
-10 a1_z2
<= 0

a2_local_1: 
+0.84969595426924693 a2_x6
+1.0415149373083277 a2_x3
+1.1768915633592929 a2_x1
<= 103.69385246671692

a2_local_2: 
+0.72364910021030615 a2_x4
+0.90103146396445433 a2_x1
+1.3818852254627012 a2_x5
<= 157.97115161166849

a2_local_3: 
+0.78942074538647899 a2_x6
+0.93745996512662444 a2_x5
+1.2667516097647362 a2_x3
<= 183.62239723176532

a2_local_4: 
+0.80080234873124045 a2_x4
+1.2487475861982178 a2_x3
+0.85059161206027145 a2_x6
<= 141.84245488227074

a2_local_5: 
+1.212318040154359 a2_x6
+1.101558171270437 a2_x2
+0.82486605567023852 a2_x5
<= 178.98952530937248

a2_local_6: 
+1.0566085598887627 a2_x2
+0.89867475651001139 a2_x1
+1.1127496268878005 a2_x4
<= 127.36161834943427

a2_local_7: 
+0.7564853136431483 a2_x6
+1.3219027282685929 a2_x2
+1.2571435170346126 a2_x5
<= 152.03994303010953

a2_local_8: 
+1.3875795903396571 a2_x2
+0.72067938081679073 a2_x4
+1.0030216487598644 a2_x5
<= 135.37818250247497

a2_act_1: 
+0.10000000000000001 a2_x1
-10 a2_z1
<= 0

a2_act_2: 
+0.10000000000000001 a2_x2
-10 a2_z2
<= 0

a3_local_1: 
+0.80837659579852428 a3_x6
+1.237047194584088 a3_x5
+1.0974872579003279 a3_x2
<= 209.6541302563862

a3_local_2: 
+1.4584480686743038 a3_x4
+0.68566034093279526 a3_x3
+1.0219918856964441 a3_x1
<= 136.28752549168837

a3_local_3: 
+0.95220563932964086 a3_x2
+0.92308011409685664 a3_x4
+1.08332958832983 a3_x3
<= 160.06923726564185

a3_local_4: 
+0.88350038998181002 a3_x5
+1.1318614132367144 a3_x2
+1.0166247400463897 a3_x1
<= 201.35854568115761

a3_local_5: 
+1.1951055956862715 a3_x6
+1.402211384298262 a3_x2
+0.71315923633044165 a3_x3
<= 230.23439232522401

a3_local_6: 
+1.5120678842717903 a3_x1
+1.576820790093509 a3_x4
+0.6341874779192237 a3_x3
<= 210.6374446552004

a3_local_7: 
+1.1439014425380363 a3_x2
+0.97424530062977976 a3_x6
+0.8742011879810605 a3_x5
<= 209.12867977639809

a3_local_8: 
+1.0626656519816333 a3_x2
+0.83646468463381485 a3_x3
+1.1955077343615257 a3_x4
<= 140.98347795324284

a3_act_1: 
+0.10000000000000001 a3_x1
-10 a3_z1
<= 0

a3_act_2: 
+0.10000000000000001 a3_x2
-10 a3_z2
<= 0

a4_local_1: 
+0.91516494212742949 a4_x4
+0.76039190621515784 a4_x5
+1.3151113153971994 a4_x6
<= 110.33456840928444

a4_local_2: 
+1.0343824794820666 a4_x3
+1.2032528579603108 a4_x1
+0.83108051095357127 a4_x2
<= 203.52225988366973

a4_local_3: 
+0.69499156390075534 a4_x4
+0.88579766023522089 a4_x6
+1.4388663862153006 a4_x2
<= 93.608124538562208

a4_local_4: 
+1.1799977855624759 a4_x2
+1.0720563384693169 a4_x3
+0.84745921749617925 a4_x1
<= 183.93966475194699

a4_local_5: 
+0.74337391844943035 a4_x4
+1.3452180325156611 a4_x5
+0.87583653270600847 a4_x2
<= 203.59570773482002

a4_local_6: 
+1.5521001995625887 a4_x6
+0.64428830064052511 a4_x5
+1.1840989942889346 a4_x3
<= 232.13825626759404

a4_local_7: 
+0.63264775270628992 a4_x4
+1.4855014031506408 a4_x3
+1.5806584244111832 a4_x5
<= 242.82809379700919

a4_local_8: 
+1.1036746786148353 a4_x1
+0.64935992640976525 a4_x6
+1.5399779988409239 a4_x4
<= 181.90582888368266

a4_act_1: 
+0.10000000000000001 a4_x1
-10 a4_z1
<= 0

a4_act_2: 
+0.10000000000000001 a4_x2
-10 a4_z2
<= 0

coupling_1: 
+1.1504155683035711e-06 a1_x1
+4.4928860544828072e-05 a2_x1
+0.0043435020311860494 a3_x1
+0.99998992318648139 a4_x1
+0.00080171555871542629 short_1
-0.00080171555871542629 surp_1
= 20.268710184286032

coupling_2: 
+6.1380912589729029e-07 a1_x2
+7.4581315959486693e-05 a2_x2
+0.010808902987337681 a3_x2
+0.99994090975125605 a4_x2
+0.00081824791211517292 short_2
-0.00081824791211517292 surp_2
= 33.576526809754313

coupling_3: 
+1.1684309755303448e-06 a1_x3
+0.00017038930242820676 a2_x3
+0.019258925010325379 a3_x3
+0.99981126286406019 a4_x3
+0.0018032503625687675 short_3
-0.0018032503625687675 surp_3
= 21.240685343296342

bounds
  0 <= a1_x1 <= 100
  0 <= a1_x2 <= 100
  0 <= a1_x3 <= 100
  0 <= a1_x4 <= 100
  0 <= a1_x5 <= 100
  0 <= a1_x6 <= 100
  0 <= a2_x1 <= 100
  0 <= a2_x2 <= 100
  0 <= a2_x3 <= 100
  0 <= a2_x4 <= 100
  0 <= a2_x5 <= 100
  0 <= a2_x6 <= 100
  0 <= a3_x1 <= 100
  0 <= a3_x2 <= 100
  0 <= a3_x3 <= 100
  0 <= a3_x4 <= 100
  0 <= a3_x5 <= 100
  0 <= a3_x6 <= 100
  0 <= a4_x1 <= 100
  0 <= a4_x2 <= 100
  0 <= a4_x3 <= 100
  0 <= a4_x4 <= 100
  0 <= a4_x5 <= 100
  0 <= a4_x6 <= 100
  0 <= short_1 <= +inf
  0 <= surp_1 <= +inf
  0 <= short_2 <= +inf
  0 <= surp_2 <= +inf
  0 <= short_3 <= +inf
  0 <= surp_3 <= +inf
 0 <= a1_z1 <= 1
 0 <= a1_z2 <= 1
 0 <= a2_z1 <= 1
 0 <= a2_z2 <= 1
 0 <= a3_z1 <= 1
 0 <= a3_z2 <= 1
 0 <= a4_z1 <= 1
 0 <= a4_z2 <= 1

binary
  a1_z1
  a1_z2
  a2_z1
  a2_z2
  a3_z1
  a3_z2
  a4_z1
  a4_z2
end
