min
obj: 
  +2.8670230128866887 a1_x1
  +4.6121734767481746 a1_x2
  +8.3726653944305163 a1_x3
  +3.8874111784256438 a1_x4
  +3.5735214707131471 a1_x5
  +7.9063268225890937 a1_x6
  +32.521673256282952 a1_z1
  +46.9551209495583 a1_z2
  +6.1895710982011405 a2_x1
  +7.6567171580139357 a2_x2
  +8.2043744709301158 a2_x3
  +3.6188691473828523 a2_x4
  +5.2859257046209569 a2_x5
  +3.3947769180807601 a2_x6
  +12.605481383042026 a2_z1
  +31.130882329794158 a2_z2
  +1.0038469274140069 a3_x1
  +6.9874663911383514 a3_x2
  +2.0892016241128126 a3_x3
  +9.3610808006140438 a3_x4
  +4.8509819599704116 a3_x5
  +1.7243146015797635 a3_x6
  +35.019467218819287 a3_z1
  +33.012677472845496 a3_z2
  +2.5033216672460403 a4_x1
  +6.4216192335644386 a4_x2
  +2.3877334915960096 a4_x3
  +7.475862409648836 a4_x4
  +7.4106096914751971 a4_x5
  +8.5860247699785965 a4_x6
  +17.162878658753439 a4_z1
  +23.317265071624306 a4_z2
  +1000000 short_1
  +1000000 surp_1
  +1000000 short_2
  +1000000 surp_2
  +1000000 short_3
  +1000000 surp_3

s.t.

a1_local_1: 
+0.00073514418900838627 a1_x3
+0.0012906075671666123 a1_x1
+0.0011467248542671236 a1_x2
<= 0.19079447617879083

a1_local_2: 
+0.00073593099284625647 a1_x6
+0.0010554806069745441 a1_x4
+0.00079273265620465115 a1_x3
<= 0.10121332376029323

a1_local_3: 
+0.0010894601873436649 a1_x5
+0.0014722491353981429 a1_x6
+0.0014175620560284772 a1_x4
<= 0.14596635645669714

a1_local_4: 
+0.0012907684170365078 a1_x3
+0.0014888987575584071 a1_x6
+0.00076569309833190969 a1_x4
<= 0.11950861320420282

a1_local_5: 
+0.0011600272033728762 a1_x4
+0.00092224108861290626 a1_x5
+0.00059949888588088553 a1_x2
<= 0.098204690024964111

a1_local_6: 
+0.0013554193383096022 a1_x5
+0.0013144594820566921 a1_x4
+0.001122535029781292 a1_x2
<= 0.18447966188656595

a1_local_7: 
+0.00077147845633171366 a1_x2
+0.0009824804878600941 a1_x3
+0.00050034323992626353 a1_x6
<= 0.14026289386932861

a1_local_8: 
+0.0014909461757358531 a1_x2
+0.0014330935271795202 a1_x5
+0.00084067474227746358 a1_x1
<= 0.19657573516711296

a1_act_1: 
+1 a1_x1
-100 a1_z1
<= 0

a1_act_2: 
+1 a1_x2
-100 a1_z2
<= 0

a2_local_1: 
+0.13785872657464901 a2_x4
+0.1158283797567235 a2_x3
+0.13746421547720875 a2_x1
<= 21.077489383572178

a2_local_2: 
+0.093585773854472254 a2_x6
+0.05527057715601931 a2_x2
+0.11053155457796207 a2_x5
<= 10.143987268508987

a2_local_3: 
+0.14335715966185206 a2_x6
+0.11900452445926263 a2_x4
+0.088018245700856021 a2_x5
<= 21.079775896619182

a2_local_4: 
+0.14932150308135941 a2_x3
+0.093448041032065221 a2_x4
+0.10828443070418337 a2_x1
<= 22.841136013070084

a2_local_5: 
+0.079621216876804374 a2_x5
+0.077350476211233365 a2_x4
+0.10778973453642704 a2_x3
<= 17.831801467670012

a2_local_6: 
+0.073116958194188383 a2_x6
+0.14347392896000857 a2_x4
+0.13068007858374706 a2_x3
<= 19.456185647769022

a2_local_7: 
+0.067741252988447548 a2_x6
+0.071084567195662376 a2_x3
+0.078539736454592154 a2_x5
<= 8.1009922574419484

a2_local_8: 
+0.051370980515597832 a2_x5
+0.084073399515222788 a2_x3
+0.0685269419717872 a2_x4
<= 8.5836366466551635

a2_act_1: 
+1 a2_x1
-100 a2_z1
<= 0

a2_act_2: 
+1 a2_x2
-100 a2_z2
<= 0

a3_local_1: 
+9.6768489850801913 a3_x4
+11.157958653165256 a3_x2
+9.8426752193669316 a3_x6
<= 1018.7869812925831

a3_local_2: 
+7.9757436180692132 a3_x4
+13.868515098356259 a3_x6
+5.5163254933190498 a3_x3
<= 1021.6492224857354

a3_local_3: 
+8.2781018635462029 a3_x4
+6.9042189628032222 a3_x2
+7.2548359869672634 a3_x3
<= 704.62710400882008

a3_local_4: 
+7.8871228440705687 a3_x2
+10.273523404385054 a3_x4
+5.2872669735790314 a3_x3
<= 1215.7466323993617

a3_local_5: 
+8.3964488452449526 a3_x4
+10.305137096184867 a3_x6
+8.9183066397868647 a3_x1
<= 1040.8514483530739

a3_local_6: 
+9.7864745746416375 a3_x3
+11.375557402174664 a3_x4
+11.912515519570416 a3_x1
<= 1129.5934674328073

a3_local_7: 
+12.222563448930563 a3_x4
+9.8797966766311642 a3_x1
+14.465260515066301 a3_x6
<= 2131.109070214824

a3_local_8: 
+10.327863838945595 a3_x2
+10.152582835330456 a3_x3
+10.220836689790271 a3_x1
<= 1190.2065191272968

a3_act_1: 
+1 a3_x1
-100 a3_z1
<= 0

a3_act_2: 
+1 a3_x2
-100 a3_z2
<= 0

a4_local_1: 
+1177.6413034405612 a4_x1
+1465.7794852031413 a4_x4
+1299.4366992459975 a4_x5
<= 123948.2191153567

a4_local_2: 
+564.42982571877303 a4_x6
+662.1578191334371 a4_x2
+613.18597815332657 a4_x3
<= 71734.054572747991

a4_local_3: 
+1385.8583500901766 a4_x1
+1350.6309721080565 a4_x4
+1378.5670775857755 a4_x5
<= 201364.25652687086

a4_local_4: 
+568.16998098916224 a4_x2
+1126.5438555262685 a4_x6
+1061.6597028209292 a4_x5
<= 96261.546965275775

a4_local_5: 
+580.69692442736266 a4_x2
+505.81920929920011 a4_x5
+926.79728276381957 a4_x1
<= 109009.37184939561

a4_local_6: 
+930.54395096373105 a4_x5
+1314.918444879524 a4_x6
+1084.3883221419119 a4_x4
<= 231853.81140359497

a4_local_7: 
+751.85613369095483 a4_x1
+1207.4929441352026 a4_x5
+1492.7256867998519 a4_x2
<= 116035.17556289295

a4_local_8: 
+995.59283898788226 a4_x1
+922.89612476474929 a4_x6
+1043.8199234269862 a4_x5
<= 146462.64773951998

a4_act_1: 
+1 a4_x1
-100 a4_z1
<= 0

a4_act_2: 
+1 a4_x2
-100 a4_z2
<= 0

coupling_1: 
+9.6104831661338565e-06 a1_x1
+0.0016228827999816141 a2_x1
+0.17311988479062163 a3_x1
+15.885414589605581 a4_x1
+0.014646077907122034 short_1
-0.014646077907122034 surp_1
= 954.32784319758764

coupling_2: 
+1.109446415186314e-08 a1_x2
+1.2779038165148585e-06 a2_x2
+0.00013205537189219893 a3_x2
+0.019417581887777015 a4_x2
+1.6098432741434152e-05 short_2
-1.6098432741434152e-05 surp_2
= 0.77887913141570431

coupling_3: 
+793.47764367074149 a1_x3
+62348.602393379791 a2_x3
+6836972.6626387332 a3_x3
+479108767.87319976 a4_x3
+856600.08900491858 short_3
-856600.08900491858 surp_3
= 21521076630.89307

bounds
  0 <= a1_x1 <= 100
  0 <= a1_x2 <= 100
  0 <= a1_x3 <= 100
  0 <= a1_x4 <= 100
  0 <= a1_x5 <= 100
  0 <= a1_x6 <= 100
  0 <= a2_x1 <= 100
  0 <= a2_x2 <= 100
  0 <= a2_x3 <= 100
  0 <= a2_x4 <= 100
  0 <= a2_x5 <= 100
  0 <= a2_x6 <= 100
  0 <= a3_x1 <= 100
  0 <= a3_x2 <= 100
  0 <= a3_x3 <= 100
  0 <= a3_x4 <= 100
  0 <= a3_x5 <= 100
  0 <= a3_x6 <= 100
  0 <= a4_x1 <= 100
  0 <= a4_x2 <= 100
  0 <= a4_x3 <= 100
  0 <= a4_x4 <= 100
  0 <= a4_x5 <= 100
  0 <= a4_x6 <= 100
  0 <= short_1 <= +inf
  0 <= surp_1 <= +inf
  0 <= short_2 <= +inf
  0 <= surp_2 <= +inf
  0 <= short_3 <= +inf
  0 <= surp_3 <= +inf
 0 <= a1_z1 <= 1
 0 <= a1_z2 <= 1
 0 <= a2_z1 <= 1
 0 <= a2_z2 <= 1
 0 <= a3_z1 <= 1
 0 <= a3_z2 <= 1
 0 <= a4_z1 <= 1
 0 <= a4_z2 <= 1

binary
  a1_z1
  a1_z2
  a2_z1
  a2_z2
  a3_z1
  a3_z2
  a4_z1
  a4_z2
end
