min
obj: 
  +5.2436233239928463 a1_x1
  +8.0695966456126804 a1_x2
  +3.4781022885686368 a1_x3
  +9.412058306823841 a1_x4
  +8.3165688602967034 a1_x5
  +6.8002801919710905 a1_x6
  +10.410503430419741 a1_z1
  +29.396440143420605 a1_z2
  +8.2806614137575387 a2_x1
  +6.0649431138157652 a2_x2
  +8.6541766135972331 a2_x3
  +4.3292904508020413 a2_x4
  +7.270244042047584 a2_x5
  +4.5318516777440347 a2_x6
  +14.3292458598275 a2_z1
  +33.495450643789965 a2_z2
  +3.4667216339522406 a3_x1
  +8.7306868906336064 a3_x2
  +5.7873163324378032 a3_x3
  +5.6599350909197002 a3_x4
  +4.8869920304691288 a3_x5
  +4.3356674135059086 a3_x6
  +5.900585939248967 a3_z1
  +40.303679684732423 a3_z2
  +4.5273516228701549 a4_x1
  +9.793261850532609 a4_x2
  +5.1742521510836195 a4_x3
  +5.4489998276629183 a4_x4
  +4.6550473123840108 a4_x5
  +5.1815797270979749 a4_x6
  +20.492987297835271 a4_z1
  +8.5742214275245221 a4_z2
  +1000000 short_1
  +1000000 surp_1
  +1000000 short_2
  +1000000 surp_2
  +1000000 short_3
  +1000000 surp_3

s.t.

a1_local_1: 
+0.71444632207427206 a1_x4
+0.43574013794578392 a1_x6
+0.54744587408942524 a1_x1
<= 111.38287801045655

a1_local_2: 
+0.51791392364174604 a1_x5
+0.285632170645788 a1_x4
+0.80633704540358753 a1_x1
<= 50.322073711188985

a1_local_3: 
+0.63777507054707427 a1_x3
+0.44182236934932351 a1_x6
+0.6309009061106382 a1_x5
<= 60.070908659970385

a1_local_4: 
+0.33929697537901254 a1_x3
+0.65123208578941416 a1_x5
+0.67880360409843343 a1_x4
<= 95.446496815210679

a1_local_5: 
+0.46140356518349446 a1_x5
+0.60766003031606719 a1_x2
+0.64641785061385582 a1_x1
<= 105.98516987854603

a1_local_6: 
+0.61634174795948915 a1_x3
+0.44824111799900029 a1_x2
+0.64745868583041488 a1_x5
<= 104.82368412884905

a1_local_7: 
+0.36500413164660633 a1_x1
+0.83300487450751215 a1_x5
+0.41578223017299681 a1_x6
<= 100.89831964908166

a1_local_8: 
+0.53847590475921814 a1_x1
+0.69184837387322606 a1_x5
+0.48102965351703053 a1_x3
<= 100.15801049819525

a1_act_1: 
+0.0099995000374968751 a1_x1
-0.99995000374968757 a1_z1
<= 0

a1_act_2: 
+0.0099995000374968751 a1_x2
-0.99995000374968757 a1_z2
<= 0

a2_local_1: 
+0.37350625321495778 a2_x2
+0.68733294235950082 a2_x5
+0.62294984160585098 a2_x6
<= 85.86696694098778

a2_local_2: 
+0.74279153421754462 a2_x5
+0.56147197125488557 a2_x3
+0.36470530869442969 a2_x4
<= 58.226657436824993

a2_local_3: 
+0.63581123423919239 a2_x3
+0.57371264367388475 a2_x1
+0.51633116979701821 a2_x2
<= 85.63674359021077

a2_local_4: 
+0.32639529475032775 a2_x1
+0.73437005898123264 a2_x3
+0.59511908727308327 a2_x4
<= 115.5576979021486

a2_local_5: 
+0.40755672572156987 a2_x4
+0.58260213990676446 a2_x5
+0.70318721681723706 a2_x2
<= 76.545453412864134

a2_local_6: 
+0.48792588625729022 a2_x6
+0.57678186501860274 a2_x1
+0.65517250377721159 a2_x3
<= 64.028430229757532

a2_local_7: 
+0.57773410591682117 a2_x4
+0.37478013677828259 a2_x6
+0.72509527093820103 a2_x2
<= 112.19666078162598

a2_local_8: 
+0.54930793062582661 a2_x6
+0.67041535046167644 a2_x5
+0.49880262150165094 a2_x4
<= 94.10365187793559

a2_act_1: 
+0.0099995000374968751 a2_x1
-0.99995000374968757 a2_z1
<= 0

a2_act_2: 
+0.0099995000374968751 a2_x2
-0.99995000374968757 a2_z2
<= 0

a3_local_1: 
+0.75228747269457885 a3_x4
+0.51532305906318088 a3_x1
+0.41049446186832872 a3_x5
<= 100.86043104916044

a3_local_2: 
+0.36688515657882687 a3_x2
+0.3385808131925101 a3_x4
+0.86646310643906144 a3_x3
<= 85.560918576777198

a3_local_3: 
+0.64511379485137166 a3_x4
+0.49493960553075744 a3_x6
+0.58211938515180928 a3_x5
<= 71.402497045085994

a3_local_4: 
+0.77630860263728119 a3_x4
+0.34853725220246684 a3_x2
+0.52523017554069162 a3_x6
<= 96.161251875074612

a3_local_5: 
+0.80818542300958551 a3_x3
+0.41803268102831459 a3_x4
+0.41483129055930268 a3_x2
<= 58.629258931026378

a3_local_6: 
+0.6397412937144431 a3_x4
+0.62238720137125625 a3_x1
+0.45096036265488565 a3_x6
<= 87.688428570645357

a3_local_7: 
+0.7863853874727561 a3_x4
+0.4774487343032856 a3_x5
+0.39197031581678965 a3_x2
<= 110.89702623898771

a3_local_8: 
+0.41632820917113478 a3_x2
+0.68221755016079455 a3_x5
+0.60104079437336011 a3_x3
<= 89.221680966901332

a3_act_1: 
+0.0099995000374968751 a3_x1
-0.99995000374968757 a3_z1
<= 0

a3_act_2: 
+0.0099995000374968751 a3_x2
-0.99995000374968757 a3_z2
<= 0

a4_local_1: 
+0.80562951948429495 a4_x5
+0.42176101772950603 a4_x6
+0.41602730830953316 a4_x2
<= 57.930043658056285

a4_local_2: 
+0.65725354565990945 a4_x5
+0.3516058410060911 a4_x4
+0.66662666409908689 a4_x1
<= 87.334077911326119

a4_local_3: 
+0.48957808410464171 a4_x6
+0.48669519233211472 a4_x2
+0.72349228698392787 a4_x3
<= 72.199898606422764

a4_local_4: 
+0.53931210015469488 a4_x2
+0.48770524042986801 a4_x6
+0.68650277281594208 a4_x4
<= 102.23659887745421

a4_local_5: 
+0.71518857140941172 a4_x2
+0.40589755795445537 a4_x1
+0.56899251293138697 a4_x3
<= 77.244960991650387

a4_local_6: 
+0.57783038895112526 a4_x3
+0.58408750613795568 a4_x5
+0.57004721451660034 a4_x2
<= 87.122324865516177

a4_local_7: 
+0.35335638496618887 a4_x5
+0.85793641727566372 a4_x2
+0.37294016827880677 a4_x4
<= 77.19990879529783

a4_local_8: 
+0.5921280882782135 a4_x1
+0.69943158707545405 a4_x5
+0.40022466449870348 a4_x4
<= 102.07588036749331

a4_act_1: 
+0.0099995000374968751 a4_x1
-0.99995000374968757 a4_z1
<= 0

a4_act_2: 
+0.0099995000374968751 a4_x2
-0.99995000374968757 a4_z2
<= 0

coupling_1: 
+7.7184142198316271e-05 a1_x1
+0.0012067845806549621 a2_x1
+0.038791196502197901 a3_x1
+0.99919113373390711 a4_x1
+0.0074451009080211848 short_1
-0.0074451009080211848 surp_1
= 29.063018678164152

coupling_2: 
+7.4685584997516907e-05 a1_x2
+0.0013888634092953536 a2_x2
+0.045139825658184363 a3_x2
+0.99890800907464217 a4_x2
+0.0084631857647437959 short_2
-0.0084631857647437959 surp_2
= 70.303647219512314

coupling_3: 
+0.00015859144852378498 a1_x3
+0.0024110895616340461 a2_x3
+0.057990875425492271 a3_x3
+0.99813079009028283 a4_x3
+0.013530442287880553 short_3
-0.013530442287880553 surp_3
= 54.007083041124666

bounds
  0 <= a1_x1 <= 100
  0 <= a1_x2 <= 100
  0 <= a1_x3 <= 100
  0 <= a1_x4 <= 100
  0 <= a1_x5 <= 100
  0 <= a1_x6 <= 100
  0 <= a2_x1 <= 100
  0 <= a2_x2 <= 100
  0 <= a2_x3 <= 100
  0 <= a2_x4 <= 100
  0 <= a2_x5 <= 100
  0 <= a2_x6 <= 100
  0 <= a3_x1 <= 100
  0 <= a3_x2 <= 100
  0 <= a3_x3 <= 100
  0 <= a3_x4 <= 100
  0 <= a3_x5 <= 100
  0 <= a3_x6 <= 100
  0 <= a4_x1 <= 100
  0 <= a4_x2 <= 100
  0 <= a4_x3 <= 100
  0 <= a4_x4 <= 100
  0 <= a4_x5 <= 100
  0 <= a4_x6 <= 100
  0 <= short_1 <= +inf
  0 <= surp_1 <= +inf
  0 <= short_2 <= +inf
  0 <= surp_2 <= +inf
  0 <= short_3 <= +inf
  0 <= surp_3 <= +inf
 0 <= a1_z1 <= 1
 0 <= a1_z2 <= 1
 0 <= a2_z1 <= 1
 0 <= a2_z2 <= 1
 0 <= a3_z1 <= 1
 0 <= a3_z2 <= 1
 0 <= a4_z1 <= 1
 0 <= a4_z2 <= 1

binary
  a1_z1
  a1_z2
  a2_z1
  a2_z2
  a3_z1
  a3_z2
  a4_z1
  a4_z2
end
