min
obj: 
  +8.0556013187453051 a1_x1
  +1.9742345173811016 a1_x2
  +4.4385591714508195 a1_x3
  +2.091774352732247 a1_x4
  +8.3606733491801819 a1_x5
  +3.1332851203907777 a1_x6
  +12.324732571684713 a1_z1
  +43.380471023797909 a1_z2
  +7.6338140335244935 a2_x1
  +9.9611693691396663 a2_x2
  +9.9407775368738864 a2_x3
  +8.2998138303753102 a2_x4
  +5.1593396215897407 a2_x5
  +2.2373011621221504 a2_x6
  +36.513419228591097 a2_z1
  +11.462176186336659 a2_z2
  +8.7735643157403977 a3_x1
  +3.6647749932252576 a3_x2
  +8.9894067496513301 a3_x3
  +1.8313374509796332 a3_x4
  +5.9661400049633215 a3_x5
  +2.3543550386909118 a3_x6
  +18.836022336426041 a3_z1
  +16.870832212175223 a3_z2
  +7.8515457332568142 a4_x1
  +9.0641405667365316 a4_x2
  +3.8803458463891136 a4_x3
  +5.5605295549433134 a4_x4
  +7.2488159045117166 a4_x5
  +9.9817052164747704 a4_x6
  +15.565550238545768 a4_z1
  +24.431792631400658 a4_z2
  +1000000 short_1
  +1000000 surp_1
  +1000000 short_2
  +1000000 surp_2
  +1000000 short_3
  +1000000 surp_3

s.t.

a1_local_1: 
+0.013625450699833156 a1_x2
+0.0057355998076485636 a1_x5
+0.0072803813277835866 a1_x3
<= 1.2802383015296273

a1_local_2: 
+0.0055215626186556985 a1_x6
+0.011014589296677813 a1_x4
+0.0096053511171975206 a1_x2
<= 1.1188118777624649

a1_local_3: 
+0.0086628693024506636 a1_x5
+0.011610654624935744 a1_x3
+0.0051633537389935832 a1_x4
<= 1.1697350841717735

a1_local_4: 
+0.005198698779231588 a1_x6
+0.012581561841619036 a1_x1
+0.014957376987882971 a1_x4
<= 1.0237827828977799

a1_local_5: 
+0.012853150925022228 a1_x3
+0.01165216019819673 a1_x4
+0.0087611404156159207 a1_x1
<= 1.0506495163431366

a1_local_6: 
+0.0074751357227122927 a1_x3
+0.010524936581547828 a1_x5
+0.0063218994433176159 a1_x1
<= 1.0098484857147669

a1_local_7: 
+0.0077708703104756886 a1_x3
+0.01472051543132147 a1_x6
+0.005949879752467903 a1_x5
<= 1.6963189593832453

a1_local_8: 
+0.0073383371916740563 a1_x5
+0.0099916557191105978 a1_x6
+0.0052675776775579575 a1_x2
<= 1.5037861586289789

a1_act_1: 
+1 a1_x1
-100 a1_z1
<= 0

a1_act_2: 
+1 a1_x2
-100 a1_z2
<= 0

a2_local_1: 
+0.12438371508038815 a2_x1
+0.15882604960805602 a2_x6
+0.1839299171954657 a2_x5
<= 14.420513317914423

a2_local_2: 
+0.31087503384130694 a2_x2
+0.1317484676232529 a2_x4
+0.29955870725773748 a2_x3
<= 49.877086609943269

a2_local_3: 
+0.28454541512070847 a2_x6
+0.31264525051260073 a2_x3
+0.27411163995934945 a2_x1
<= 52.632756159438856

a2_local_4: 
+0.28230427538412667 a2_x4
+0.29343176046026076 a2_x3
+0.27294037944661265 a2_x1
<= 33.853004379293672

a2_local_5: 
+0.15946831748310236 a2_x3
+0.12638454045678918 a2_x5
+0.13266782396754284 a2_x2
<= 19.168084945160736

a2_local_6: 
+0.16624524888694245 a2_x6
+0.13219225462483111 a2_x4
+0.28244893317638209 a2_x1
<= 26.453648424751691

a2_local_7: 
+0.20069797212248824 a2_x2
+0.28766703175409564 a2_x1
+0.20863205185126774 a2_x6
<= 39.640772141075537

a2_local_8: 
+0.30446679216388128 a2_x3
+0.25097682618266642 a2_x4
+0.18417046625905714 a2_x6
<= 38.879597514172005

a2_act_1: 
+1 a2_x1
-100 a2_z1
<= 0

a2_act_2: 
+1 a2_x2
-100 a2_z2
<= 0

a3_local_1: 
+4.9355960620996262 a3_x5
+3.3646727793697329 a3_x6
+3.9697350375946261 a3_x2
<= 688.05977165691957

a3_local_2: 
+5.0284908282679091 a3_x4
+4.1477732366184226 a3_x6
+5.5859769069600977 a3_x1
<= 676.17865858869845

a3_local_3: 
+2.9152203530339591 a3_x4
+2.7346370975916985 a3_x5
+6.0421290402536263 a3_x3
<= 360.54492886941813

a3_local_4: 
+4.4035989539790421 a3_x2
+2.9498997856440097 a3_x3
+6.1424238664501702 a3_x6
<= 588.9038804607867

a3_local_5: 
+4.2098616491306409 a3_x5
+4.834797706823271 a3_x3
+3.834092385003006 a3_x2
<= 447.72810797687856

a3_local_6: 
+6.6240917589805495 a3_x1
+6.3274499370530117 a3_x5
+6.0034235159382163 a3_x3
<= 1303.9885118873497

a3_local_7: 
+4.6635247057811684 a3_x5
+5.2693410830227148 a3_x6
+4.5058162113603082 a3_x3
<= 735.22224092057934

a3_local_8: 
+3.3422604148615762 a3_x5
+4.568482699034643 a3_x6
+4.1314351613079641 a3_x3
<= 499.02275432077249

a3_act_1: 
+1 a3_x1
-100 a3_z1
<= 0

a3_act_2: 
+1 a3_x2
-100 a3_z2
<= 0

a4_local_1: 
+123.83584975054558 a4_x2
+68.51911352298761 a4_x5
+101.56442589550245 a4_x4
<= 18325.885938208474

a4_local_2: 
+104.90621161313686 a4_x4
+132.64710779025387 a4_x1
+138.67187266417321 a4_x3
<= 15581.744322279525

a4_local_3: 
+116.45687589596207 a4_x3
+77.948066741835646 a4_x1
+101.63654791199484 a4_x6
<= 10292.867542348555

a4_local_4: 
+102.86649802573926 a4_x2
+59.318389520992632 a4_x3
+107.96231110516349 a4_x5
<= 9823.6535464154767

a4_local_5: 
+127.78799314134304 a4_x4
+65.291778694716257 a4_x5
+85.933657957690528 a4_x6
<= 16190.881071435457

a4_local_6: 
+51.63611996220655 a4_x2
+144.64758391664566 a4_x4
+53.289267494000804 a4_x3
<= 14231.49440896178

a4_local_7: 
+126.69083770121946 a4_x2
+92.646305316549515 a4_x6
+108.93692632345666 a4_x1
<= 13625.207320202366

a4_local_8: 
+107.87766288911374 a4_x5
+115.23808916613349 a4_x4
+89.788471038916555 a4_x2
<= 11016.807236749286

a4_act_1: 
+1 a4_x1
-100 a4_z1
<= 0

a4_act_2: 
+1 a4_x2
-100 a4_z2
<= 0

coupling_1: 
+4.2861745714169773e-06 a1_x1
+0.00016589629298834275 a2_x1
+0.0031118373356066663 a3_x1
+0.043906230956817713 a4_x1
+0.00055311300183974292 short_1
-0.00055311300183974292 surp_1
= 3.2303207514561736

coupling_2: 
+7.3959003844646369e-06 a1_x2
+8.2503566046027561e-05 a2_x2
+0.0033845749377483863 a3_x2
+0.044230644464112068 a4_x2
+0.00055311300183974292 short_2
-0.00055311300183974292 surp_2
= 3.7421336756953343

coupling_3: 
+5.5882494885611823e-06 a1_x3
+8.684858486075338e-05 a2_x3
+0.002656941182856646 a3_x3
+0.080934329618374878 a4_x3
+0.00055311300183974292 short_3
-0.00055311300183974292 surp_3
= 5.1319072801773098

bounds
  0 <= a1_x1 <= 100
  0 <= a1_x2 <= 100
  0 <= a1_x3 <= 100
  0 <= a1_x4 <= 100
  0 <= a1_x5 <= 100
  0 <= a1_x6 <= 100
  0 <= a2_x1 <= 100
  0 <= a2_x2 <= 100
  0 <= a2_x3 <= 100
  0 <= a2_x4 <= 100
  0 <= a2_x5 <= 100
  0 <= a2_x6 <= 100
  0 <= a3_x1 <= 100
  0 <= a3_x2 <= 100
  0 <= a3_x3 <= 100
  0 <= a3_x4 <= 100
  0 <= a3_x5 <= 100
  0 <= a3_x6 <= 100
  0 <= a4_x1 <= 100
  0 <= a4_x2 <= 100
  0 <= a4_x3 <= 100
  0 <= a4_x4 <= 100
  0 <= a4_x5 <= 100
  0 <= a4_x6 <= 100
  0 <= short_1 <= +inf
  0 <= surp_1 <= +inf
  0 <= short_2 <= +inf
  0 <= surp_2 <= +inf
  0 <= short_3 <= +inf
  0 <= surp_3 <= +inf
 0 <= a1_z1 <= 1
 0 <= a1_z2 <= 1
 0 <= a2_z1 <= 1
 0 <= a2_z2 <= 1
 0 <= a3_z1 <= 1
 0 <= a3_z2 <= 1
 0 <= a4_z1 <= 1
 0 <= a4_z2 <= 1

binary
  a1_z1
  a1_z2
  a2_z1
  a2_z2
  a3_z1
  a3_z2
  a4_z1
  a4_z2
end
