min
obj: 
  +4.1029321056614965 a1_x1
  +3.3290118192963942 a1_x2
  +9.1017647242801925 a1_x3
  +1.0276781995025082 a1_x4
  +7.5015228430107515 a1_x5
  +9.6952211771409225 a1_x6
  +46.462393702811802 a1_z1
  +20.976939063031899 a1_z2
  +8.736124438174345 a2_x1
  +2.0422875685559534 a2_x2
  +7.9141637375248139 a2_x3
  +8.8510497644699591 a2_x4
  +5.3589026031734779 a2_x5
  +4.4651025961117679 a2_x6
  +43.599104627831977 a2_z1
  +13.736336737274122 a2_z2
  +8.7712175698219141 a3_x1
  +5.7628145052800139 a3_x2
  +8.5270938060320436 a3_x3
  +1.138926571582954 a3_x4
  +2.911442950069294 a3_x5
  +3.0275728231625529 a3_x6
  +21.64888772902043 a3_z1
  +37.443506250957391 a3_z2
  +3.737467766634015 a4_x1
  +6.3047039607963935 a4_x2
  +7.2324424815448989 a4_x3
  +3.5312943582825165 a4_x4
  +2.1943254476366931 a4_x5
  +2.7966711705726111 a4_x6
  +25.767819676338174 a4_z1
  +25.233732022591987 a4_z2
  +1000000 short_1
  +1000000 surp_1
  +1000000 short_2
  +1000000 surp_2
  +1000000 short_3
  +1000000 surp_3

s.t.

a1_local_1: 
+0.71415339693519397 a1_x6
+0.49741748420529763 a1_x1
+0.49250459089514659 a1_x4
<= 77.016942008229634

a1_local_2: 
+0.44737937552888835 a1_x6
+0.53786898669433547 a1_x5
+0.71452686968636148 a1_x4
<= 75.808377004217988

a1_local_3: 
+0.4878278375296824 a1_x1
+0.67871535643191871 a1_x5
+0.54897127964457981 a1_x6
<= 78.422254764904196

a1_local_4: 
+0.5969696029719459 a1_x4
+0.32650601690610187 a1_x5
+0.73281724464673281 a1_x3
<= 113.62347650379081

a1_local_5: 
+0.34244761139432639 a1_x6
+0.71006424913781585 a1_x2
+0.61525474036911765 a1_x1
<= 64.646293106808926

a1_local_6: 
+0.56540781634392867 a1_x5
+0.4531348652962312 a1_x1
+0.6891899557234975 a1_x6
<= 103.44414598299991

a1_local_7: 
+0.47103547738668566 a1_x5
+0.79789531776988287 a1_x1
+0.37614975863875638 a1_x3
<= 84.476916496315098

a1_local_8: 
+0.39553628862544654 a1_x1
+0.64977978573174167 a1_x3
+0.64910497951781232 a1_x4
<= 95.547126978520097

a1_act_1: 
+0.0099995000374968751 a1_x1
-0.99995000374968757 a1_z1
<= 0

a1_act_2: 
+0.0099995000374968751 a1_x2
-0.99995000374968757 a1_z2
<= 0

a2_local_1: 
+0.38036586297949782 a2_x4
+0.69618389575825812 a2_x5
+0.60881014574883408 a2_x1
<= 50.713463045034693

a2_local_2: 
+0.71188067622312234 a2_x4
+0.63246769998923369 a2_x5
+0.30530396540241461 a2_x2
<= 79.199293610666402

a2_local_3: 
+0.57287765613485175 a2_x6
+0.65900960135193298 a2_x3
+0.48735770890322949 a2_x4
<= 111.55836369302753

a2_local_4: 
+0.56038049128266665 a2_x3
+0.50035213053199046 a2_x2
+0.66001625014986953 a2_x5
<= 76.8705937813193

a2_local_5: 
+0.65523060180262294 a2_x3
+0.67391663327311335 a2_x4
+0.34133448384129667 a2_x5
<= 116.08739757168591

a2_local_6: 
+0.610292066668356 a2_x1
+0.39922629507374396 a2_x4
+0.68422361745511162 a2_x5
<= 111.6846628842768

a2_local_7: 
+0.26770820138656631 a2_x6
+0.31743168201174288 a2_x2
+0.28999280017385132 a2_x4
<= 39.779100512999065

a2_local_8: 
+0.70014038226001141 a2_x5
+0.58141959388360576 a2_x1
+0.41443298731764588 a2_x3
<= 61.769907355192728

a2_act_1: 
+0.0099995000374968751 a2_x1
-0.99995000374968757 a2_z1
<= 0

a2_act_2: 
+0.0099995000374968751 a2_x2
-0.99995000374968757 a2_z2
<= 0

a3_local_1: 
+0.31073696813617063 a3_x4
+0.82345744714744384 a3_x2
+0.47472135971636575 a3_x6
<= 98.016706940914105

a3_local_2: 
+0.68035295515910232 a3_x1
+0.60231018646962076 a3_x4
+0.41754316624896071 a3_x2
<= 109.3651571601503

a3_local_3: 
+0.51122793403997036 a3_x3
+0.55872705184535776 a3_x6
+0.65304676784547266 a3_x5
<= 92.475398021290104

a3_local_4: 
+0.33481949451612897 a3_x6
+0.57798676603309973 a3_x4
+0.7441956761380456 a3_x1
<= 113.22264181575234

a3_local_5: 
+0.42675409405673342 a3_x6
+0.82453758382377484 a3_x4
+0.37150870254661389 a3_x3
<= 54.369782437400183

a3_local_6: 
+0.49382611132272158 a3_x2
+0.44420104054656451 a3_x6
+0.74754344847187859 a3_x5
<= 85.974552789248989

a3_local_7: 
+0.48670053330768626 a3_x3
+0.40651655200425718 a3_x4
+0.77321852268591185 a3_x5
<= 115.18369486482588

a3_local_8: 
+0.39338963232188406 a3_x5
+0.70881497427790463 a3_x1
+0.58551338961723698 a3_x6
<= 75.486347171319736

a3_act_1: 
+0.0099995000374968751 a3_x1
-0.99995000374968757 a3_z1
<= 0

a3_act_2: 
+0.0099995000374968751 a3_x2
-0.99995000374968757 a3_z2
<= 0

a4_local_1: 
+0.72092581497932895 a4_x5
+0.54493029806463456 a4_x2
+0.42815527504350459 a4_x1
<= 86.879862954514508

a4_local_2: 
+0.60563662410296837 a4_x4
+0.4834315664946518 a4_x6
+0.63205869985444152 a4_x2
<= 120.27268838154917

a4_local_3: 
+0.84876174958217065 a4_x3
+0.36336238643023222 a4_x6
+0.38415005996867863 a4_x4
<= 52.908012581081913

a4_local_4: 
+0.61061676789435193 a4_x6
+0.69934962234254372 a4_x1
+0.37156058522883767 a4_x2
<= 52.580395845799096

a4_local_5: 
+0.59235179150408679 a4_x5
+0.40664735829253301 a4_x6
+0.69552662141402122 a4_x1
<= 114.9108563738682

a4_local_6: 
+0.67759465028893873 a4_x1
+0.49705380418864581 a4_x3
+0.54203598186965996 a4_x6
<= 87.946770873411438

a4_local_7: 
+0.64610659315214303 a4_x1
+0.32822878004391903 a4_x3
+0.68906613487836677 a4_x6
<= 100.54988002712567

a4_local_8: 
+0.58907579279263722 a4_x1
+0.67829366958435322 a4_x3
+0.43921225864895669 a4_x4
<= 107.10259544161144

a4_act_1: 
+0.0099995000374968751 a4_x1
-0.99995000374968757 a4_z1
<= 0

a4_act_2: 
+0.0099995000374968751 a4_x2
-0.99995000374968757 a4_z2
<= 0

coupling_1: 
+8.4751051231349216e-05 a1_x1
+0.003107884267135169 a2_x1
+0.026937269076208279 a3_x1
+0.99951105568950671 a4_x1
+0.011008336881776297 short_1
-0.011008336881776297 surp_1
= 42.574856988434114

coupling_2: 
+9.0502811407125065e-05 a1_x2
+0.003266291895380006 a2_x2
+0.046067753326066496 a3_x2
+0.99873880261145376 a4_x2
+0.013926403129012454 short_2
-0.013926403129012454 surp_2
= 49.614787182599763

coupling_3: 
+0.000113738124722519 a1_x3
+0.0030640814590375989 a2_x3
+0.031431001735897968 a3_x3
+0.99934036674336801 a4_x3
+0.012679156035796888 short_3
-0.012679156035796888 surp_3
= 39.89951682160585

bounds
  0 <= a1_x1 <= 100
  0 <= a1_x2 <= 100
  0 <= a1_x3 <= 100
  0 <= a1_x4 <= 100
  0 <= a1_x5 <= 100
  0 <= a1_x6 <= 100
  0 <= a2_x1 <= 100
  0 <= a2_x2 <= 100
  0 <= a2_x3 <= 100
  0 <= a2_x4 <= 100
  0 <= a2_x5 <= 100
  0 <= a2_x6 <= 100
  0 <= a3_x1 <= 100
  0 <= a3_x2 <= 100
  0 <= a3_x3 <= 100
  0 <= a3_x4 <= 100
  0 <= a3_x5 <= 100
  0 <= a3_x6 <= 100
  0 <= a4_x1 <= 100
  0 <= a4_x2 <= 100
  0 <= a4_x3 <= 100
  0 <= a4_x4 <= 100
  0 <= a4_x5 <= 100
  0 <= a4_x6 <= 100
  0 <= short_1 <= +inf
  0 <= surp_1 <= +inf
  0 <= short_2 <= +inf
  0 <= surp_2 <= +inf
  0 <= short_3 <= +inf
  0 <= surp_3 <= +inf
 0 <= a1_z1 <= 1
 0 <= a1_z2 <= 1
 0 <= a2_z1 <= 1
 0 <= a2_z2 <= 1
 0 <= a3_z1 <= 1
 0 <= a3_z2 <= 1
 0 <= a4_z1 <= 1
 0 <= a4_z2 <= 1

binary
  a1_z1
  a1_z2
  a2_z1
  a2_z2
  a3_z1
  a3_z2
  a4_z1
  a4_z2
end
