min
obj: 
  +4.6121734767481746 a1_x1
  +8.3726653944305163 a1_x2
  +3.8874111784256438 a1_x3
  +3.5735214707131471 a1_x4
  +7.9063268225890937 a1_x5
  +6.5043346512565909 a1_x6
  +46.9551209495583 a1_z1
  +19.806653497637782 a1_z2
  +7.6567171580139357 a2_x1
  +8.2043744709301158 a2_x2
  +3.6188691473828523 a2_x3
  +5.2859257046209569 a2_x4
  +3.3947769180807601 a2_x5
  +2.5210962766084055 a2_x6
  +31.130882329794158 a2_z1
  +23.010561281727053 a2_z2
  +6.9874663911383514 a3_x1
  +2.0892016241128126 a3_x2
  +9.3610808006140438 a3_x3
  +4.8509819599704116 a3_x4
  +1.7243146015797635 a3_x5
  +7.0038934437638574 a3_x6
  +33.012677472845496 a3_z1
  +8.0010596287278375 a3_z2
  +6.4216192335644386 a4_x1
  +2.3877334915960096 a4_x2
  +7.475862409648836 a4_x3
  +7.4106096914751971 a4_x4
  +8.5860247699785965 a4_x5
  +3.4325757317506875 a4_x6
  +23.317265071624306 a4_z1
  +25.042487194398138 a4_z2
  +1000000 short_1
  +1000000 surp_1
  +1000000 short_2
  +1000000 surp_2
  +1000000 short_3
  +1000000 surp_3

s.t.

a1_local_1: 
+1.0608830015474711 a1_x1
+0.94261101228065369 a1_x6
+1.0303917029438197 a1_x2
<= 184.66561121495269

a1_local_2: 
+1.2031196616718665 a1_x4
+0.9036189190278342 a1_x6
+0.83117251912448209 a1_x2
<= 110.08493802765287

a1_local_3: 
+1.4856416621863735 a1_x2
+1.4304571139048103 a1_x1
+0.67310982550686593 a1_x5
<= 137.92802654115758

a1_local_4: 
+1.5849332011471087 a1_x1
+0.81508054679657105 a1_x2
+0.63094141713748031 a1_x4
<= 95.685986134596561

a1_local_5: 
+1.2403037122488925 a1_x2
+0.80625413769569465 a1_x6
+0.8949973635629378 a1_x3
<= 103.12629362714353

a1_local_6: 
+1.1664345205282403 a1_x4
+0.99612321803208148 a1_x6
+0.85731344743392235 a1_x1
<= 165.31480926347069

a1_local_7: 
+1.2156290969779882 a1_x1
+0.61907774092834422 a1_x5
+1.6153060171416274 a1_x6
<= 191.29078091769469

a1_local_8: 
+1.305639461006898 a1_x2
+0.76590822341476139 a1_x1
+0.96152091107570281 a1_x4
<= 160.94905840738591

a1_act_1: 
+0.10000000000000001 a1_x1
-10 a1_z1
<= 0

a1_act_2: 
+0.10000000000000001 a1_x2
-10 a1_z2
<= 0

a2_local_1: 
+0.94316634748660133 a2_x4
+1.1193424469379596 a2_x2
+0.89338164806987408 a2_x6
<= 110.40907768543417

a2_local_2: 
+0.70713748685113864 a2_x2
+1.4141521537105453 a2_x6
+0.93100780847491971 a2_x5
<= 148.40871452869067

a2_local_3: 
+1.1327054563394119 a2_x2
+0.83777274532878176 a2_x1
+1.1936411223398689 a2_x3
<= 105.68036397963222

a2_local_4: 
+0.82390932582237875 a2_x3
+0.95471827245614016 a2_x2
+1.2137257931895091 a2_x4
<= 182.04783560864556

a2_local_5: 
+0.73450215460200574 a2_x2
+1.0235462810180609 a2_x5
+1.3614663942570135 a2_x6
<= 190.73097966050116

a2_local_6: 
+1.1166449656338984 a2_x6
+1.017071553814195 a2_x5
+0.8955397917657012 a2_x1
<= 139.33356171322893

a2_local_7: 
+0.9714627769276023 a2_x5
+1.0733473310082404 a2_x4
+0.93166486850128727 a2_x3
<= 154.04179614066825

a2_local_8: 
+1.1076399934028218 a2_x6
+0.90282041634111032 a2_x4
+1.0566937206270388 a2_x3
<= 92.067064441382939

a2_act_1: 
+0.10000000000000001 a2_x1
-10 a2_z1
<= 0

a2_act_2: 
+0.10000000000000001 a2_x2
-10 a2_z2
<= 0

a3_local_1: 
+1.3867191960753695 a3_x2
+1.2232548167365325 a3_x1
+0.72112652859364412 a3_x6
<= 199.41845922330924

a3_local_2: 
+1.5855868663387476 a3_x3
+0.63068130875042094 a3_x5
+0.781450552651202 a3_x6
<= 171.3782625870453

a3_local_3: 
+1.1080987741816528 a3_x4
+1.1643713658790702 a3_x5
+0.85883252483199479 a3_x3
<= 198.14632002644746

a3_local_4: 
+1.3813132628822169 a3_x1
+0.71089262247521945 a3_x5
+1.4066822026062853 a3_x6
<= 161.89423384346762

a3_local_5: 
+1.2202134630432444 a3_x3
+1.0560012669258594 a3_x5
+0.81952873844382423 a3_x1
<= 110.89020933540611

a3_local_6: 
+1.3412688043191456 a3_x3
+1.4045804423010506 a3_x4
+0.71195637493125874 a3_x6
<= 106.47492963431627

a3_local_7: 
+0.82643913357730203 a3_x2
+1.2100104646199739 a3_x3
+1.0096186846568385 a3_x1
<= 162.5908323300005

a3_local_8: 
+1.1841687612627603 a3_x1
+1.1921296992425841 a3_x3
+0.83883490247357062 a3_x5
<= 117.93568821226445

a3_act_1: 
+0.10000000000000001 a3_x1
-10 a3_z1
<= 0

a3_act_2: 
+0.10000000000000001 a3_x2
-10 a3_z2
<= 0

a4_local_1: 
+1.6538306071121127 a4_x4
+1.4661469933998514 a4_x2
+0.60465684677718057 a4_x6
<= 260.29736187238035

a4_local_2: 
+0.99326715993971049 a4_x5
+0.91980714783717088 a4_x6
+1.0871844194203037 a4_x2
<= 142.81105825812605

a4_local_3: 
+1.1659792719815505 a4_x1
+1.190096088935682 a4_x3
+0.84026828530653563 a4_x6
<= 163.66644008108889

a4_local_4: 
+1.3446263946138823 a4_x5
+1.2671816117128203 a4_x1
+0.74370100423854624 a4_x6
<= 166.01148219123792

a4_local_5: 
+0.67700288248403773 a4_x5
+1.2404519646036936 a4_x1
+1.47709858535732 a4_x6
<= 224.36160686947508

a4_local_6: 
+1.0342083322037441 a4_x6
+0.85289201202615739 a4_x1
+1.172481376187787 a4_x5
<= 145.10179746699859

a4_local_7: 
+1.2863153382853794 a4_x2
+1.5901674259127032 a4_x6
+0.62886459859786981 a4_x1
<= 185.09675619603891

a4_local_8: 
+0.9402939032361165 a4_x2
+1.0634972709685759 a4_x3
+1.0046397869084447 a4_x6
<= 109.0473611300483

a4_act_1: 
+0.10000000000000001 a4_x1
-10 a4_z1
<= 0

a4_act_2: 
+0.10000000000000001 a4_x2
-10 a4_z2
<= 0

coupling_1: 
+0.0097861046602457508 a1_x1
+0.22490700715785869 a2_x1
+4.4461889932425747 a3_x1
+102.18570460035195 a4_x1
+0.88316945168704142 short_1
-0.88316945168704142 surp_1
= 4363.2138379436183

coupling_2: 
+0.0075588476638976231 a1_x2
+0.18757750815237542 a2_x2
+4.1761106865997384 a3_x2
+132.29529744013425 a4_x2
+1.0968136816194713 short_2
-1.0968136816194713 surp_2
= 5444.587026503189

coupling_3: 
+0.0086743562344820321 a1_x3
+0.28824841726406947 a2_x3
+4.8796906709568191 a3_x3
+115.28233023504738 a4_x3
+1.4443652068359016 short_3
-1.4443652068359016 surp_3
= 2837.8758974757243

bounds
  0 <= a1_x1 <= 100
  0 <= a1_x2 <= 100
  0 <= a1_x3 <= 100
  0 <= a1_x4 <= 100
  0 <= a1_x5 <= 100
  0 <= a1_x6 <= 100
  0 <= a2_x1 <= 100
  0 <= a2_x2 <= 100
  0 <= a2_x3 <= 100
  0 <= a2_x4 <= 100
  0 <= a2_x5 <= 100
  0 <= a2_x6 <= 100
  0 <= a3_x1 <= 100
  0 <= a3_x2 <= 100
  0 <= a3_x3 <= 100
  0 <= a3_x4 <= 100
  0 <= a3_x5 <= 100
  0 <= a3_x6 <= 100
  0 <= a4_x1 <= 100
  0 <= a4_x2 <= 100
  0 <= a4_x3 <= 100
  0 <= a4_x4 <= 100
  0 <= a4_x5 <= 100
  0 <= a4_x6 <= 100
  0 <= short_1 <= +inf
  0 <= surp_1 <= +inf
  0 <= short_2 <= +inf
  0 <= surp_2 <= +inf
  0 <= short_3 <= +inf
  0 <= surp_3 <= +inf
 0 <= a1_z1 <= 1
 0 <= a1_z2 <= 1
 0 <= a2_z1 <= 1
 0 <= a2_z2 <= 1
 0 <= a3_z1 <= 1
 0 <= a3_z2 <= 1
 0 <= a4_z1 <= 1
 0 <= a4_z2 <= 1

binary
  a1_z1
  a1_z2
  a2_z1
  a2_z2
  a3_z1
  a3_z2
  a4_z1
  a4_z2
end
