min
obj: 
  +1.8591431952918778 a1_x1
  +3.3231109040519993 a1_x2
  +9.2087059181463786 a1_x3
  +9.6203246603591985 a1_x4
  +2.6522167369866532 a1_x5
  +9.1942431803836406 a1_x6
  +15.231591264695247 a1_z1
  +37.870536168888826 a1_z2
  +9.5099240901526567 a2_x1
  +7.5753998333245365 a2_x2
  +7.2545869758953661 a2_x3
  +4.0776176539598987 a2_x4
  +7.0823179577413251 a2_x5
  +8.348071264940085 a2_x6
  +13.295788449057502 a2_z1
  +34.639218331961018 a2_z2
  +8.7650426689296079 a3_x1
  +7.7797720123238729 a3_x2
  +6.0483854765360672 a3_x3
  +6.4868155236610479 a3_x4
  +7.5914186799784584 a3_x5
  +2.6670787193002194 a3_x6
  +17.076428731733131 a3_z1
  +32.166931894716356 a3_z2
  +3.9578684115063361 a4_x1
  +4.7726522238702849 a4_x2
  +6.6226528859876028 a4_x3
  +9.5073045520096944 a4_x4
  +5.1085987408368467 a4_x5
  +6.1990863498809015 a4_x6
  +14.100841079092167 a4_z1
  +36.135322859790648 a4_z2
  +1000000 short_1
  +1000000 surp_1
  +1000000 short_2
  +1000000 surp_2
  +1000000 short_3
  +1000000 surp_3

s.t.

a1_local_1: 
+1.1866305975125662 a1_x5
+0.8427222440549027 a1_x4
+1.1385095388597535 a1_x3
<= 113.08946843027313

a1_local_2: 
+1.2129037560419322 a1_x2
+0.82446772468023288 a1_x4
+0.94047146436761953 a1_x3
<= 200.52635914903738

a1_local_3: 
+1.1892595302762889 a1_x1
+0.70624019261684512 a1_x6
+1.4159488661990207 a1_x3
<= 137.36484837459528

a1_local_4: 
+0.97107579677322964 a1_x3
+0.97039826357777603 a1_x6
+1.0305047293809915 a1_x5
<= 177.037266798275

a1_local_5: 
+1.0448982723637366 a1_x2
+1.0199976295396134 a1_x3
+0.95703096315570613 a1_x5
<= 100.4323137443718

a1_local_6: 
+0.95322638536518667 a1_x4
+1.0490687368215199 a1_x3
+0.96257655513364349 a1_x2
<= 193.70900116544291

a1_local_7: 
+1.1022972577833718 a1_x6
+1.1126701681175293 a1_x4
+0.89873893329219889 a1_x5
<= 207.95268865003118

a1_local_8: 
+1.0275470468592078 a1_x3
+1.4269634014072223 a1_x4
+0.70078882122262842 a1_x2
<= 216.61756327360479

a1_act_1: 
+0.10000000000000001 a1_x1
-10 a1_z1
<= 0

a1_act_2: 
+0.10000000000000001 a1_x2
-10 a1_z2
<= 0

a2_local_1: 
+1.2634323298289094 a2_x5
+1.5422949933167265 a2_x1
+0.64838439101036471 a2_x3
<= 222.25162250789529

a2_local_2: 
+0.96916284171168177 a2_x3
+0.89411255262679934 a2_x1
+1.118427425117918 a2_x2
<= 178.49349988812145

a2_local_3: 
+0.85028578090460416 a2_x4
+1.1509055732770219 a2_x6
+1.1760751766730915 a2_x2
<= 104.58914623303298

a2_local_4: 
+1.2694576204418773 a2_x5
+1.0360406284455312 a2_x2
+0.78773799447666182 a2_x3
<= 168.20596631722233

a2_local_5: 
+1.109270528514626 a2_x2
+0.98690089922469171 a2_x1
+0.90149334566659289 a2_x5
<= 99.631991056283027

a2_local_6: 
+0.59606155638378677 a2_x4
+1.677679074065513 a2_x3
+1.1444585941078418 a2_x2
<= 238.74743493441693

a2_local_7: 
+1.3205375370468464 a2_x1
+1.433290614260301 a2_x4
+0.69769521271586954 a2_x6
<= 173.19542148187574

a2_local_8: 
+0.8926832157171356 a2_x4
+0.88907013168472648 a2_x5
+1.1247706613482438 a2_x1
<= 180.29823967178339

a2_act_1: 
+0.10000000000000001 a2_x1
-10 a2_z1
<= 0

a2_act_2: 
+0.10000000000000001 a2_x2
-10 a2_z2
<= 0

a3_local_1: 
+1.372885997963005 a3_x3
+0.8407979211183465 a3_x2
+0.72839259886380381 a3_x1
<= 170.50532520137816

a3_local_2: 
+1.6058000600626208 a3_x3
+0.62274253493364773 a3_x5
+1.1287793215538997 a3_x1
<= 197.4130069174102

a3_local_3: 
+1.0983083610594855 a3_x1
+0.97163289980533862 a3_x6
+0.91049111110776559 a3_x5
<= 169.6890405382417

a3_local_4: 
+1.0715772410266255 a3_x4
+0.76569549662475056 a3_x5
+1.3060021959226389 a3_x3
<= 106.76723088352342

a3_local_5: 
+0.92863325637435445 a3_x5
+1.1271659106093392 a3_x2
+0.88718084053784596 a3_x3
<= 101.91914946017884

a3_local_6: 
+0.7697864356762355 a3_x1
+0.98787716071662612 a3_x4
+1.2990616015746348 a3_x6
<= 152.06696171547799

a3_local_7: 
+0.94696891904956704 a3_x2
+1.0560008674874544 a3_x6
+0.98329938535233496 a3_x3
<= 178.24500625580515

a3_local_8: 
+1.5410614029575276 a3_x4
+1.3481275166892885 a3_x3
+0.64890341039030008 a3_x1
<= 154.49538725697161

a3_act_1: 
+0.10000000000000001 a3_x1
-10 a3_z1
<= 0

a3_act_2: 
+0.10000000000000001 a3_x2
-10 a3_z2
<= 0

a4_local_1: 
+0.70567542439175335 a4_x4
+1.4170820825479864 a4_x1
+0.79082808277754668 a4_x2
<= 102.25958343560049

a4_local_2: 
+1.3055246517385704 a4_x5
+1.2004428602721429 a4_x4
+0.76597557822312867 a4_x1
<= 106.20960168342522

a4_local_3: 
+1.4896164927011655 a4_x1
+0.67131372732499139 a4_x2
+0.86319441635113625 a4_x4
<= 119.97220009538411

a4_local_4: 
+1.3397986303402847 a4_x6
+0.66128787772163222 a4_x3
+1.5122007127143315 a4_x4
<= 151.83690557479699

a4_local_5: 
+0.60380460951652049 a4_x6
+1.6561648987753201 a4_x3
+1.4694022008743075 a4_x5
<= 116.46282389976716

a4_local_6: 
+0.81171975453084655 a4_x4
+0.83434651703754092 a4_x1
+1.2319522771476399 a4_x5
<= 143.54596557308955

a4_local_7: 
+0.66872042334298265 a4_x1
+0.67875866413331765 a4_x2
+1.4953932392268303 a4_x3
<= 145.58383353219438

a4_local_8: 
+0.87962752140740263 a4_x2
+1.1935185705730329 a4_x3
+0.83785876873275555 a4_x4
<= 191.26203055504743

a4_act_1: 
+0.10000000000000001 a4_x1
-10 a4_z1
<= 0

a4_act_2: 
+0.10000000000000001 a4_x2
-10 a4_z2
<= 0

coupling_1: 
+5.6760718898609837e-05 a1_x1
+0.0015916133124334682 a2_x1
+0.040490959025059628 a3_x1
+0.99910078181432938 a4_x1
+0.0088196814146403891 short_1
-0.0088196814146403891 surp_1
= 80.589052833107701

coupling_2: 
+9.4487876187707653e-05 a1_x2
+0.0018888839079455623 a2_x2
+0.048167006404868103 a3_x2
+0.99873713012282894 a4_x2
+0.010012681899286186 short_2
-0.010012681899286186 surp_2
= 46.462085603458362

coupling_3: 
+9.2435600341495515e-05 a1_x3
+0.0020979971807280622 a2_x3
+0.028195478690329633 a3_x3
+0.99955555432132859 a4_x3
+0.0066820157996655138 short_3
-0.0066820157996655138 surp_3
= 72.057638008298071

bounds
  0 <= a1_x1 <= 100
  0 <= a1_x2 <= 100
  0 <= a1_x3 <= 100
  0 <= a1_x4 <= 100
  0 <= a1_x5 <= 100
  0 <= a1_x6 <= 100
  0 <= a2_x1 <= 100
  0 <= a2_x2 <= 100
  0 <= a2_x3 <= 100
  0 <= a2_x4 <= 100
  0 <= a2_x5 <= 100
  0 <= a2_x6 <= 100
  0 <= a3_x1 <= 100
  0 <= a3_x2 <= 100
  0 <= a3_x3 <= 100
  0 <= a3_x4 <= 100
  0 <= a3_x5 <= 100
  0 <= a3_x6 <= 100
  0 <= a4_x1 <= 100
  0 <= a4_x2 <= 100
  0 <= a4_x3 <= 100
  0 <= a4_x4 <= 100
  0 <= a4_x5 <= 100
  0 <= a4_x6 <= 100
  0 <= short_1 <= +inf
  0 <= surp_1 <= +inf
  0 <= short_2 <= +inf
  0 <= surp_2 <= +inf
  0 <= short_3 <= +inf
  0 <= surp_3 <= +inf
 0 <= a1_z1 <= 1
 0 <= a1_z2 <= 1
 0 <= a2_z1 <= 1
 0 <= a2_z2 <= 1
 0 <= a3_z1 <= 1
 0 <= a3_z2 <= 1
 0 <= a4_z1 <= 1
 0 <= a4_z2 <= 1

binary
  a1_z1
  a1_z2
  a2_z1
  a2_z2
  a3_z1
  a3_z2
  a4_z1
  a4_z2
end
