min
obj: 
  +4.1029321056614965 a1_x1
  +3.3290118192963942 a1_x2
  +9.1017647242801925 a1_x3
  +1.0276781995025082 a1_x4
  +7.5015228430107515 a1_x5
  +9.6952211771409225 a1_x6
  +46.462393702811802 a1_z1
  +20.976939063031899 a1_z2
  +8.736124438174345 a2_x1
  +2.0422875685559534 a2_x2
  +7.9141637375248139 a2_x3
  +8.8510497644699591 a2_x4
  +5.3589026031734779 a2_x5
  +4.4651025961117679 a2_x6
  +43.599104627831977 a2_z1
  +13.736336737274122 a2_z2
  +8.7712175698219141 a3_x1
  +5.7628145052800139 a3_x2
  +8.5270938060320436 a3_x3
  +1.138926571582954 a3_x4
  +2.911442950069294 a3_x5
  +3.0275728231625529 a3_x6
  +21.64888772902043 a3_z1
  +37.443506250957391 a3_z2
  +3.737467766634015 a4_x1
  +6.3047039607963935 a4_x2
  +7.2324424815448989 a4_x3
  +3.5312943582825165 a4_x4
  +2.1943254476366931 a4_x5
  +2.7966711705726111 a4_x6
  +25.767819676338174 a4_z1
  +25.233732022591987 a4_z2
  +1000000 short_1
  +1000000 surp_1
  +1000000 short_2
  +1000000 surp_2
  +1000000 short_3
  +1000000 surp_3

s.t.

a1_local_1: 
+0.010828677723760305 a1_x6
+0.0075423202546379374 a1_x1
+0.0074678262613654088 a1_x4
<= 1.1678046311279204

a1_local_2: 
+0.0063301305721456258 a1_x6
+0.007610500400152995 a1_x5
+0.010110095882435435 a1_x4
<= 1.072639802252473

a1_local_3: 
+0.0097322373212838341 a1_x1
+0.013540471482407491 a1_x5
+0.01095205801113152 a1_x6
<= 1.5645355511221526

a1_local_4: 
+0.011305541739845238 a1_x4
+0.006183442815288571 a1_x5
+0.013878254279257429 a1_x3
<= 2.1518264076509421

a1_local_5: 
+0.0056190733572091516 a1_x6
+0.011651134280048088 a1_x2
+0.010095446440488796 a1_x1
<= 1.060752801749056

a1_local_6: 
+0.011999305552737831 a1_x5
+0.0096166051266273079 a1_x1
+0.014626258469645409 a1_x6
<= 2.1953320760903594

a1_local_7: 
+0.0073614684931468648 a1_x5
+0.012469721548745545 a1_x1
+0.0058785690884401148 a1_x3
<= 1.3202278576467161

a1_local_8: 
+0.0077447165674464436 a1_x1
+0.012722878826710684 a1_x3
+0.012709665923078007 a1_x4
<= 1.8708407763394459

a1_act_1: 
+1 a1_x1
-100 a1_z1
<= 0

a1_act_2: 
+1 a1_x2
-100 a1_z2
<= 0

a2_local_1: 
+0.1687402083800017 a2_x4
+0.30884531729752479 a2_x5
+0.27008404501077632 a2_x1
<= 22.49781369668267

a2_local_2: 
+0.31597937776604895 a2_x4
+0.28073068559749037 a2_x5
+0.13551394248988732 a2_x2
<= 35.153845792501016

a2_local_3: 
+0.26349264713258014 a2_x6
+0.30310866986429025 a2_x3
+0.22415811027748173 a2_x4
<= 51.310796021577758

a2_local_4: 
+0.20896819223075633 a2_x3
+0.18658336937596309 a2_x2
+0.24612277690297074 a2_x5
<= 28.665360889739418

a2_local_5: 
+0.29762725754513503 a2_x3
+0.30611506670066568 a2_x4
+0.15504533221095149 a2_x5
<= 52.730708363985237

a2_local_6: 
+0.26579963088221581 a2_x1
+0.17387445727152168 a2_x4
+0.29799893345048623 a2_x5
<= 48.641861481016541

a2_local_7: 
+0.26770820138656631 a2_x6
+0.31743168201174288 a2_x2
+0.28999280017385132 a2_x4
<= 39.779100512999065

a2_local_8: 
+0.31867571784930876 a2_x5
+0.26463879408644442 a2_x1
+0.18863321282450682 a2_x3
<= 28.115175280078439

a2_act_1: 
+1 a2_x1
-100 a2_z1
<= 0

a2_act_2: 
+1 a2_x2
-100 a2_z2
<= 0

a3_local_1: 
+2.4950628307392488 a3_x4
+6.6119524863635251 a3_x2
+3.8117756850457809 a3_x6
<= 787.02525723481608

a3_local_2: 
+5.653591073059312 a3_x1
+5.005071952161976 a3_x4
+3.4696965735527785 a3_x2
<= 908.80163235237512

a3_local_3: 
+3.2749829876511622 a3_x3
+3.5792676176239047 a3_x6
+4.1834902055005569 a3_x5
<= 592.40768183906846

a3_local_4: 
+2.5147784429385096 a3_x6
+4.3411709393574887 a3_x4
+5.5895408550945413 a3_x1
<= 850.39809077510631

a3_local_5: 
+3.3083341020887445 a3_x6
+6.3920788224597711 a3_x4
+2.8800541739953665 a3_x3
<= 421.49192676962116

a3_local_6: 
+3.7296814091179904 a3_x2
+3.3548820624324893 a3_x6
+5.6459122722481156 a3_x5
<= 649.33320422528527

a3_local_7: 
+3.0906625849847518 a3_x3
+2.581475489492183 a3_x4
+4.9101190455687362 a3_x5
<= 731.4434888731929

a3_local_8: 
+3.6639719543425535 a3_x5
+6.6017962172609268 a3_x1
+5.4533837757428323 a3_x6
<= 703.06850065935225

a3_act_1: 
+1 a3_x1
-100 a3_z1
<= 0

a3_act_2: 
+1 a3_x2
-100 a3_z2
<= 0

a4_local_1: 
+138.6228281926399 a4_x5
+104.7816259537659 a4_x2
+82.327604170798097 a4_x1
<= 16705.647190743319

a4_local_2: 
+136.27381719005083 a4_x4
+108.7765539509241 a4_x6
+142.21902753143493 a4_x2
<= 27062.462369641311

a4_local_3: 
+139.21278594327404 a4_x3
+59.598220757298535 a4_x6
+63.00778763279807 a4_x4
<= 8677.9026431858983

a4_local_4: 
+108.53606089393621 a4_x6
+124.30817034139248 a4_x1
+66.044243172767153 a4_x2
<= 9346.0732580706263

a4_local_5: 
+123.70642344216276 a4_x5
+84.924011403493665 a4_x6
+145.25339836563342 a4_x1
<= 23997.92025713695

a4_local_6: 
+126.61144102702735 a4_x1
+92.876616409906248 a4_x3
+101.28172753983979 a4_x6
<= 16433.228020924049

a4_local_7: 
+122.47874733283086 a4_x1
+62.220460593405633 a4_x3
+130.62234300634131 a4_x6
<= 19060.668132338396

a4_local_8: 
+118.93236725313537 a4_x1
+136.9451483213137 a4_x3
+88.67543750198675 a4_x4
<= 21623.643970224479

a4_act_1: 
+1 a4_x1
-100 a4_z1
<= 0

a4_act_2: 
+1 a4_x2
-100 a4_z2
<= 0

coupling_1: 
+6169.8930740384358 a1_x1
+226254.58134279039 a2_x1
+1961038.4472178696 a3_x1
+72764599.970441654 a4_x1
+801409.07394939649 short_1
-801409.07394939649 surp_1
= 3099457899.8679247

coupling_2: 
+5208.0766015240424 a1_x2
+187962.0989623421 a2_x2
+2651015.8574298131 a3_x2
+57473443.178643063 a4_x2
+801409.07394939649 short_2
-801409.07394939649 surp_2
= 2855133538.9228559

coupling_3: 
+7189.0246440118099 a1_x3
+193670.83090231122 a2_x3
+1986653.5219971938 a3_x3
+63165122.001096763 a4_x3
+801409.07394939649 short_3
-801409.07394939649 surp_3
= 2521921391.0416889

bounds
  0 <= a1_x1 <= 100
  0 <= a1_x2 <= 100
  0 <= a1_x3 <= 100
  0 <= a1_x4 <= 100
  0 <= a1_x5 <= 100
  0 <= a1_x6 <= 100
  0 <= a2_x1 <= 100
  0 <= a2_x2 <= 100
  0 <= a2_x3 <= 100
  0 <= a2_x4 <= 100
  0 <= a2_x5 <= 100
  0 <= a2_x6 <= 100
  0 <= a3_x1 <= 100
  0 <= a3_x2 <= 100
  0 <= a3_x3 <= 100
  0 <= a3_x4 <= 100
  0 <= a3_x5 <= 100
  0 <= a3_x6 <= 100
  0 <= a4_x1 <= 100
  0 <= a4_x2 <= 100
  0 <= a4_x3 <= 100
  0 <= a4_x4 <= 100
  0 <= a4_x5 <= 100
  0 <= a4_x6 <= 100
  0 <= short_1 <= +inf
  0 <= surp_1 <= +inf
  0 <= short_2 <= +inf
  0 <= surp_2 <= +inf
  0 <= short_3 <= +inf
  0 <= surp_3 <= +inf
 0 <= a1_z1 <= 1
 0 <= a1_z2 <= 1
 0 <= a2_z1 <= 1
 0 <= a2_z2 <= 1
 0 <= a3_z1 <= 1
 0 <= a3_z2 <= 1
 0 <= a4_z1 <= 1
 0 <= a4_z2 <= 1

binary
  a1_z1
  a1_z2
  a2_z1
  a2_z2
  a3_z1
  a3_z2
  a4_z1
  a4_z2
end
