min
obj: 
  +8.5242104678500681 a1_x1
  +7.6930756521091874 a1_x2
  +6.9189962156082423 a1_x3
  +9.2097073421305335 a1_x4
  +1.6783613276554563 a1_x5
  +5.9914602077021666 a1_x6
  +31.080729858907144 a1_z1
  +20.883867024027893 a1_z2
  +6.9077742042221582 a2_x1
  +5.0875445936298673 a2_x2
  +7.5917023578038236 a2_x3
  +8.2794490372741638 a2_x4
  +1.0351287904006585 a2_x5
  +5.7857723772906011 a2_x6
  +23.934213589769115 a2_z1
  +21.521505149496146 a2_z2
  +3.338751629164217 a3_x1
  +6.1106898664601106 a3_x2
  +6.5508211726549801 a3_x3
  +5.1951326468311683 a3_x4
  +3.9370151452755238 a3_x5
  +3.370609165759376 a3_x6
  +38.539597563502319 a3_z1
  +26.755532445572879 a3_z2
  +8.5438219758017482 a4_x1
  +7.1495610706401269 a4_x2
  +5.5659057933768521 a4_x3
  +2.526471255000704 a4_x4
  +2.3501129539553487 a4_x5
  +8.7808046110821252 a4_x6
  +7.4539102618189466 a4_z1
  +36.014449453139093 a4_z2
  +1000000 short_1
  +1000000 surp_1
  +1000000 short_2
  +1000000 surp_2
  +1000000 short_3
  +1000000 surp_3

s.t.

a1_local_1: 
+0.0063070814300599069 a1_x6
+0.013587378415029253 a1_x2
+0.013030043820764076 a1_x4
<= 1.1613029341250329

a1_local_2: 
+0.011527811145222585 a1_x5
+0.0070176638952812757 a1_x2
+0.0086759454414894639 a1_x1
<= 1.0625995666322821

a1_local_3: 
+0.0085063838979128076 a1_x4
+0.0056510120820102887 a1_x2
+0.008000850809955877 a1_x1
<= 0.93456665464952504

a1_local_4: 
+0.0066990276680099336 a1_x4
+0.012564030974360768 a1_x2
+0.0099049072340328479 a1_x6
<= 1.1593548678629959

a1_local_5: 
+0.011289596560646827 a1_x5
+0.01200766114697299 a1_x2
+0.007374232075430134 a1_x1
<= 1.1578378724312051

a1_local_6: 
+0.014644029138318368 a1_x2
+0.010218749081166198 a1_x5
+0.0061857656738686278 a1_x6
<= 1.0417480822261405

a1_local_7: 
+0.011557767113027037 a1_x3
+0.0087832444884740138 a1_x4
+0.008545932817744524 a1_x6
<= 1.5735001642065074

a1_local_8: 
+0.0073252222234778952 a1_x6
+0.0081837805538173356 a1_x2
+0.0099726054776814212 a1_x5
<= 1.6360072210047942

a1_act_1: 
+1 a1_x1
-100 a1_z1
<= 0

a1_act_2: 
+1 a1_x2
-100 a1_z2
<= 0

a2_local_1: 
+0.13669675873606688 a2_x6
+0.1544646709636312 a2_x3
+0.12817480152052171 a2_x2
<= 13.417887929242699

a2_local_2: 
+0.1874276321977392 a2_x5
+0.28745219910292813 a2_x3
+0.22913520939376505 a2_x2
<= 47.852903040201106

a2_local_3: 
+0.221853947245397 a2_x3
+0.29978223631961465 a2_x5
+0.27650908147608405 a2_x4
<= 36.014075374892009

a2_local_4: 
+0.27909633329258809 a2_x3
+0.19010807522615744 a2_x5
+0.209566193434259 a2_x4
<= 45.086415925678239

a2_local_5: 
+0.24112622656338359 a2_x3
+0.18055954248389533 a2_x1
+0.25328544300977085 a2_x2
<= 44.728867847307043

a2_local_6: 
+0.17686029438442633 a2_x3
+0.21899049145634322 a2_x6
+0.16972888375810566 a2_x5
<= 22.344801767119421

a2_local_7: 
+0.30873671389233587 a2_x4
+0.29361188992224996 a2_x5
+0.19164732368205289 a2_x2
<= 39.647087118904942

a2_local_8: 
+0.1583700709699708 a2_x4
+0.22041508877149205 a2_x2
+0.18049878098357258 a2_x1
<= 27.070288681166375

a2_act_1: 
+1 a2_x1
-100 a2_z1
<= 0

a2_act_2: 
+1 a2_x2
-100 a2_z2
<= 0

a3_local_1: 
+6.4133439159468013 a3_x6
+5.68980978179306 a3_x1
+6.5802630820820252 a3_x5
<= 841.32918995811792

a3_local_2: 
+3.0107788713779371 a3_x4
+4.4876324215988745 a3_x2
+3.8346329349982589 a3_x6
<= 698.95673206066306

a3_local_3: 
+5.3111489715352658 a3_x3
+6.2331803502463661 a3_x2
+5.11767123303252 a3_x6
<= 520.7688892872726

a3_local_4: 
+6.4376870466854186 a3_x2
+5.782255533935964 a3_x3
+6.5459659618283021 a3_x5
<= 1083.103083883457

a3_local_5: 
+5.0471869701025085 a3_x6
+2.5669795906104471 a3_x1
+6.909841895443507 a3_x5
<= 916.24208569929613

a3_local_6: 
+6.3693757586174033 a3_x6
+2.5617231670555722 a3_x2
+5.4046874894506489 a3_x1
<= 944.07900233987891

a3_local_7: 
+5.5311109181873528 a3_x2
+4.9631275946711986 a3_x1
+6.9493661544557073 a3_x6
<= 912.95583411169582

a3_local_8: 
+3.0779837249343767 a3_x1
+4.3991735897479733 a3_x5
+4.1260637765567996 a3_x4
<= 369.5673107568457

a3_act_1: 
+1 a3_x1
-100 a3_z1
<= 0

a3_act_2: 
+1 a3_x2
-100 a3_z2
<= 0

a4_local_1: 
+63.981232959295276 a4_x3
+110.65667947026361 a4_x5
+67.232372808048922 a4_x6
<= 10127.681959683809

a4_local_2: 
+146.29530018541871 a4_x4
+101.04540539742004 a4_x3
+140.8040935836834 a4_x2
<= 12043.772455509863

a4_local_3: 
+72.032831130866697 a4_x5
+117.00823344984271 a4_x6
+52.499007020599265 a4_x4
<= 13311.174696207014

a4_local_4: 
+89.652566412003281 a4_x1
+70.870243523321193 a4_x3
+123.36173012024361 a4_x6
<= 8955.4080723219686

a4_local_5: 
+130.14117074196287 a4_x6
+84.73153718567508 a4_x5
+146.69895382557047 a4_x1
<= 22592.748382979793

a4_local_6: 
+52.733861341418894 a4_x4
+96.916414774672845 a4_x1
+146.67513313229628 a4_x3
<= 13433.860332022661

a4_local_7: 
+122.4832470688753 a4_x6
+130.32917768911807 a4_x2
+139.12593013246681 a4_x1
<= 20837.151705205422

a4_local_8: 
+57.615560200627968 a4_x3
+136.63715836365404 a4_x2
+113.09985776409674 a4_x6
<= 20714.854282985623

a4_act_1: 
+1 a4_x1
-100 a4_z1
<= 0

a4_act_2: 
+1 a4_x2
-100 a4_z2
<= 0

coupling_1: 
+2.968759594415252e-06 a1_x1
+6.1833380191269813e-05 a2_x1
+0.0030669868676691976 a3_x1
+0.026646653623865858 a4_x1
+0.00052974874681133849 short_1
-0.00052974874681133849 surp_1
= 2.1486731686450193

coupling_2: 
+3.9739131675252462e-06 a1_x2
+0.00010402755892027974 a2_x2
+0.0032481293651537937 a3_x2
+0.064738013502142255 a4_x2
+0.00052974874681133849 short_2
-0.00052974874681133849 surp_2
= 2.2618799942738885

coupling_3: 
+2.9331958102650078e-06 a1_x3
+7.39520648965496e-05 a2_x3
+0.0023233942028912363 a3_x3
+0.056577786429056337 a4_x3
+0.00052974874681133849 short_3
-0.00052974874681133849 surp_3
= 1.3722408916721738

bounds
  0 <= a1_x1 <= 100
  0 <= a1_x2 <= 100
  0 <= a1_x3 <= 100
  0 <= a1_x4 <= 100
  0 <= a1_x5 <= 100
  0 <= a1_x6 <= 100
  0 <= a2_x1 <= 100
  0 <= a2_x2 <= 100
  0 <= a2_x3 <= 100
  0 <= a2_x4 <= 100
  0 <= a2_x5 <= 100
  0 <= a2_x6 <= 100
  0 <= a3_x1 <= 100
  0 <= a3_x2 <= 100
  0 <= a3_x3 <= 100
  0 <= a3_x4 <= 100
  0 <= a3_x5 <= 100
  0 <= a3_x6 <= 100
  0 <= a4_x1 <= 100
  0 <= a4_x2 <= 100
  0 <= a4_x3 <= 100
  0 <= a4_x4 <= 100
  0 <= a4_x5 <= 100
  0 <= a4_x6 <= 100
  0 <= short_1 <= +inf
  0 <= surp_1 <= +inf
  0 <= short_2 <= +inf
  0 <= surp_2 <= +inf
  0 <= short_3 <= +inf
  0 <= surp_3 <= +inf
 0 <= a1_z1 <= 1
 0 <= a1_z2 <= 1
 0 <= a2_z1 <= 1
 0 <= a2_z2 <= 1
 0 <= a3_z1 <= 1
 0 <= a3_z2 <= 1
 0 <= a4_z1 <= 1
 0 <= a4_z2 <= 1

binary
  a1_z1
  a1_z2
  a2_z1
  a2_z2
  a3_z1
  a3_z2
  a4_z1
  a4_z2
end
