min
obj: 
  +8.0556013187453051 a1_x1
  +1.9742345173811016 a1_x2
  +4.4385591714508195 a1_x3
  +2.091774352732247 a1_x4
  +8.3606733491801819 a1_x5
  +3.1332851203907777 a1_x6
  +12.324732571684713 a1_z1
  +43.380471023797909 a1_z2
  +7.6338140335244935 a2_x1
  +9.9611693691396663 a2_x2
  +9.9407775368738864 a2_x3
  +8.2998138303753102 a2_x4
  +5.1593396215897407 a2_x5
  +2.2373011621221504 a2_x6
  +36.513419228591097 a2_z1
  +11.462176186336659 a2_z2
  +8.7735643157403977 a3_x1
  +3.6647749932252576 a3_x2
  +8.9894067496513301 a3_x3
  +1.8313374509796332 a3_x4
  +5.9661400049633215 a3_x5
  +2.3543550386909118 a3_x6
  +18.836022336426041 a3_z1
  +16.870832212175223 a3_z2
  +7.8515457332568142 a4_x1
  +9.0641405667365316 a4_x2
  +3.8803458463891136 a4_x3
  +5.5605295549433134 a4_x4
  +7.2488159045117166 a4_x5
  +9.9817052164747704 a4_x6
  +15.565550238545768 a4_z1
  +24.431792631400658 a4_z2
  +1000000 short_1
  +1000000 surp_1
  +1000000 short_2
  +1000000 surp_2
  +1000000 short_3
  +1000000 surp_3

s.t.

a1_local_1: 
+0.8268425223086262 a1_x2
+0.34805731688325592 a1_x5
+0.44180034796991469 a1_x3
<= 77.689574437771114

a1_local_2: 
+0.35342997224112588 a1_x6
+0.70503338605983579 a1_x4
+0.61482939036991358 a1_x2
<= 71.614084310955576

a1_local_3: 
+0.5632930753671358 a1_x5
+0.75496941283132801 a1_x3
+0.3357411159398776 a1_x4
<= 76.060673423937558

a1_local_4: 
+0.25704487800282011 a1_x6
+0.62208374941506395 a1_x1
+0.73955374341978108 a1_x4
<= 50.619997754562057

a1_local_5: 
+0.66132755977059876 a1_x3
+0.59953350854442045 a1_x4
+0.45078313058529856 a1_x1
<= 54.058610598331917

a1_local_6: 
+0.52003746285469832 a1_x3
+0.73220895507550321 a1_x5
+0.43980800735649184 a1_x1
<= 70.254114956486276

a1_local_7: 
+0.43960012288379796 a1_x3
+0.83274332654840511 a1_x6
+0.33658622082557976 a1_x5
<= 95.961197806857143

a1_local_8: 
+0.54480491510754214 a1_x5
+0.74178972751619221 a1_x6
+0.39106982065369966 a1_x2
<= 111.64247009816975

a1_act_1: 
+0.0099995000374968751 a1_x1
-0.99995000374968757 a1_z1
<= 0

a1_act_2: 
+0.0099995000374968751 a1_x2
-0.99995000374968757 a1_z2
<= 0

a2_local_1: 
+0.45562339277008845 a2_x1
+0.58178728249050982 a2_x6
+0.6737439290212428 a2_x5
<= 52.823017861687688

a2_local_2: 
+0.68873407384713292 a2_x2
+0.29188467696508608 a2_x4
+0.66366310043192778 a2_x3
<= 110.50115098669609

a2_local_3: 
+0.28454541512070847 a2_x6
+0.31264525051260073 a2_x3
+0.27411163995934945 a2_x1
<= 52.632756159438856

a2_local_4: 
+0.57589813655081079 a2_x4
+0.59859810420494186 a2_x3
+0.55679587458920099 a2_x1
<= 69.059818921105418

a2_local_5: 
+0.65649870962920376 a2_x3
+0.52029951175570555 a2_x5
+0.54616651519656978 a2_x2
<= 78.91111683607248

a2_local_6: 
+0.47042021393129008 a2_x6
+0.37406126861985134 a2_x4
+0.7992390065827284 a2_x1
<= 74.855257726479607

a2_local_7: 
+0.49176600284360283 a2_x2
+0.70486445308604195 a2_x1
+0.51120671085475844 a2_x6
<= 97.130946861552559

a2_local_8: 
+0.69921610833717429 a2_x3
+0.57637497488331135 a2_x4
+0.42295238759236126 a2_x6
<= 89.288032610605327

a2_act_1: 
+0.0099995000374968751 a2_x1
-0.99995000374968757 a2_z1
<= 0

a2_act_2: 
+0.0099995000374968751 a2_x2
-0.99995000374968757 a2_z2
<= 0

a3_local_1: 
+0.68816001460848675 a3_x5
+0.46912941007957132 a3_x6
+0.55349199713495456 a3_x2
<= 95.934759765066886

a3_local_2: 
+0.5857669914091963 a3_x4
+0.48317253284092332 a3_x6
+0.6507083334978162 a3_x1
<= 78.767795750965107

a3_local_3: 
+0.40239967522825526 a3_x4
+0.37747303691564871 a3_x5
+0.83401954879839113 a3_x3
<= 49.767477141566935

a3_local_4: 
+0.5427740106460055 a3_x2
+0.36359553955544233 a3_x3
+0.75709620061299765 a3_x6
<= 72.586474023451288

a3_local_5: 
+0.56358144281403866 a3_x5
+0.64724271114423704 a3_x3
+0.51327656305962799 a3_x2
<= 59.938134340855754

a3_local_6: 
+0.60480419389621753 a3_x1
+0.57771969318054484 a3_x5
+0.54813487679304207 a3_x3
<= 119.05899698818959

a3_local_7: 
+0.55812865310006621 a3_x5
+0.63063249943685717 a3_x6
+0.53925416757103339 a3_x3
<= 87.99108505751542

a3_local_8: 
+0.47692833798501411 a3_x5
+0.65190577343271527 a3_x6
+0.58954068815642013 a3_x3
<= 71.208722030346948

a3_act_1: 
+0.0099995000374968751 a3_x1
-0.99995000374968757 a3_z1
<= 0

a3_act_2: 
+0.0099995000374968751 a3_x2
-0.99995000374968757 a3_z2
<= 0

a4_local_1: 
+0.71088459366334733 a4_x2
+0.39333668136554473 a4_x5
+0.58303460410548302 a4_x4
<= 105.20047308551527

a4_local_2: 
+0.47967704984781373 a4_x4
+0.60652055161723284 a4_x1
+0.63406840980703782 a4_x3
<= 71.246545205126907

a4_local_3: 
+0.67272192480994697 a4_x3
+0.45027288505169366 a4_x1
+0.58711118271348262 a4_x6
<= 59.457525471388962

a4_local_4: 
+0.64096503476504874 a4_x2
+0.36961512573331823 a4_x3
+0.67271723854661492 a4_x5
<= 61.211556315667032

a4_local_5: 
+0.76398797020930265 a4_x4
+0.39035070705866642 a4_x5
+0.51375938616658734 a4_x6
<= 96.798126816065206

a4_local_6: 
+0.31762419475138542 a4_x2
+0.88975648050018075 a4_x4
+0.32779303884686944 a4_x3
<= 87.540794216602606

a4_local_7: 
+0.66311961361760707 a4_x2
+0.48492521873993272 a4_x6
+0.57019287111087569 a4_x1
<= 71.316461218295473

a4_local_8: 
+0.59403263685526286 a4_x5
+0.6345631165914718 a4_x4
+0.49442378321891167 a4_x2
<= 60.664486764968004

a4_act_1: 
+0.0099995000374968751 a4_x1
-0.99995000374968757 a4_z1
<= 0

a4_act_2: 
+0.0099995000374968751 a4_x2
-0.99995000374968757 a4_z2
<= 0

coupling_1: 
+9.7360769824874694e-05 a1_x1
+0.0037683464654353427 a2_x1
+0.070685613363688088 a3_x1
+0.99733325715926646 a4_x1
+0.012564002413336561 short_1
-0.012564002413336561 surp_1
= 73.376972846690947

coupling_2: 
+0.00016669851411066678 a1_x2
+0.0018595737035065002 a2_x2
+0.076285994089913531 a3_x2
+0.99692834233034222 a4_x2
+0.0124667871048739 short_2
-0.0124667871048739 surp_2
= 84.345122421095894

coupling_3: 
+6.9006278686774473e-05 a1_x3
+0.0010724463291627636 a2_x3
+0.032809133538842822 a3_x3
+0.99941438126643445 a4_x3
+0.006830094115940941 short_3
-0.006830094115940941 surp_3
= 63.371154901994508

bounds
  0 <= a1_x1 <= 100
  0 <= a1_x2 <= 100
  0 <= a1_x3 <= 100
  0 <= a1_x4 <= 100
  0 <= a1_x5 <= 100
  0 <= a1_x6 <= 100
  0 <= a2_x1 <= 100
  0 <= a2_x2 <= 100
  0 <= a2_x3 <= 100
  0 <= a2_x4 <= 100
  0 <= a2_x5 <= 100
  0 <= a2_x6 <= 100
  0 <= a3_x1 <= 100
  0 <= a3_x2 <= 100
  0 <= a3_x3 <= 100
  0 <= a3_x4 <= 100
  0 <= a3_x5 <= 100
  0 <= a3_x6 <= 100
  0 <= a4_x1 <= 100
  0 <= a4_x2 <= 100
  0 <= a4_x3 <= 100
  0 <= a4_x4 <= 100
  0 <= a4_x5 <= 100
  0 <= a4_x6 <= 100
  0 <= short_1 <= +inf
  0 <= surp_1 <= +inf
  0 <= short_2 <= +inf
  0 <= surp_2 <= +inf
  0 <= short_3 <= +inf
  0 <= surp_3 <= +inf
 0 <= a1_z1 <= 1
 0 <= a1_z2 <= 1
 0 <= a2_z1 <= 1
 0 <= a2_z2 <= 1
 0 <= a3_z1 <= 1
 0 <= a3_z2 <= 1
 0 <= a4_z1 <= 1
 0 <= a4_z2 <= 1

binary
  a1_z1
  a1_z2
  a2_z1
  a2_z2
  a3_z1
  a3_z2
  a4_z1
  a4_z2
end
