min
obj: 
  +8.0556013187453051 a1_x1
  +1.9742345173811016 a1_x2
  +4.4385591714508195 a1_x3
  +2.091774352732247 a1_x4
  +8.3606733491801819 a1_x5
  +3.1332851203907777 a1_x6
  +12.324732571684713 a1_z1
  +43.380471023797909 a1_z2
  +7.6338140335244935 a2_x1
  +9.9611693691396663 a2_x2
  +9.9407775368738864 a2_x3
  +8.2998138303753102 a2_x4
  +5.1593396215897407 a2_x5
  +2.2373011621221504 a2_x6
  +36.513419228591097 a2_z1
  +11.462176186336659 a2_z2
  +8.7735643157403977 a3_x1
  +3.6647749932252576 a3_x2
  +8.9894067496513301 a3_x3
  +1.8313374509796332 a3_x4
  +5.9661400049633215 a3_x5
  +2.3543550386909118 a3_x6
  +18.836022336426041 a3_z1
  +16.870832212175223 a3_z2
  +7.8515457332568142 a4_x1
  +9.0641405667365316 a4_x2
  +3.8803458463891136 a4_x3
  +5.5605295549433134 a4_x4
  +7.2488159045117166 a4_x5
  +9.9817052164747704 a4_x6
  +15.565550238545768 a4_z1
  +24.431792631400658 a4_z2
  +1000000 short_1
  +1000000 surp_1
  +1000000 short_2
  +1000000 surp_2
  +1000000 short_3
  +1000000 surp_3

s.t.

a1_local_1: 
+1.5412958802844956 a1_x2
+0.64880469272091867 a1_x5
+0.82354866599388254 a1_x3
<= 144.81913761239448

a1_local_2: 
+0.70802215372229949 a1_x6
+1.4123851841961153 a1_x4
+1.2316805685186332 a1_x2
<= 143.46366237467916

a1_local_3: 
+1.1188386723686028 a1_x5
+1.4995550495282872 a1_x3
+0.66686448111029228 a1_x4
<= 151.07521571720912

a1_local_4: 
+0.58954859312620822 a1_x6
+1.4267882018263904 a1_x1
+1.6962130207067159 a1_x4
<= 116.10014831700505

a1_local_5: 
+1.2112240432534864 a1_x3
+1.0980479938519654 a1_x4
+0.8256110878660281 a1_x1
<= 99.00855927475645

a1_local_6: 
+0.91640098371995948 a1_x3
+1.290285901781725 a1_x5
+0.77502203086860355 a1_x1
<= 123.80058102561654

a1_local_7: 
+0.83033636448900072 a1_x3
+1.5729228230936056 a1_x6
+0.63575910103027966 a1_x5
<= 181.25580037660254

a1_local_8: 
+1.0115176344685197 a1_x5
+1.3772515071787008 a1_x6
+0.72608379427262304 a1_x2
<= 207.28213738239043

a1_act_1: 
+0.10000000000000001 a1_x1
-10 a1_z1
<= 0

a1_act_2: 
+0.10000000000000001 a1_x2
-10 a1_z2
<= 0

a2_local_1: 
+0.82234787478925875 a2_x1
+1.0500592000483819 a2_x6
+1.2160303816146762 a2_x5
<= 95.339478103648574

a2_local_2: 
+1.5361022895780363 a2_x2
+0.65099831357890736 a2_x4
+1.4801858174192994 a2_x3
<= 246.45371483297166

a2_local_3: 
+0.97199031021250515 a2_x6
+1.0679776861043262 a2_x3
+0.93634915130831153 a2_x1
<= 179.79038237200163

a2_local_4: 
+0.99753926726194009 a2_x4
+1.0368589102046877 a2_x3
+0.96445137342995735 a2_x1
<= 119.62164277245179

a2_local_5: 
+1.1232856976590595 a2_x3
+0.89024546656653047 a2_x5
+0.93450455585374548 a2_x2
<= 135.0188928449345

a2_local_6: 
+0.86035218936046809 a2_x6
+0.68412117906789005 a2_x4
+1.4617293406447267 a2_x1
<= 136.90288589411131

a2_local_7: 
+0.83526915904650456 a2_x2
+1.197218871509087 a2_x1
+0.86828938357981955 a2_x6
<= 164.9778224466684

a2_local_8: 
+1.2857601813430344 a2_x3
+1.0598725964565328 a2_x4
+0.7777500147464943 a2_x6
<= 164.18814674363114

a2_act_1: 
+0.10000000000000001 a2_x1
-10 a2_z1
<= 0

a2_act_2: 
+0.10000000000000001 a2_x2
-10 a2_z2
<= 0

a3_local_1: 
+1.2111512652002372 a3_x5
+0.82566069881838577 a3_x6
+0.97413758192503241 a3_x2
<= 168.84373285222932

a3_local_2: 
+1.0446735328653605 a3_x4
+0.86170365395995119 a3_x6
+1.1604917716253251 a3_x1
<= 140.47672994550027

a3_local_3: 
+0.71717730645114286 a3_x4
+0.67275177525811525 a3_x5
+1.4864323466353235 a3_x3
<= 88.698146152856552

a3_local_4: 
+1.0345089150269373 a3_x2
+0.69300080651697404 a3_x3
+1.4429997636308762 a3_x6
<= 138.34736559743973

a3_local_5: 
+0.97779403437756141 a3_x5
+1.1229434003206138 a3_x3
+0.89051683256207581 a3_x2
<= 103.99056061458685

a3_local_6: 
+1.0504216851970543 a3_x1
+1.003381424610899 a3_x5
+0.95199862502115473 a3_x3
<= 206.78122525662477

a3_local_7: 
+0.95708253145273703 a3_x5
+1.081412584043022 a3_x6
+0.92471644472764625 a3_x3
<= 150.88766714333369

a3_local_8: 
+0.8553308774658468 a3_x5
+1.1691381970948778 a3_x6
+1.0572916598604263 a3_x3
<= 127.70685624336298

a3_act_1: 
+0.10000000000000001 a3_x1
-10 a3_z1
<= 0

a3_act_2: 
+0.10000000000000001 a3_x2
-10 a3_z2
<= 0

a4_local_1: 
+1.3443654000705547 a4_x2
+0.74384538604423944 a4_x5
+1.1025862084928426 a4_x4
<= 198.9463231414411

a4_local_2: 
+0.86977398108841153 a4_x4
+1.0997728470841586 a4_x1
+1.1497239762778684 a4_x3
<= 129.18773429231041

a4_local_3: 
+1.2223058590821616 a4_x3
+0.81812583370164593 a4_x1
+1.0667549430116869 a4_x6
<= 108.03168303268448

a4_local_4: 
+1.2854144948413513 a4_x2
+0.74123955966548294 a4_x3
+1.3490915142889759 a4_x5
<= 122.75587196234144

a4_local_5: 
+1.3989937520565123 a4_x4
+0.71479947535863264 a4_x5
+0.9407820532966461 a4_x6
<= 177.25406669603635

a4_local_6: 
+0.59747702325111229 a4_x2
+1.6737045293534445 a4_x4
+0.61660544860557898 a4_x3
<= 164.67137581415551

a4_local_7: 
+1.1693877811240618 a4_x2
+0.855148323029988 a4_x6
+1.005514785972847 a4_x1
<= 125.76403506860231

a4_local_8: 
+1.0605306314575176 a4_x5
+1.1328899810977477 a4_x4
+0.88269824668324814 a4_x2
<= 108.30473355216247

a4_act_1: 
+0.10000000000000001 a4_x1
-10 a4_z1
<= 0

a4_act_2: 
+0.10000000000000001 a4_x2
-10 a4_z2
<= 0

coupling_1: 
+9.7360769824874694e-05 a1_x1
+0.0037683464654353427 a2_x1
+0.070685613363688088 a3_x1
+0.99733325715926646 a4_x1
+0.012564002413336561 short_1
-0.012564002413336561 surp_1
= 73.376972846690947

coupling_2: 
+0.00016669851411066678 a1_x2
+0.0018595737035065002 a2_x2
+0.076285994089913531 a3_x2
+0.99692834233034222 a4_x2
+0.0124667871048739 short_2
-0.0124667871048739 surp_2
= 84.345122421095894

coupling_3: 
+6.9006278686774473e-05 a1_x3
+0.0010724463291627636 a2_x3
+0.032809133538842822 a3_x3
+0.99941438126643445 a4_x3
+0.006830094115940941 short_3
-0.006830094115940941 surp_3
= 63.371154901994508

bounds
  0 <= a1_x1 <= 100
  0 <= a1_x2 <= 100
  0 <= a1_x3 <= 100
  0 <= a1_x4 <= 100
  0 <= a1_x5 <= 100
  0 <= a1_x6 <= 100
  0 <= a2_x1 <= 100
  0 <= a2_x2 <= 100
  0 <= a2_x3 <= 100
  0 <= a2_x4 <= 100
  0 <= a2_x5 <= 100
  0 <= a2_x6 <= 100
  0 <= a3_x1 <= 100
  0 <= a3_x2 <= 100
  0 <= a3_x3 <= 100
  0 <= a3_x4 <= 100
  0 <= a3_x5 <= 100
  0 <= a3_x6 <= 100
  0 <= a4_x1 <= 100
  0 <= a4_x2 <= 100
  0 <= a4_x3 <= 100
  0 <= a4_x4 <= 100
  0 <= a4_x5 <= 100
  0 <= a4_x6 <= 100
  0 <= short_1 <= +inf
  0 <= surp_1 <= +inf
  0 <= short_2 <= +inf
  0 <= surp_2 <= +inf
  0 <= short_3 <= +inf
  0 <= surp_3 <= +inf
 0 <= a1_z1 <= 1
 0 <= a1_z2 <= 1
 0 <= a2_z1 <= 1
 0 <= a2_z2 <= 1
 0 <= a3_z1 <= 1
 0 <= a3_z2 <= 1
 0 <= a4_z1 <= 1
 0 <= a4_z2 <= 1

binary
  a1_z1
  a1_z2
  a2_z1
  a2_z2
  a3_z1
  a3_z2
  a4_z1
  a4_z2
end
