min
obj: 
  +2.6204029212029933 a1_x1
  +1.0229393332967094 a1_x2
  +7.1910932224071349 a1_x3
  +4.2632745770435907 a1_x4
  +6.0246265469097295 a1_x5
  +8.5542054222394626 a1_x6
  +28.114118371176183 a1_z1
  +36.337199795344134 a1_z2
  +2.3925011221889392 a2_x1
  +1.8354708126815493 a2_x2
  +3.2680190161516656 a2_x3
  +8.5745129304172316 a2_x4
  +5.2855415708546367 a2_x5
  +8.0750857020565832 a2_x6
  +37.679921062184903 a2_z1
  +30.786063311884963 a2_z2
  +6.9098336189226917 a3_x1
  +7.224692972136415 a3_x2
  +2.7635056217757095 a3_x3
  +4.5804152664090756 a3_x4
  +5.5391766018428115 a3_x5
  +2.5280261257879362 a3_x6
  +24.719908715545547 a3_z1
  +39.060952627342751 a3_z2
  +7.8772143187643042 a4_x1
  +7.8222341244321543 a4_x2
  +1.2624357252124174 a4_x3
  +2.9341291076023293 a4_x4
  +4.8680356039416175 a4_x5
  +9.5043443020751539 a4_x6
  +34.587285029007681 a4_z1
  +29.505942671624879 a4_z2
  +1000000 short_1
  +1000000 surp_1
  +1000000 short_2
  +1000000 surp_2
  +1000000 short_3
  +1000000 surp_3

s.t.

a1_local_1: 
+0.75502980325012869 a1_x3
+0.35081089551887334 a1_x5
+0.55395100125310559 a1_x4
<= 108.60564296931462

a1_local_2: 
+0.62841303478021893 a1_x6
+0.44056055071972744 a1_x5
+0.64109551462153125 a1_x4
<= 90.610196797227175

a1_local_3: 
+0.63498215683482173 a1_x4
+0.46663126057828352 a1_x3
+0.61567274355173451 a1_x1
<= 119.85713704597337

a1_local_4: 
+0.3505264362332573 a1_x4
+0.54873334654280737 a1_x2
+0.75896174600143296 a1_x5
<= 69.330448516834835

a1_local_5: 
+0.40525974832402595 a1_x2
+0.6928671295052663 a1_x4
+0.59640563146190984 a1_x3
<= 55.048062867272691

a1_local_6: 
+0.75585786524523935 a1_x6
+0.52496663939931187 a1_x1
+0.3912657857067271 a1_x4
<= 102.94780994972547

a1_local_7: 
+0.67548295231229727 a1_x2
+0.36129754233670186 a1_x5
+0.64279613178434869 a1_x1
<= 88.357633408728603

a1_local_8: 
+0.66733118472078956 a1_x3
+0.67946383872989013 a1_x4
+0.30495570458279586 a1_x5
<= 50.244720849439503

a1_act_1: 
+0.0099995000374968751 a1_x1
-0.99995000374968757 a1_z1
<= 0

a1_act_2: 
+0.0099995000374968751 a1_x2
-0.99995000374968757 a1_z2
<= 0

a2_local_1: 
+0.48292022015104796 a2_x1
+0.38745005270371352 a2_x5
+0.78528371791929641 a2_x6
<= 77.791514321075084

a2_local_2: 
+0.61461332710670991 a2_x5
+0.30617508006837579 a2_x2
+0.72698506070478786 a2_x4
<= 95.297300308333661

a2_local_3: 
+0.51188102321135431 a2_x4
+0.78433271551981332 a2_x5
+0.35042832282995129 a2_x1
<= 55.610888400257082

a2_local_4: 
+0.45682963697545437 a2_x6
+0.68632278340903952 a2_x1
+0.56592200854406016 a2_x3
<= 92.248529208999514

a2_local_5: 
+0.55614099615882651 a2_x4
+0.37619132602491417 a2_x5
+0.74107170949583889 a2_x3
<= 51.839585607575799

a2_local_6: 
+0.6150211404833561 a2_x5
+0.56105503226920761 a2_x3
+0.55404534789487248 a2_x1
<= 117.36669436848113

a2_local_7: 
+0.58608058764092397 a2_x3
+0.5884080420956963 a2_x1
+0.55703278250707877 a2_x4
<= 68.088527016491

a2_local_8: 
+0.57453920405693615 a2_x6
+0.50704105562017254 a2_x1
+0.64250608628806261 a2_x3
<= 107.47858305330504

a2_act_1: 
+0.0099995000374968751 a2_x1
-0.99995000374968757 a2_z1
<= 0

a2_act_2: 
+0.0099995000374968751 a2_x2
-0.99995000374968757 a2_z2
<= 0

a3_local_1: 
+0.71334596601488132 a3_x2
+0.42870852695676359 a3_x1
+0.55438843033098906 a3_x3
<= 90.595527584334775

a3_local_2: 
+0.45891974636093996 a3_x6
+0.40679936417937579 a3_x5
+0.78987780301972432 a3_x2
<= 63.525023585163403

a3_local_3: 
+0.71967027844480647 a3_x3
+0.36149796136872991 a3_x6
+0.59278488024698051 a3_x4
<= 88.686526461673566

a3_local_4: 
+0.57629350813981373 a3_x1
+0.42618038766477867 a3_x4
+0.69732063618238449 a3_x3
<= 82.194671333311334

a3_local_5: 
+0.6389469692889167 a3_x1
+0.58530010573426627 a3_x2
+0.49916986754407028 a3_x3
<= 82.271222307899762

a3_local_6: 
+0.27265474704289944 a3_x5
+0.78045180145997051 a3_x1
+0.56263165082748356 a3_x2
<= 101.23467106032653

a3_local_7: 
+0.72866034966597049 a3_x5
+0.34297230363005615 a3_x6
+0.59281033540868577 a3_x3
<= 75.760307269634438

a3_local_8: 
+0.64330523934530282 a3_x2
+0.29601460997692886 a3_x6
+0.70606920320255406 a3_x4
<= 69.789029819945554

a3_act_1: 
+0.0099995000374968751 a3_x1
-0.99995000374968757 a3_z1
<= 0

a3_act_2: 
+0.0099995000374968751 a3_x2
-0.99995000374968757 a3_z2
<= 0

a4_local_1: 
+0.65791246880169452 a4_x5
+0.49516223344381732 a4_x4
+0.56742007892406321 a4_x6
<= 56.042116960628171

a4_local_2: 
+0.46674499416990994 a4_x6
+0.78668078385317664 a4_x4
+0.40408223758720513 a4_x2
<= 63.559260707220268

a4_local_3: 
+0.33377120150127304 a4_x1
+0.5019535936728805 a4_x6
+0.79789684474077049 a4_x5
<= 104.06263543770653

a4_local_4: 
+0.7202567445234962 a4_x3
+0.50137787058483607 a4_x5
+0.47942721330378257 a4_x4
<= 97.145670923730847

a4_local_5: 
+0.68103785851420906 a4_x2
+0.28799577571302915 a4_x1
+0.67323537373034026 a4_x5
<= 53.321443202053416

a4_local_6: 
+0.7661478166946486 a4_x6
+0.49577561445159818 a4_x5
+0.40893038905070805 a4_x4
<= 115.23755189929206

a4_local_7: 
+0.69753689818490161 a4_x6
+0.54096086259020282 a4_x1
+0.46989745776738362 a4_x4
<= 66.023181013893932

a4_local_8: 
+0.70757527686791444 a4_x6
+0.64999202479208451 a4_x1
+0.27721398823288151 a4_x2
<= 64.538364491553494

a4_act_1: 
+0.0099995000374968751 a4_x1
-0.99995000374968757 a4_z1
<= 0

a4_act_2: 
+0.0099995000374968751 a4_x2
-0.99995000374968757 a4_z2
<= 0

coupling_1: 
+5.9198691261304645e-05 a1_x1
+0.0022849681825411489 a2_x1
+0.05095974639201227 a3_x1
+0.9986339660170126 a4_x1
+0.0080025489912147387 short_1
-0.0080025489912147387 surp_1
= 59.462499925928135

coupling_2: 
+4.2523273280599531e-05 a1_x2
+0.0020528567707475739 a2_x2
+0.026864366549328896 a3_x2
+0.99956544091767152 a4_x2
+0.0084563320598918228 short_2
-0.0084563320598918228 surp_2
= 71.976685669563977

coupling_3: 
+9.2284063178329728e-05 a1_x3
+0.0020386490965123741 a2_x3
+0.044532945390364585 a3_x3
+0.99894650953540465 a4_x3
+0.0076981574224972557 short_3
-0.0076981574224972557 surp_3
= 37.176004940667049

bounds
  0 <= a1_x1 <= 100
  0 <= a1_x2 <= 100
  0 <= a1_x3 <= 100
  0 <= a1_x4 <= 100
  0 <= a1_x5 <= 100
  0 <= a1_x6 <= 100
  0 <= a2_x1 <= 100
  0 <= a2_x2 <= 100
  0 <= a2_x3 <= 100
  0 <= a2_x4 <= 100
  0 <= a2_x5 <= 100
  0 <= a2_x6 <= 100
  0 <= a3_x1 <= 100
  0 <= a3_x2 <= 100
  0 <= a3_x3 <= 100
  0 <= a3_x4 <= 100
  0 <= a3_x5 <= 100
  0 <= a3_x6 <= 100
  0 <= a4_x1 <= 100
  0 <= a4_x2 <= 100
  0 <= a4_x3 <= 100
  0 <= a4_x4 <= 100
  0 <= a4_x5 <= 100
  0 <= a4_x6 <= 100
  0 <= short_1 <= +inf
  0 <= surp_1 <= +inf
  0 <= short_2 <= +inf
  0 <= surp_2 <= +inf
  0 <= short_3 <= +inf
  0 <= surp_3 <= +inf
 0 <= a1_z1 <= 1
 0 <= a1_z2 <= 1
 0 <= a2_z1 <= 1
 0 <= a2_z2 <= 1
 0 <= a3_z1 <= 1
 0 <= a3_z2 <= 1
 0 <= a4_z1 <= 1
 0 <= a4_z2 <= 1

binary
  a1_z1
  a1_z2
  a2_z1
  a2_z2
  a3_z1
  a3_z2
  a4_z1
  a4_z2
end
