min
obj: 
  +5.7129162548306427 a1_x1
  +9.0056358908477314 a1_x2
  +9.0172471176233611 a1_x3
  +9.406385688684578 a1_x4
  +5.7753562095118767 a1_x5
  +7.2881596650216451 a1_x6
  +20.355895911925103 a1_z1
  +36.986322019028464 a1_z2
  +9.5705581106952309 a2_x1
  +1.2604999258751248 a2_x2
  +5.3940318901522675 a2_x3
  +5.1816392623674004 a2_x4
  +3.5951202349319828 a2_x5
  +8.3242993176305013 a2_x6
  +8.2240572055779673 a2_z1
  +9.8483018703506104 a2_z2
  +4.4443242856945142 a3_x1
  +6.878356128261002 a3_x2
  +6.0922718983064614 a3_x3
  +7.9699820931728009 a3_x4
  +3.3886243612057902 a3_x5
  +8.8768505579425145 a3_x6
  +46.436857763791892 a3_z1
  +46.775047481358833 a3_z2
  +2.1426688948262615 a4_x1
  +3.7175386403807593 a4_x2
  +7.4752828100284079 a4_x3
  +1.4623010448148774 a4_x4
  +9.334818787187654 a4_x5
  +5.5099843569690403 a4_x6
  +29.024926983261683 a4_z1
  +40.430546823103057 a4_z2
  +1000000 short_1
  +1000000 surp_1
  +1000000 short_2
  +1000000 surp_2
  +1000000 short_3
  +1000000 surp_3

s.t.

a1_local_1: 
+1.2323452756278992 a1_x1
+0.81146089474841732 a1_x3
+0.98429546182768979 a1_x4
<= 105.82430184107378

a1_local_2: 
+1.4953012733070601 a1_x3
+0.66876155183655095 a1_x4
+1.3475799601647835 a1_x5
<= 147.51684959336777

a1_local_3: 
+1.224403913108022 a1_x2
+0.75418227837105545 a1_x4
+1.3259394030842011 a1_x1
<= 138.93101452187693

a1_local_4: 
+1.0115753214621128 a1_x2
+1.2409139435733898 a1_x3
+0.80585765449645641 a1_x4
<= 100.28545752632154

a1_local_5: 
+1.384443225138271 a1_x1
+0.72231203262244636 a1_x3
+1.2793751044363268 a1_x2
<= 117.26156728377985

a1_local_6: 
+1.0612650420993099 a1_x2
+1.0407642806710886 a1_x3
+0.94227168551776652 a1_x4
<= 190.07200929567708

a1_local_7: 
+0.79469200336156554 a1_x1
+1.1465383332830774 a1_x2
+1.2583491412647627 a1_x4
<= 211.31157864781326

a1_local_8: 
+1.3292576610463802 a1_x2
+1.2717910256083258 a1_x6
+0.75229959495799226 a1_x5
<= 198.84927933975646

a1_act_1: 
+0.10000000000000001 a1_x1
-10 a1_z1
<= 0

a1_act_2: 
+0.10000000000000001 a1_x2
-10 a1_z2
<= 0

a2_local_1: 
+0.78735975213671516 a2_x5
+1.1355813647218715 a2_x6
+1.2700674593617813 a2_x2
<= 120.902284789615

a2_local_2: 
+0.90068330648385919 a2_x4
+1.1072520696880501 a2_x6
+1.1102681628505577 a2_x2
<= 139.95225576747785

a2_local_3: 
+1.4855863130703753 a2_x6
+0.63122085166019204 a2_x1
+1.5842315686655013 a2_x2
<= 181.01749780171241

a2_local_4: 
+0.84782410215981607 a2_x6
+1.0679949122082342 a2_x2
+1.1794899407229857 a2_x5
<= 166.67785615880695

a2_local_5: 
+1.5243160512059697 a2_x2
+1.0585583187077072 a2_x5
+0.65603192934224186 a2_x1
<= 204.44163190663792

a2_local_6: 
+0.87624214611492013 a2_x2
+0.72182797607453419 a2_x4
+1.3853716302854167 a2_x3
<= 124.16351242738195

a2_local_7: 
+1.0921333627316958 a2_x5
+0.97742665856242428 a2_x1
+0.91563909145560063 a2_x6
<= 152.38340962482147

a2_local_8: 
+0.69888997605858472 a2_x3
+0.96893253985114836 a2_x2
+1.4308403815426514 a2_x5
<= 187.46258151895699

a2_act_1: 
+0.10000000000000001 a2_x1
-10 a2_z1
<= 0

a2_act_2: 
+0.10000000000000001 a2_x2
-10 a2_z2
<= 0

a3_local_1: 
+1.0773505483208321 a3_x6
+0.85572499475438213 a3_x4
+1.168599732542613 a3_x5
<= 179.23224569288351

a3_local_2: 
+1.2431748000536704 a3_x3
+0.91636664423984604 a3_x6
+0.80439210958654228 a3_x5
<= 98.032658612400823

a3_local_3: 
+1.0056818710328312 a3_x3
+0.82630588821045059 a3_x5
+1.210205583994715 a3_x2
<= 106.43373059314698

a3_local_4: 
+0.69190918930061074 a3_x1
+1.445276367858058 a3_x4
+0.76079474549691761 a3_x2
<= 157.72522028641097

a3_local_5: 
+0.78289637839401172 a3_x2
+1.277308246145348 a3_x5
+1.1022230014155512 a3_x3
<= 166.03117531981007

a3_local_6: 
+0.91029694822628693 a3_x5
+1.0234468918944566 a3_x3
+1.0985426260611986 a3_x2
<= 147.91322496585636

a3_local_7: 
+0.93477105234406288 a3_x5
+0.80242083401035436 a3_x6
+1.2462288584933428 a3_x1
<= 135.02074316690542

a3_local_8: 
+1.4006217636003986 a3_x4
+1.5761560028903205 a3_x2
+0.63445496395421641 a3_x1
<= 177.78916628304535

a3_act_1: 
+0.10000000000000001 a3_x1
-10 a3_z1
<= 0

a3_act_2: 
+0.10000000000000001 a3_x2
-10 a3_z2
<= 0

a4_local_1: 
+1.4794974275516781 a4_x2
+1.5526406583507264 a4_x5
+0.64406403028388914 a4_x4
<= 159.17629372799632

a4_local_2: 
+1.0795956472278041 a4_x2
+0.98045395629565879 a4_x4
+0.9262727230957345 a4_x3
<= 170.07314580456742

a4_local_3: 
+0.79717754452400935 a4_x6
+1.2544257008607722 a4_x4
+1.0170382233354516 a4_x1
<= 116.67348634706048

a4_local_4: 
+1.2433368427075553 a4_x1
+0.80428727409247169 a4_x6
+1.1589552955237974 a4_x3
<= 109.22769398003236

a4_local_5: 
+0.90292129301725321 a4_x1
+1.1075162450298885 a4_x3
+0.96149074138189861 a4_x6
<= 147.37314294164707

a4_local_6: 
+1.1349921509874219 a4_x6
+0.88106336165410382 a4_x2
+1.0732041253142601 a4_x4
<= 200.62461603806796

a4_local_7: 
+1.2637086595483942 a4_x3
+0.79132163291289448 a4_x6
+0.82230535523906823 a4_x4
<= 157.79438631513457

a4_local_8: 
+0.71302477651448692 a4_x4
+1.0895804817386137 a4_x5
+1.4024758086084301 a4_x6
<= 158.13524705370918

a4_act_1: 
+0.10000000000000001 a4_x1
-10 a4_z1
<= 0

a4_act_2: 
+0.10000000000000001 a4_x2
-10 a4_z2
<= 0

coupling_1: 
+0.00022619572471865363 a1_x1
+0.0021674110476976672 a2_x1
+0.085393133764152973 a3_x1
+0.99604352393524698 a4_x1
+0.017328622239472975 short_1
-0.017328622239472975 surp_1
= 82.006266537213904

coupling_2: 
+9.2586213155736305e-05 a1_x2
+0.001988988356972872 a2_x2
+0.040476976171851163 a3_x2
+0.99913198916872548 a4_x2
+0.0068160829234316161 short_2
-0.0068160829234316161 surp_2
= 80.167864052667937

coupling_3: 
+0.00014421295371031017 a1_x3
+0.0018972688151544018 a2_x3
+0.038651210504534253 a3_x3
+0.99906068932230618 a4_x3
+0.013787721911895269 short_3
-0.013787721911895269 surp_3
= 29.632884075151043

bounds
  0 <= a1_x1 <= 100
  0 <= a1_x2 <= 100
  0 <= a1_x3 <= 100
  0 <= a1_x4 <= 100
  0 <= a1_x5 <= 100
  0 <= a1_x6 <= 100
  0 <= a2_x1 <= 100
  0 <= a2_x2 <= 100
  0 <= a2_x3 <= 100
  0 <= a2_x4 <= 100
  0 <= a2_x5 <= 100
  0 <= a2_x6 <= 100
  0 <= a3_x1 <= 100
  0 <= a3_x2 <= 100
  0 <= a3_x3 <= 100
  0 <= a3_x4 <= 100
  0 <= a3_x5 <= 100
  0 <= a3_x6 <= 100
  0 <= a4_x1 <= 100
  0 <= a4_x2 <= 100
  0 <= a4_x3 <= 100
  0 <= a4_x4 <= 100
  0 <= a4_x5 <= 100
  0 <= a4_x6 <= 100
  0 <= short_1 <= +inf
  0 <= surp_1 <= +inf
  0 <= short_2 <= +inf
  0 <= surp_2 <= +inf
  0 <= short_3 <= +inf
  0 <= surp_3 <= +inf
 0 <= a1_z1 <= 1
 0 <= a1_z2 <= 1
 0 <= a2_z1 <= 1
 0 <= a2_z2 <= 1
 0 <= a3_z1 <= 1
 0 <= a3_z2 <= 1
 0 <= a4_z1 <= 1
 0 <= a4_z2 <= 1

binary
  a1_z1
  a1_z2
  a2_z1
  a2_z2
  a3_z1
  a3_z2
  a4_z1
  a4_z2
end
