min
obj: 
  +1.58690782181034451 a1_x1
  +1.85914319529187777 a1_x2
  +3.32311090405199927 a1_x3
  +9.20870591814637862 a1_x4
  +9.62032466035919853 a1_x5
  +2.65221673698665317 a1_x6
  +45.97121590191820673 a1_z1
  +15.23159126469524693 a1_z2
  +9.69669699253390860 a2_x1
  +9.50992409015265672 a2_x2
  +7.57539983332453648 a2_x3
  +7.25458697589536605 a2_x4
  +4.07761765395989872 a2_x5
  +7.08231795774132511 a2_x6
  +41.74035632470042145 a2_z1
  +13.29578844905750223 a2_z2
  +8.20725746769122999 a3_x1
  +8.76504266892960793 a3_x2
  +7.77977201232387294 a3_x3
  +6.04838547653606717 a3_x4
  +6.48681552366104786 a3_x5
  +7.59141867997845843 a3_x6
  +13.33539359650109901 a3_z1
  +17.07642873173313092 a3_z2
  +4.07491661896622936 a4_x1
  +3.95786841150633606 a4_x2
  +4.77265222387028487 a4_x3
  +6.62265288598760282 a4_x4
  +9.50730455200969438 a4_x5
  +5.10859874083684673 a4_x6
  +30.99543174940450641 a4_z1
  +14.10084107909216655 a4_z2
  +1000000.00000000000000000 short_1
  +1000000.00000000000000000 surp_1
  +1000000.00000000000000000 short_2
  +1000000.00000000000000000 surp_2
  +1000000.00000000000000000 short_3
  +1000000.00000000000000000 surp_3

s.t.

a1_local_1: 
+0.91555290746555551 a1_x4
+1.18663059751256639 a1_x1
+0.84272224405490270 a1_x3
<= 130.560998

a1_local_2: 
+1.29012503196843054 a1_x3
+1.14030460999273586 a1_x5
+0.77511867084249420 a1_x2
<= 159.028255

a1_local_3: 
+0.89385193114482797 a1_x1
+1.29766354788561844 a1_x2
+0.77061577450439711 a1_x5
<= 185.746210

a1_local_4: 
+0.84475758585644267 a1_x3
+1.18377155380755461 a1_x5
+1.18294561980095758 a1_x6
<= 211.233004

a1_local_5: 
+0.93760678057692970 a1_x4
+1.06654518793547792 a1_x5
+1.04112868425948757 a1_x6
<= 164.201806

a1_local_6: 
+0.92965033855685097 a1_x4
+0.97740032361727947 a1_x6
+1.07567324888232374 a1_x1
<= 193.842975

a1_local_7: 
+1.07273178045153594 a1_x5
+0.93219947262033975 a1_x2
+0.94097171756131370 a1_x4
<= 107.031089

a1_local_8: 
+1.05080142561415513 a1_x2
+0.84858322144575626 a1_x6
+1.17843480135780987 a1_x3
<= 112.814999

a1_act_1: 
+0.10000000000000001 a1_x1
-10.00000000000000000 a1_z1
<= 0.000000

a1_act_2: 
+0.10000000000000001 a1_x2
-10.00000000000000000 a1_z2
<= 0.000000

a2_local_1: 
+0.67915216943815160 a2_x5
+1.20619478023109594 a2_x3
+1.47242406783045254 a2_x6
<= 109.521319

a2_local_2: 
+0.60324884591390660 a2_x5
+0.51995823675303232 a2_x1
+0.47969357296189841 a2_x4
<= 98.914675

a2_local_3: 
+1.29195635703573575 a2_x6
+0.77401995396686607 a2_x1
+1.04767585070087632 a2_x3
<= 169.637852

a2_local_4: 
+0.65050579285849552 a2_x4
+1.53726532642504821 a2_x2
+1.25460614772043333 a2_x5
<= 157.531952

a2_local_5: 
+0.50756335340291669 a2_x5
+0.63772816619695083 a2_x3
+0.56737692429587161 a2_x1
<= 93.620667

a2_local_6: 
+1.43196253780060379 a2_x6
+0.59606155638378677 a2_x2
+1.67767907406551298 a2_x1
<= 187.177415

a2_local_7: 
+0.55093367411952043 a2_x2
+0.48717608762904308 a2_x1
+0.52877324142735838 a2_x3
<= 50.424915

a2_local_8: 
+1.09725661605803126 a2_x6
+0.91506752041633355 a2_x3
+0.91136383719659642 a2_x5
<= 139.677819

a2_act_1: 
+0.10000000000000001 a2_x1
-10.00000000000000000 a2_z1
<= 0.000000

a2_act_2: 
+0.10000000000000001 a2_x2
-10.00000000000000000 a2_z2
<= 0.000000

a3_local_1: 
+1.37969670556987323 a3_x2
+1.18347535683551386 a3_x3
+0.72479697600419923 a3_x1
<= 109.972687

a3_local_2: 
+1.81851312633891671 a3_x6
+2.97023123181216864 a3_x2
+1.15188022011013569 a3_x3
<= 289.691750

a3_local_3: 
+2.06256703030460598 a3_x4
+1.59920258805324700 a3_x2
+1.41475554871262710 a3_x3
<= 175.718660

a3_local_4: 
+1.83472211409563779 a3_x4
+2.04541429219861515 a3_x1
+1.46155074249982753 a3_x3
<= 300.650088

a3_local_5: 
+1.32023342653073916 a3_x3
+1.32750274105753707 a3_x4
+1.61130976700376949 a3_x6
<= 142.876926

a3_local_6: 
+1.21693457628371138 a3_x3
+0.82173686202080909 a3_x4
+1.05454583308705008 a3_x5
<= 197.394866

a3_local_7: 
+1.63306264504603238 a3_x5
+2.08345460746643285 a3_x6
+2.32333905432024634 a3_x2
<= 302.996638

a3_local_8: 
+0.93987587291272379 a3_x4
+1.06916438884940934 a3_x6
+0.93530986481523093 a3_x5
<= 99.038943

a3_act_1: 
+0.10000000000000001 a3_x1
-10.00000000000000000 a3_z1
<= 0.000000

a3_act_2: 
+0.10000000000000001 a3_x2
-10.00000000000000000 a3_z2
<= 0.000000

a4_local_1: 
+1.44781135716079712 a4_x4
+0.69069771766470389 a4_x6
+1.38700502572139439 a4_x5
<= 141.866842

a4_local_2: 
+0.81706054229146818 a4_x5
+1.22389951324227830 a4_x4
+1.12538773619148302 a4_x2
<= 100.135138

a4_local_3: 
+1.22914123850633450 a4_x4
+1.48961649270116503 a4_x2
+0.67131372732499128 a4_x1
<= 149.797307

a4_local_4: 
+1.25544102532665258 a4_x6
+1.42339187987506222 a4_x1
+0.70254721425541267 a4_x5
<= 226.639124

a4_local_5: 
+1.10753906095615640 a4_x3
+0.60380460951652060 a4_x6
+1.65616489877532036 a4_x1
<= 197.681634

a4_local_6: 
+1.18323237760559263 a4_x5
+0.84514252561581837 a4_x2
+0.86870095092785160 a4_x1
<= 154.713301

a4_local_7: 
+1.44490723431403434 a4_x2
+0.69208595282225649 a4_x4
+0.70247493631898905 a4_x1
<= 177.997623

a4_local_8: 
+1.39904028670951419 a4_x6
+0.71477569981344813 a4_x5
+0.96984013205581643 a4_x4
<= 119.317820

a4_act_1: 
+0.10000000000000001 a4_x1
-10.00000000000000000 a4_z1
<= 0.000000

a4_act_2: 
+0.10000000000000001 a4_x2
-10.00000000000000000 a4_z2
<= 0.000000

coupling_1: 
+0.11865619577802998 a1_x1
+0.25452634272546776 a2_x1
+1.53764381672183825 a3_x1
+8.42770993493419240 a4_x1
+0.85206177196040511 short_1
-0.85206177196040511 surp_1
= 599.309386

coupling_2: 
+0.09726631120995834 a1_x2
+0.41891408076927800 a2_x2
+2.30145602254406390 a3_x2
+10.28105196506740526 a4_x2
+1.03071068263568999 short_2
-1.03071068263568999 surp_2
= 580.226550

coupling_3: 
+0.10457154707990737 a1_x3
+0.30277599397866811 a2_x3
+2.31250263578076831 a3_x3
+9.56283069271089126 a4_x3
+0.71754553194331239 short_3
-0.71754553194331239 surp_3
= 540.160916

bounds
  0.000000 <= a1_x1 <= 100.000000
  0.000000 <= a1_x2 <= 100.000000
  0.000000 <= a1_x3 <= 100.000000
  0.000000 <= a1_x4 <= 100.000000
  0.000000 <= a1_x5 <= 100.000000
  0.000000 <= a1_x6 <= 100.000000
  0.000000 <= a2_x1 <= 100.000000
  0.000000 <= a2_x2 <= 100.000000
  0.000000 <= a2_x3 <= 100.000000
  0.000000 <= a2_x4 <= 100.000000
  0.000000 <= a2_x5 <= 100.000000
  0.000000 <= a2_x6 <= 100.000000
  0.000000 <= a3_x1 <= 100.000000
  0.000000 <= a3_x2 <= 100.000000
  0.000000 <= a3_x3 <= 100.000000
  0.000000 <= a3_x4 <= 100.000000
  0.000000 <= a3_x5 <= 100.000000
  0.000000 <= a3_x6 <= 100.000000
  0.000000 <= a4_x1 <= 100.000000
  0.000000 <= a4_x2 <= 100.000000
  0.000000 <= a4_x3 <= 100.000000
  0.000000 <= a4_x4 <= 100.000000
  0.000000 <= a4_x5 <= 100.000000
  0.000000 <= a4_x6 <= 100.000000
  0.000000 <= short_1 <= +inf
  0.000000 <= surp_1 <= +inf
  0.000000 <= short_2 <= +inf
  0.000000 <= surp_2 <= +inf
  0.000000 <= short_3 <= +inf
  0.000000 <= surp_3 <= +inf
 0 <= a1_z1 <= 1
 0 <= a1_z2 <= 1
 0 <= a2_z1 <= 1
 0 <= a2_z2 <= 1
 0 <= a3_z1 <= 1
 0 <= a3_z2 <= 1
 0 <= a4_z1 <= 1
 0 <= a4_z2 <= 1

binary
  a1_z1
  a1_z2
  a2_z1
  a2_z2
  a3_z1
  a3_z2
  a4_z1
  a4_z2
end
