min
obj: 
  +7.78207569299738466 a1_x1
  +2.62040292120299334 a1_x2
  +1.02293933329670939 a1_x3
  +7.19109322240713489 a1_x4
  +4.26327457704359070 a1_x5
  +6.02462654690972954 a1_x6
  +42.77102711119731282 a1_z1
  +28.11411837117618262 a1_z2
  +1.09429072695693774 a2_x1
  +2.39250112218893918 a2_x2
  +1.83547081268154932 a2_x3
  +3.26801901615166557 a2_x4
  +8.57451293041723162 a2_x5
  +5.28554157085463672 a2_x6
  +40.37542851028292290 a2_z1
  +37.67992106218490278 a2_z2
  +8.27637474833418807 a3_x1
  +6.90983361892269166 a3_x2
  +7.22469297213641504 a3_x3
  +2.76350562177570946 a3_x4
  +4.58041526640907559 a3_x5
  +5.53917660184281146 a3_x6
  +12.64013062893968176 a3_z1
  +24.71990871554554658 a3_z2
  +3.79335491985486684 a4_x1
  +7.87721431876430422 a4_x2
  +7.82223412443215427 a4_x3
  +1.26243572521241743 a4_x4
  +2.93412910760232926 a4_x5
  +4.86803560394161750 a4_x6
  +47.52172151037576953 a4_z1
  +34.58728502900768120 a4_z2
  +1000000.00000000000000000 short_1
  +1000000.00000000000000000 surp_1
  +1000000.00000000000000000 short_2
  +1000000.00000000000000000 surp_2
  +1000000.00000000000000000 short_3
  +1000000.00000000000000000 surp_3

s.t.

a1_local_1: 
+0.08867921242972139 a1_x4
+0.13625371621266164 a1_x6
+0.06330781645516469 a1_x3
<= 14.408205

a1_local_2: 
+0.07164075193576040 a1_x6
+0.13833621076180008 a1_x2
+0.09698315252008416 a1_x4
<= 20.397878

a1_local_3: 
+0.14450104004679903 a1_x2
+0.14490156228902407 a1_x5
+0.10648424990039343 a1_x4
<= 26.206949

a1_local_4: 
+0.10142073681811303 a1_x2
+0.05516341381739587 a1_x1
+0.08635583950821400 a1_x3
<= 14.036113

a1_local_5: 
+0.14968906423893721 a1_x3
+0.05719438769211850 a1_x2
+0.09778447375524886 a1_x6
<= 13.304342

a1_local_6: 
+0.11093955519301586 a1_x4
+0.12896460877189350 a1_x5
+0.08956990511233469 a1_x2
<= 12.092732

a1_local_7: 
+0.08076381496273854 a1_x1
+0.14698989791395142 a1_x5
+0.07862091660912894 a1_x3
<= 20.205654

a1_local_8: 
+0.10516762300609524 a1_x1
+0.11997749428466223 a1_x5
+0.12215878816147048 a1_x4
<= 11.089703

a1_act_1: 
+1.00000000000000000 a1_x1
-100.00000000000000000 a1_z1
<= 0.000000

a1_act_2: 
+1.00000000000000000 a1_x2
-100.00000000000000000 a1_z2
<= 0.000000

a2_local_1: 
+0.36895158926387844 a2_x2
+0.42604651335373184 a2_x3
+0.34181990557675468 a2_x4
<= 79.240468

a2_local_2: 
+0.29120345298346606 a2_x1
+0.50707755247316377 a2_x4
+0.25260518017109557 a2_x5
<= 64.827254

a2_local_3: 
+0.40291535306523185 a2_x5
+0.40082642051304895 a2_x2
+0.61416864583252806 a2_x6
<= 47.708724

a2_local_4: 
+0.23894902557216491 a2_x5
+0.33131833870032146 a2_x4
+0.49775957163541323 a2_x6
<= 48.456909

a2_local_5: 
+0.39269259062802003 a2_x1
+0.49939095828780122 a2_x3
+0.33780380892741874 a2_x2
<= 82.829000

a2_local_6: 
+0.30210660884362850 a2_x5
+0.25905216950999327 a2_x6
+0.23632118273139391 a2_x1
<= 24.012999

a2_local_7: 
+0.68646956292704464 a2_x5
+0.57494112959922850 a2_x6
+0.57722434682487278 a2_x3
<= 104.969953

a2_local_8: 
+0.23847823498202356 a2_x5
+0.26698945401167828 a2_x2
+0.23562293686075322 a2_x4
<= 26.479397

a2_act_1: 
+1.00000000000000000 a2_x1
-100.00000000000000000 a2_z1
<= 0.000000

a2_act_2: 
+1.00000000000000000 a2_x2
-100.00000000000000000 a2_z2
<= 0.000000

a3_local_1: 
+3.22235956541247592 a3_x1
+3.18920939999663666 a3_x5
+1.91665941796424133 a3_x3
<= 466.527082

a3_local_2: 
+1.55174780607159501 a3_x1
+1.52548079442144813 a3_x3
+1.35222906000305465 a3_x5
<= 260.221662

a3_local_3: 
+2.88014942788758699 a3_x5
+2.46967081206431294 a3_x2
+1.24054166269362587 a3_x4
<= 314.811439

a3_local_4: 
+3.22484974713018691 a3_x6
+2.30481158853604962 a3_x3
+1.70445351617298102 a3_x4
<= 446.913982

a3_local_5: 
+2.61446451618945419 a3_x2
+3.05844874202544448 a3_x4
+2.80165719243106848 a3_x1
<= 460.694853

a3_local_6: 
+1.33030761741660908 a3_x6
+1.10254537729103697 a3_x4
+3.15594551435689619 a3_x5
<= 291.964443

a3_local_7: 
+1.18980026063934452 a3_x6
+2.84838639807926164 a3_x5
+1.34070372434234564 a3_x3
<= 285.213164

a3_local_8: 
+2.46012875395466146 a3_x4
+2.50355308805146271 a3_x6
+1.15200101847499559 a3_x2
<= 373.159707

a3_act_1: 
+1.00000000000000000 a3_x1
-100.00000000000000000 a3_z1
<= 0.000000

a3_act_2: 
+1.00000000000000000 a3_x2
-100.00000000000000000 a3_z2
<= 0.000000

a4_local_1: 
+5.88021344068142771 a4_x2
+13.07435960398278141 a4_x3
+9.84010701932309040 a4_x4
<= 1586.707855

a4_local_2: 
+11.28391937925594490 a4_x4
+8.09521309964228664 a4_x6
+13.64417115605275832 a4_x1
<= 1255.994047

a4_local_3: 
+9.55383185245572619 a4_x3
+5.72342328978605064 a4_x2
+8.60737198265504233 a4_x5
<= 1546.016683

a4_local_4: 
+8.87266093208330098 a4_x2
+10.75484912613032051 a4_x1
+7.48655725103661318 a4_x5
<= 1047.556414

a4_local_5: 
+10.13499435026185402 a4_x6
+13.67308924187685548 a4_x2
+5.78204558436547078 a4_x3
<= 1895.714113

a4_local_6: 
+7.11782317814878596 a4_x5
+14.19431422129436626 a4_x6
+9.18516597115876898 a4_x2
<= 1229.187291

a4_local_7: 
+13.29159362054930682 a4_x6
+13.69267338436963044 a4_x5
+10.61908040198186498 a4_x3
<= 1763.462120

a4_local_8: 
+11.07692366758390001 a4_x5
+14.30766966422293152 a4_x6
+13.14329581478662234 a4_x4
<= 1249.145332

a4_act_1: 
+1.00000000000000000 a4_x1
-100.00000000000000000 a4_z1
<= 0.000000

a4_act_2: 
+1.00000000000000000 a4_x2
-100.00000000000000000 a4_z2
<= 0.000000

coupling_1: 
+1.48856433277146349 a1_x1
+6.93546831641255856 a2_x1
+57.67361537461926702 a3_x1
+277.11345373875650466 a4_x1
+20.19879034037948529 short_1
-20.19879034037948529 surp_1
= 22265.370930

coupling_2: 
+12.21290397386530735 a1_x2
+127.02354754115471280 a2_x2
+358.12573127411576479 a3_x2
+2870.80363380477410828 a4_x2
+242.87022952604027637 short_2
-242.87022952604027637 surp_2
= 235705.858454

coupling_3: 
+105.49728862267977547 a1_x3
+496.49350600786493715 a2_x3
+2399.42798249201541694 a3_x3
+6516.24808070270682947 a4_x3
+858.26013415297245501 short_3
-858.26013415297245501 surp_3
= 487489.611968

bounds
  0.000000 <= a1_x1 <= 100.000000
  0.000000 <= a1_x2 <= 100.000000
  0.000000 <= a1_x3 <= 100.000000
  0.000000 <= a1_x4 <= 100.000000
  0.000000 <= a1_x5 <= 100.000000
  0.000000 <= a1_x6 <= 100.000000
  0.000000 <= a2_x1 <= 100.000000
  0.000000 <= a2_x2 <= 100.000000
  0.000000 <= a2_x3 <= 100.000000
  0.000000 <= a2_x4 <= 100.000000
  0.000000 <= a2_x5 <= 100.000000
  0.000000 <= a2_x6 <= 100.000000
  0.000000 <= a3_x1 <= 100.000000
  0.000000 <= a3_x2 <= 100.000000
  0.000000 <= a3_x3 <= 100.000000
  0.000000 <= a3_x4 <= 100.000000
  0.000000 <= a3_x5 <= 100.000000
  0.000000 <= a3_x6 <= 100.000000
  0.000000 <= a4_x1 <= 100.000000
  0.000000 <= a4_x2 <= 100.000000
  0.000000 <= a4_x3 <= 100.000000
  0.000000 <= a4_x4 <= 100.000000
  0.000000 <= a4_x5 <= 100.000000
  0.000000 <= a4_x6 <= 100.000000
  0.000000 <= short_1 <= +inf
  0.000000 <= surp_1 <= +inf
  0.000000 <= short_2 <= +inf
  0.000000 <= surp_2 <= +inf
  0.000000 <= short_3 <= +inf
  0.000000 <= surp_3 <= +inf
 0 <= a1_z1 <= 1
 0 <= a1_z2 <= 1
 0 <= a2_z1 <= 1
 0 <= a2_z2 <= 1
 0 <= a3_z1 <= 1
 0 <= a3_z2 <= 1
 0 <= a4_z1 <= 1
 0 <= a4_z2 <= 1

binary
  a1_z1
  a1_z2
  a2_z1
  a2_z2
  a3_z1
  a3_z2
  a4_z1
  a4_z2
end
