min
obj: 
  +2.37029411872895501 a1_x1
  +4.08711411622905185 a1_x2
  +7.66136637275760890 a1_x3
  +4.89991689432673461 a1_x4
  +9.18560754331382867 a1_x5
  +7.80552329567271030 a1_x6
  +17.43087311454965516 a1_z1
  +23.40237872614093462 a1_z2
  +7.13711580461956085 a2_x1
  +9.86731097874472596 a2_x2
  +9.26152928173022261 a2_x3
  +3.50078905131847584 a2_x4
  +7.16373731684462012 a2_x5
  +7.92452849914212010 a2_x6
  +12.29105339851766843 a2_z1
  +33.65890549127213660 a2_z2
  +4.07314116822603278 a3_x1
  +2.67328543975586186 a3_x2
  +9.89718173180398963 a3_x3
  +5.22112132820410846 a3_x4
  +8.01142911451852413 a3_x5
  +2.58297506253818687 a3_x6
  +49.51256436548434436 a3_z1
  +27.09261525514139990 a3_z2
  +6.63650565601125653 a4_x1
  +8.20462741556096375 a4_x2
  +7.12140565612760490 a4_x3
  +6.26647229654029836 a4_x4
  +7.50796663445631296 a4_x5
  +5.57360575198759278 a4_x6
  +9.04054185098157959 a4_z1
  +27.56107960188447947 a4_z2
  +1000000.00000000000000000 short_1
  +1000000.00000000000000000 surp_1
  +1000000.00000000000000000 short_2
  +1000000.00000000000000000 surp_2
  +1000000.00000000000000000 short_3
  +1000000.00000000000000000 surp_3

s.t.

a1_local_1: 
+0.13165649039376712 a1_x3
+0.09461766637496948 a1_x2
+0.05260010021145917 a1_x1
<= 19.506841

a1_local_2: 
+0.11184374746816522 a1_x2
+0.13536689756057896 a1_x1
+0.08049528102114248 a1_x5
<= 13.656956

a1_local_3: 
+0.05052550803160588 a1_x4
+0.09891980936169364 a1_x1
+0.12946813061984647 a1_x2
<= 19.496998

a1_local_4: 
+0.08371851027522859 a1_x2
+0.14474765578933677 a1_x5
+0.05770272586103400 a1_x1
<= 11.435870

a1_local_5: 
+0.06230245766185330 a1_x6
+0.10746080283071419 a1_x2
+0.11548177741338389 a1_x5
<= 12.403982

a1_local_6: 
+0.13582696462030638 a1_x1
+0.09243102718792183 a1_x6
+0.11549181048212116 a1_x5
<= 12.358368

a1_local_7: 
+0.12190679423329430 a1_x5
+0.12579723798032078 a1_x4
+0.12472186077572289 a1_x1
<= 14.611922

a1_local_8: 
+0.14226835532643789 a1_x6
+0.10805879833041243 a1_x5
+0.12523873946530140 a1_x2
<= 26.139632

a1_act_1: 
+1.00000000000000000 a1_x1
-100.00000000000000000 a1_z1
<= 0.000000

a1_act_2: 
+1.00000000000000000 a1_x2
-100.00000000000000000 a1_z2
<= 0.000000

a2_local_1: 
+0.60985066598053461 a2_x6
+0.63676979229140496 a2_x1
+0.67530625543603739 a2_x3
<= 130.507252

a2_local_2: 
+0.55559784148045910 a2_x5
+0.50357863186560414 a2_x4
+0.35955563751158837 a2_x2
<= 61.318182

a2_local_3: 
+0.62574011307514898 a2_x1
+0.31125431327357905 a2_x6
+0.61889551639039064 a2_x3
<= 84.837584

a2_local_4: 
+0.24485312310460663 a2_x6
+0.57897019630146507 a2_x2
+0.63979303083761030 a2_x1
<= 93.486975

a2_local_5: 
+0.56302103162346795 a2_x1
+0.35863055138360755 a2_x6
+0.59322906296440114 a2_x2
<= 58.715866

a2_local_6: 
+0.53503371603710126 a2_x2
+0.46658843108408976 a2_x3
+0.53671075354728992 a2_x5
<= 83.606820

a2_local_7: 
+0.32317965245299313 a2_x1
+0.64497908506506463 a2_x4
+0.62322398699758264 a2_x3
<= 76.702487

a2_local_8: 
+0.26993552749676358 a2_x1
+0.23590559571345707 a2_x5
+0.47902267806306648 a2_x3
<= 55.637553

a2_act_1: 
+1.00000000000000000 a2_x1
-100.00000000000000000 a2_z1
<= 0.000000

a2_act_2: 
+1.00000000000000000 a2_x2
-100.00000000000000000 a2_z2
<= 0.000000

a3_local_1: 
+1.67638742773783189 a3_x2
+1.36436836675838635 a3_x1
+1.86760844542599158 a3_x5
<= 328.124520

a3_local_2: 
+2.63724360841521577 a3_x6
+2.71725635391394649 a3_x5
+2.17765999021275825 a3_x3
<= 321.808483

a3_local_3: 
+1.79203719671662975 a3_x5
+1.95496675623809435 a3_x1
+2.30017507198077853 a3_x4
<= 274.339159

a3_local_4: 
+1.60394142314619637 a3_x5
+2.49493036198365692 a3_x2
+1.98178505812947803 a3_x6
<= 237.772527

a3_local_5: 
+3.22211658732533568 a3_x5
+1.87901892479908805 a3_x1
+2.52521668408888544 a3_x6
<= 442.637547

a3_local_6: 
+1.89395764899268082 a3_x2
+2.68113097241054765 a3_x3
+2.17255529928409352 a3_x1
<= 462.752919

a3_local_7: 
+2.69747278656527456 a3_x4
+1.42813261727753482 a3_x3
+3.11298945308389063 a3_x6
<= 306.837053

a3_local_8: 
+1.73125055790043070 a3_x5
+1.78153778449639555 a3_x6
+1.87710591073465327 a3_x4
<= 282.983747

a3_act_1: 
+1.00000000000000000 a3_x1
-100.00000000000000000 a3_z1
<= 0.000000

a3_act_2: 
+1.00000000000000000 a3_x2
-100.00000000000000000 a3_z2
<= 0.000000

a4_local_1: 
+9.80891860162576279 a4_x2
+14.18008387288876548 a4_x3
+6.61409100471709266 a4_x1
<= 1198.224971

a4_local_2: 
+9.29653291862696918 a4_x2
+11.86378350859548014 a4_x1
+10.73947649569903717 a4_x6
<= 1166.615606

a4_local_3: 
+7.72219973776760504 a4_x5
+5.01201374675739242 a4_x3
+10.03627165200717108 a4_x2
<= 1224.709820

a4_local_4: 
+13.31227990771364844 a4_x2
+10.24675404102811882 a4_x3
+12.98328756598882627 a4_x4
<= 1570.838713

a4_local_5: 
+7.58059039556487058 a4_x1
+5.42909181989843503 a4_x3
+5.90121864907429217 a4_x2
<= 754.967512

a4_local_6: 
+5.46577448120323517 a4_x2
+8.26820867746205046 a4_x6
+14.74106464345025458 a4_x3
<= 1516.205411

a4_local_7: 
+14.22633210049730579 a4_x4
+11.39256435803327605 a4_x2
+5.11990381987565257 a4_x5
<= 1299.590510

a4_local_8: 
+13.37029895814111669 a4_x5
+13.10617920790094360 a4_x2
+6.13951944434552033 a4_x4
<= 1749.289179

a4_act_1: 
+1.00000000000000000 a4_x1
-100.00000000000000000 a4_z1
<= 0.000000

a4_act_2: 
+1.00000000000000000 a4_x2
-100.00000000000000000 a4_z2
<= 0.000000

coupling_1: 
+9.85460783045858335 a1_x1
+24.86230591546565449 a2_x1
+159.50745776172465185 a3_x1
+865.60207228898036647 a4_x1
+69.65874967369205706 short_1
-69.65874967369205706 surp_1
= 71336.006389

coupling_2: 
+11.27784428735143862 a1_x2
+41.81998265350360100 a2_x2
+255.90750782201951097 a3_x2
+970.48496881643620782 a4_x2
+79.91168049773078508 short_2
-79.91168049773078508 surp_2
= 83868.700555

coupling_3: 
+164.08760953072652455 a1_x3
+566.73093915030096923 a2_x3
+3309.47291516601217154 a3_x3
+19363.75528252143703867 a4_x3
+1515.67084532085800674 short_3
-1515.67084532085800674 surp_3
= 1708839.713224

bounds
  0.000000 <= a1_x1 <= 100.000000
  0.000000 <= a1_x2 <= 100.000000
  0.000000 <= a1_x3 <= 100.000000
  0.000000 <= a1_x4 <= 100.000000
  0.000000 <= a1_x5 <= 100.000000
  0.000000 <= a1_x6 <= 100.000000
  0.000000 <= a2_x1 <= 100.000000
  0.000000 <= a2_x2 <= 100.000000
  0.000000 <= a2_x3 <= 100.000000
  0.000000 <= a2_x4 <= 100.000000
  0.000000 <= a2_x5 <= 100.000000
  0.000000 <= a2_x6 <= 100.000000
  0.000000 <= a3_x1 <= 100.000000
  0.000000 <= a3_x2 <= 100.000000
  0.000000 <= a3_x3 <= 100.000000
  0.000000 <= a3_x4 <= 100.000000
  0.000000 <= a3_x5 <= 100.000000
  0.000000 <= a3_x6 <= 100.000000
  0.000000 <= a4_x1 <= 100.000000
  0.000000 <= a4_x2 <= 100.000000
  0.000000 <= a4_x3 <= 100.000000
  0.000000 <= a4_x4 <= 100.000000
  0.000000 <= a4_x5 <= 100.000000
  0.000000 <= a4_x6 <= 100.000000
  0.000000 <= short_1 <= +inf
  0.000000 <= surp_1 <= +inf
  0.000000 <= short_2 <= +inf
  0.000000 <= surp_2 <= +inf
  0.000000 <= short_3 <= +inf
  0.000000 <= surp_3 <= +inf
 0 <= a1_z1 <= 1
 0 <= a1_z2 <= 1
 0 <= a2_z1 <= 1
 0 <= a2_z2 <= 1
 0 <= a3_z1 <= 1
 0 <= a3_z2 <= 1
 0 <= a4_z1 <= 1
 0 <= a4_z2 <= 1

binary
  a1_z1
  a1_z2
  a2_z1
  a2_z2
  a3_z1
  a3_z2
  a4_z1
  a4_z2
end
