min
obj: 
  +1.58690782181034451 a1_x1
  +1.85914319529187777 a1_x2
  +3.32311090405199927 a1_x3
  +9.20870591814637862 a1_x4
  +9.62032466035919853 a1_x5
  +2.65221673698665317 a1_x6
  +45.97121590191820673 a1_z1
  +15.23159126469524693 a1_z2
  +9.69669699253390860 a2_x1
  +9.50992409015265672 a2_x2
  +7.57539983332453648 a2_x3
  +7.25458697589536605 a2_x4
  +4.07761765395989872 a2_x5
  +7.08231795774132511 a2_x6
  +41.74035632470042145 a2_z1
  +13.29578844905750223 a2_z2
  +8.20725746769122999 a3_x1
  +8.76504266892960793 a3_x2
  +7.77977201232387294 a3_x3
  +6.04838547653606717 a3_x4
  +6.48681552366104786 a3_x5
  +7.59141867997845843 a3_x6
  +13.33539359650109901 a3_z1
  +17.07642873173313092 a3_z2
  +4.07491661896622936 a4_x1
  +3.95786841150633606 a4_x2
  +4.77265222387028487 a4_x3
  +6.62265288598760282 a4_x4
  +9.50730455200969438 a4_x5
  +5.10859874083684673 a4_x6
  +30.99543174940450641 a4_z1
  +14.10084107909216655 a4_z2
  +1000000.00000000000000000 short_1
  +1000000.00000000000000000 surp_1
  +1000000.00000000000000000 short_2
  +1000000.00000000000000000 surp_2
  +1000000.00000000000000000 short_3
  +1000000.00000000000000000 surp_3

s.t.

a1_local_1: 
+0.53246830785528032 a1_x4
+0.69012198110526712 a1_x1
+0.49011136726776250 a1_x3
<= 75.931814

a1_local_2: 
+0.68323481545607501 a1_x3
+0.60389170852950547 a1_x5
+0.41049359473445879 a1_x2
<= 84.219465

a1_local_3: 
+0.50958828296615233 a1_x1
+0.73980277515074655 a1_x2
+0.43933089550231103 a1_x5
<= 105.894599

a1_local_4: 
+0.45062289360061847 a1_x3
+0.63146466142478874 a1_x5
+0.63102407967896335 a1_x6
<= 112.678985

a1_local_5: 
+0.53247556794846995 a1_x4
+0.60570088277220480 a1_x5
+0.59126661511278178 a1_x6
<= 93.251726

a1_local_6: 
+0.53883637614146029 a1_x4
+0.56651283452979528 a1_x6
+0.62347298903782145 a1_x1
<= 112.353690

a1_local_7: 
+0.62936826550831781 a1_x5
+0.54691841509895278 a1_x2
+0.55206506282928380 a1_x4
<= 62.794794

a1_local_8: 
+0.58622759388607082 a1_x2
+0.47341285231839836 a1_x6
+0.65743249039449403 a1_x3
<= 62.937929

a1_act_1: 
+0.00999950003749688 a1_x1
-0.99995000374968757 a1_z1
<= 0.000000

a1_act_2: 
+0.00999950003749688 a1_x2
-0.99995000374968757 a1_z2
<= 0.000000

a2_local_1: 
+0.28794922404925860 a2_x5
+0.51140652514905904 a2_x3
+0.62428331511328938 a2_x6
<= 46.435218

a2_local_2: 
+0.60324884591390660 a2_x5
+0.51995823675303232 a2_x1
+0.47969357296189841 a2_x4
<= 98.914675

a2_local_3: 
+0.62289672442239286 a2_x6
+0.37318171882349138 a2_x1
+0.50512066611548001 a2_x3
<= 81.788260

a2_local_4: 
+0.28299181123901129 a2_x4
+0.66876191396897688 a2_x2
+0.54579570241004216 a2_x5
<= 68.531676

a2_local_5: 
+0.50756335340291669 a2_x5
+0.63772816619695083 a2_x3
+0.56737692429587161 a2_x1
<= 93.620667

a2_local_6: 
+0.58817597891522488 a2_x6
+0.24483118808278814 a2_x2
+0.68910359429491985 a2_x1
<= 76.882779

a2_local_7: 
+0.55093367411952043 a2_x2
+0.48717608762904308 a2_x1
+0.52877324142735838 a2_x3
<= 50.424915

a2_local_8: 
+0.41715187926631236 a2_x6
+0.34788775042305126 a2_x3
+0.34647969473880214 a2_x5
<= 53.102314

a2_act_1: 
+0.00999950003749688 a2_x1
-0.99995000374968757 a2_z1
<= 0.000000

a2_act_2: 
+0.00999950003749688 a2_x2
-0.99995000374968757 a2_z2
<= 0.000000

a3_local_1: 
+0.70503740847773999 a3_x2
+0.60476653688604631 a3_x3
+0.37037776459967331 a3_x1
<= 56.197031

a3_local_2: 
+0.49574343623345007 a3_x6
+0.80971240511796694 a3_x2
+0.31401316282845304 a3_x3
<= 78.972641

a3_local_3: 
+0.69477170374508634 a3_x4
+0.53868829008248920 a3_x2
+0.47655766262138111 a3_x3
<= 59.190490

a3_local_4: 
+0.58951766107536552 a3_x4
+0.65721552065197231 a3_x1
+0.46961333743238970 a3_x3
<= 96.602388

a3_local_5: 
+0.53447684292787678 a3_x3
+0.53741971666554778 a3_x4
+0.65231476490492857 a3_x6
<= 57.841596

a3_local_6: 
+0.67314669660253013 a3_x3
+0.45454329667832333 a3_x4
+0.58332145194386853 a3_x5
<= 109.188862

a3_local_7: 
+0.46365429726410096 a3_x5
+0.59152824592302933 a3_x6
+0.65963552580478635 a3_x2
<= 86.025906

a3_local_8: 
+0.55179200407085471 a3_x4
+0.62769603711190181 a3_x6
+0.54911134502711179 a3_x5
<= 58.144802

a3_act_1: 
+0.00999950003749688 a3_x1
-0.99995000374968757 a3_z1
<= 0.000000

a3_act_2: 
+0.00999950003749688 a3_x2
-0.99995000374968757 a3_z2
<= 0.000000

a4_local_1: 
+0.68273213045907311 a4_x4
+0.32570646856175339 a4_x6
+0.65405820411936333 a4_x5
<= 66.898944

a4_local_2: 
+0.44104166329832906 a4_x5
+0.66064954687021404 a4_x4
+0.60747380804049844 a4_x2
<= 54.052014

a4_local_3: 
+0.60116332172399300 a4_x4
+0.72855972185531837 a4_x2
+0.32833426915854536 a4_x1
<= 73.264686

a4_local_4: 
+0.62033979026957820 a4_x6
+0.70332783652929676 a4_x1
+0.34714334066969321 a4_x5
<= 111.987153

a4_local_5: 
+0.53199719226271058 a4_x3
+0.29003253091656633 a4_x6
+0.79552505833237186 a4_x1
<= 94.954732

a4_local_6: 
+0.69856826325990218 a4_x5
+0.49896348130808549 a4_x2
+0.51287213405190923 a4_x1
<= 91.341147

a4_local_7: 
+0.82597002230669159 a4_x2
+0.39562557118909619 a4_x4
+0.40156435308924626 a4_x1
<= 101.750962

a4_local_8: 
+0.75775525407884992 a4_x6
+0.38714041844742525 a4_x5
+0.52528970227889493 a4_x4
<= 64.625519

a4_act_1: 
+0.00999950003749688 a4_x1
-0.99995000374968757 a4_z1
<= 0.000000

a4_act_2: 
+0.00999950003749688 a4_x2
-0.99995000374968757 a4_z2
<= 0.000000

coupling_1: 
+0.01370841099980450 a1_x1
+0.02940555858444144 a2_x1
+0.17764477676633794 a3_x1
+0.97365764019045731 a4_x1
+0.09843913240826858 short_1
-0.09843913240826858 surp_1
= 69.238520

coupling_2: 
+0.00913766452519486 a1_x2
+0.03935480113651250 a2_x2
+0.21620983454489093 a3_x2
+0.96585140995110641 a4_x2
+0.09682991287835803 short_2
-0.09682991287835803 surp_2
= 54.509269

coupling_3: 
+0.01056721741544845 a1_x3
+0.03059627447326784 a2_x3
+0.23368419812532643 a3_x3
+0.96634805412012448 a4_x3
+0.07250977778625123 short_3
-0.07250977778625123 surp_3
= 54.584617

bounds
  0.000000 <= a1_x1 <= 100.000000
  0.000000 <= a1_x2 <= 100.000000
  0.000000 <= a1_x3 <= 100.000000
  0.000000 <= a1_x4 <= 100.000000
  0.000000 <= a1_x5 <= 100.000000
  0.000000 <= a1_x6 <= 100.000000
  0.000000 <= a2_x1 <= 100.000000
  0.000000 <= a2_x2 <= 100.000000
  0.000000 <= a2_x3 <= 100.000000
  0.000000 <= a2_x4 <= 100.000000
  0.000000 <= a2_x5 <= 100.000000
  0.000000 <= a2_x6 <= 100.000000
  0.000000 <= a3_x1 <= 100.000000
  0.000000 <= a3_x2 <= 100.000000
  0.000000 <= a3_x3 <= 100.000000
  0.000000 <= a3_x4 <= 100.000000
  0.000000 <= a3_x5 <= 100.000000
  0.000000 <= a3_x6 <= 100.000000
  0.000000 <= a4_x1 <= 100.000000
  0.000000 <= a4_x2 <= 100.000000
  0.000000 <= a4_x3 <= 100.000000
  0.000000 <= a4_x4 <= 100.000000
  0.000000 <= a4_x5 <= 100.000000
  0.000000 <= a4_x6 <= 100.000000
  0.000000 <= short_1 <= +inf
  0.000000 <= surp_1 <= +inf
  0.000000 <= short_2 <= +inf
  0.000000 <= surp_2 <= +inf
  0.000000 <= short_3 <= +inf
  0.000000 <= surp_3 <= +inf
 0 <= a1_z1 <= 1
 0 <= a1_z2 <= 1
 0 <= a2_z1 <= 1
 0 <= a2_z2 <= 1
 0 <= a3_z1 <= 1
 0 <= a3_z2 <= 1
 0 <= a4_z1 <= 1
 0 <= a4_z2 <= 1

binary
  a1_z1
  a1_z2
  a2_z1
  a2_z2
  a3_z1
  a3_z2
  a4_z1
  a4_z2
end
