min
obj: 
  +3.04305245350352704 a1_x1
  +8.52421046785006808 a1_x2
  +7.69307565210918742 a1_x3
  +6.91899621560824230 a1_x4
  +9.20970734213053355 a1_x5
  +1.67836132765545631 a1_x6
  +29.95730103851083470 a1_z1
  +31.08072985890714435 a1_z2
  +8.69577677526249104 a2_x1
  +6.90777420422215815 a2_x2
  +5.08754459362986733 a2_x3
  +7.59170235780382363 a2_x4
  +8.27944903727416381 a2_x5
  +1.03512879040065853 a2_x6
  +28.92886188645300649 a2_z1
  +23.93421358976911506 a2_z2
  +5.14038055583452635 a3_x1
  +3.33875162916421697 a3_x2
  +6.11068986646011059 a3_x3
  +6.55082117265498010 a3_x4
  +5.19513264683116827 a3_x5
  +3.93701514527552376 a3_x6
  +16.85304582879687985 a3_z1
  +38.53959756350231913 a3_z2
  +1.41634150693496075 a4_x1
  +8.54382197580174818 a4_x2
  +7.14956107064012691 a4_x3
  +5.56590579337685210 a4_x4
  +2.52647125500070402 a4_x5
  +2.35011295395534869 a4_x6
  +43.90402305541062589 a4_z1
  +7.45391026181894656 a4_z2
  +1000000.00000000000000000 short_1
  +1000000.00000000000000000 surp_1
  +1000000.00000000000000000 short_2
  +1000000.00000000000000000 surp_2
  +1000000.00000000000000000 short_3
  +1000000.00000000000000000 surp_3

s.t.

a1_local_1: 
+0.61083524062177030 a1_x4
+0.75992141376050704 a1_x3
+1.63710266451244379 a1_x1
<= 186.848748

a1_local_2: 
+0.75759939178739077 a1_x6
+1.31995882103431694 a1_x4
+0.80353739707727578 a1_x2
<= 128.795869

a1_local_3: 
+1.59644957130407827 a1_x3
+0.94289544637669398 a1_x1
+0.62638997057898815 a1_x4
<= 132.971643

a1_local_4: 
+1.30164030725809843 a1_x3
+0.73019925673316299 a1_x1
+1.36948920555451958 a1_x2
<= 168.772671

a1_local_5: 
+0.73949401415506255 a1_x3
+1.27140915932779497 a1_x2
+1.35227598987746878 a1_x4
<= 132.835246

a1_local_6: 
+0.72831567822513832 a1_x3
+1.37303099452278721 a1_x5
+0.95811467466826150 a1_x4
<= 106.295057

a1_local_7: 
+1.24968984488396395 a1_x5
+1.05297176690593752 a1_x6
+0.80019854853893901 a1_x1
<= 137.095939

a1_local_8: 
+1.11084721022040034 a1_x2
+0.90021381050377958 a1_x3
+1.00572406568995976 a1_x6
<= 150.508681

a1_act_1: 
+0.10000000000000001 a1_x1
-10.00000000000000000 a1_z1
<= 0.000000

a1_act_2: 
+0.10000000000000001 a1_x2
-10.00000000000000000 a1_z2
<= 0.000000

a2_local_1: 
+0.84969595426924693 a2_x6
+1.04151493730832767 a2_x3
+1.17689156335929268 a2_x1
<= 103.693852

a2_local_2: 
+0.72364910021030615 a2_x4
+0.90103146396445422 a2_x1
+1.38188522546270143 a2_x5
<= 157.971152

a2_local_3: 
+0.40249111583787184 a2_x6
+0.47796984006598681 a2_x5
+0.64586124938231404 a2_x3
<= 93.621030

a2_local_4: 
+0.80080234873124045 a2_x4
+1.24874758619821757 a2_x3
+0.85059161206027145 a2_x6
<= 141.842455

a2_local_5: 
+1.21231804015435918 a2_x6
+1.10155817127043698 a2_x2
+0.82486605567023852 a2_x5
<= 178.989525

a2_local_6: 
+1.05660855988876246 a2_x2
+0.89867475651001116 a2_x1
+1.11274962688780032 a2_x4
<= 127.361618

a2_local_7: 
+0.38064717660259567 a2_x6
+0.66515308649609706 a2_x2
+0.63256764105431829 a2_x5
<= 76.503237

a2_local_8: 
+1.38757959033965705 a2_x2
+0.72067938081679073 a2_x4
+1.00302164875986444 a2_x5
<= 135.378183

a2_act_1: 
+0.10000000000000001 a2_x1
-10.00000000000000000 a2_z1
<= 0.000000

a2_act_2: 
+0.10000000000000001 a2_x2
-10.00000000000000000 a2_z2
<= 0.000000

a3_local_1: 
+0.80837659579852439 a3_x6
+1.23704719458408796 a3_x5
+1.09748725790032786 a3_x2
<= 209.654130

a3_local_2: 
+1.45844806867430399 a3_x4
+0.68566034093279526 a3_x3
+1.02199188569644406 a3_x1
<= 136.287525

a3_local_3: 
+0.95220563932964075 a3_x2
+0.92308011409685631 a3_x4
+1.08332958832982995 a3_x3
<= 160.069237

a3_local_4: 
+0.88350038998181013 a3_x5
+1.13186141323671463 a3_x2
+1.01662474004638970 a3_x1
<= 201.358546

a3_local_5: 
+1.99668176172510758 a3_x6
+2.34269666815837185 a3_x2
+1.19148638038893551 a3_x3
<= 384.656229

a3_local_6: 
+2.83499625266557409 a3_x1
+2.95640233982824663 a3_x4
+1.18904656470123071 a3_x3
<= 394.926956

a3_local_7: 
+1.14390144253803605 a3_x2
+0.97424530062977965 a3_x6
+0.87420118798106050 a3_x5
<= 209.128680

a3_local_8: 
+1.81502252551999987 a3_x2
+1.42867348876972722 a3_x3
+2.04191550112984421 a3_x4
<= 240.798400

a3_act_1: 
+0.10000000000000001 a3_x1
-10.00000000000000000 a3_z1
<= 0.000000

a3_act_2: 
+0.10000000000000001 a3_x2
-10.00000000000000000 a3_z2
<= 0.000000

a4_local_1: 
+0.91516494212742927 a4_x4
+0.76039190621515773 a4_x5
+1.31511131539719917 a4_x6
<= 110.334568

a4_local_2: 
+1.03438247948206663 a4_x3
+1.20325285796031078 a4_x1
+0.83108051095357127 a4_x2
<= 203.522260

a4_local_3: 
+0.69499156390075523 a4_x4
+0.88579766023522089 a4_x6
+1.43886638621530061 a4_x2
<= 93.608125

a4_local_4: 
+1.17999778556247592 a4_x2
+1.07205633846931692 a4_x3
+0.84745921749617925 a4_x1
<= 183.939665

a4_local_5: 
+0.74337391844943035 a4_x4
+1.34521803251566108 a4_x5
+0.87583653270600847 a4_x2
<= 203.595708

a4_local_6: 
+1.55210019956258849 a4_x6
+0.64428830064052511 a4_x5
+1.18409899428893461 a4_x3
<= 232.138256

a4_local_7: 
+0.63264775270628981 a4_x4
+1.48550140315064083 a4_x3
+1.58065842441118298 a4_x5
<= 242.828094

a4_local_8: 
+1.10367467861483526 a4_x1
+0.64935992640976525 a4_x6
+1.53997799884092412 a4_x4
<= 181.905829

a4_act_1: 
+0.10000000000000001 a4_x1
-10.00000000000000000 a4_z1
<= 0.000000

a4_act_2: 
+0.10000000000000001 a4_x2
-10.00000000000000000 a4_z2
<= 0.000000

coupling_1: 
+0.10725796758020070 a1_x1
+0.19443161526329039 a2_x1
+0.87246532458146475 a3_x1
+9.32331669675041397 a4_x1
+0.74747233760096843 short_1
-0.74747233760096843 surp_1
= 211.842445

coupling_2: 
+0.07834828639954794 a1_x2
+0.44186832423028660 a2_x2
+2.97242642407638069 a3_x2
+12.76352101563985109 a4_x2
+1.04443415810274276 short_2
-1.04443415810274276 surp_2
= 539.980238

coupling_3: 
+0.10810418786872097 a1_x3
+0.73172593510602113 a2_x3
+3.83888261230462735 a3_x3
+9.25033543764627275 a4_x3
+1.66838195881439644 short_3
-1.66838195881439644 surp_3
= 290.277091

bounds
  0.000000 <= a1_x1 <= 100.000000
  0.000000 <= a1_x2 <= 100.000000
  0.000000 <= a1_x3 <= 100.000000
  0.000000 <= a1_x4 <= 100.000000
  0.000000 <= a1_x5 <= 100.000000
  0.000000 <= a1_x6 <= 100.000000
  0.000000 <= a2_x1 <= 100.000000
  0.000000 <= a2_x2 <= 100.000000
  0.000000 <= a2_x3 <= 100.000000
  0.000000 <= a2_x4 <= 100.000000
  0.000000 <= a2_x5 <= 100.000000
  0.000000 <= a2_x6 <= 100.000000
  0.000000 <= a3_x1 <= 100.000000
  0.000000 <= a3_x2 <= 100.000000
  0.000000 <= a3_x3 <= 100.000000
  0.000000 <= a3_x4 <= 100.000000
  0.000000 <= a3_x5 <= 100.000000
  0.000000 <= a3_x6 <= 100.000000
  0.000000 <= a4_x1 <= 100.000000
  0.000000 <= a4_x2 <= 100.000000
  0.000000 <= a4_x3 <= 100.000000
  0.000000 <= a4_x4 <= 100.000000
  0.000000 <= a4_x5 <= 100.000000
  0.000000 <= a4_x6 <= 100.000000
  0.000000 <= short_1 <= +inf
  0.000000 <= surp_1 <= +inf
  0.000000 <= short_2 <= +inf
  0.000000 <= surp_2 <= +inf
  0.000000 <= short_3 <= +inf
  0.000000 <= surp_3 <= +inf
 0 <= a1_z1 <= 1
 0 <= a1_z2 <= 1
 0 <= a2_z1 <= 1
 0 <= a2_z2 <= 1
 0 <= a3_z1 <= 1
 0 <= a3_z2 <= 1
 0 <= a4_z1 <= 1
 0 <= a4_z2 <= 1

binary
  a1_z1
  a1_z2
  a2_z1
  a2_z2
  a3_z1
  a3_z2
  a4_z1
  a4_z2
end
