min
obj: 
  +3.05711040055168581 a1_x1
  +8.05560131874530505 a1_x2
  +1.97423451738110156 a1_x3
  +4.43855917145081946 a1_x4
  +2.09177435273224699 a1_x5
  +8.36067334918018190 a1_x6
  +15.66642560195388789 a1_z1
  +12.32473257168471292 a1_z2
  +9.22293190738236213 a2_x1
  +7.63381403352449350 a2_x2
  +9.96116936913966633 a2_x3
  +9.94077753687388643 a2_x4
  +8.29981383037531018 a2_x5
  +5.15933962158974069 a2_x6
  +11.18650581061075044 a2_z1
  +36.51341922859109701 a2_z2
  +6.07766745897419902 a3_x1
  +8.77356431574039775 a3_x2
  +3.66477499322525757 a3_x3
  +8.98940674965133013 a3_x4
  +1.83133745097963319 a3_x5
  +5.96614000496332153 a3_x6
  +11.77177519345455892 a3_z1
  +18.83602233642604062 a3_z2
  +3.57390445949198776 a4_x1
  +7.85154573325681415 a4_x2
  +9.06414056673653157 a4_x3
  +3.88034584638911362 a4_x4
  +5.56052955494331336 a4_x5
  +7.24881590451171665 a4_x6
  +49.90852608237385368 a4_z1
  +15.56555023854576802 a4_z2
  +1000000.00000000000000000 short_1
  +1000000.00000000000000000 surp_1
  +1000000.00000000000000000 short_2
  +1000000.00000000000000000 surp_2
  +1000000.00000000000000000 short_3
  +1000000.00000000000000000 surp_3

s.t.

a1_local_1: 
+0.48857595054224545 a1_x5
+0.80417678527912262 a1_x1
+0.33851623088099797 a1_x6
<= 63.817730

a1_local_2: 
+0.67309119458220146 a1_x6
+0.33142601855963494 a1_x4
+0.66113919714203429 a1_x1
<= 80.653423

a1_local_3: 
+0.40330417868328156 a1_x3
+0.54721373165195375 a1_x1
+0.73341861944468456 a1_x2
<= 51.618405

a1_local_4: 
+0.35176995555940394 a1_x4
+0.35747604295752744 a1_x5
+0.86514090012966260 a1_x2
<= 109.938662

a1_local_5: 
+0.64571765334937969 a1_x4
+0.56571260956593783 a1_x1
+0.51285276203903507 a1_x2
<= 77.669573

a1_local_6: 
+0.56583557274525664 a1_x4
+0.47743481647668351 a1_x2
+0.67222473967559604 a1_x6
<= 60.535702

a1_local_7: 
+0.49241074600632256 a1_x3
+0.40631931242742997 a1_x5
+0.76969882003677081 a1_x6
<= 56.392094

a1_local_8: 
+0.41206750505630674 a1_x4
+0.53935444834359436 a1_x6
+0.73436853849320616 a1_x3
<= 52.378034

a1_act_1: 
+0.00999950003749688 a1_x1
-0.99995000374968757 a1_z1
<= 0.000000

a1_act_2: 
+0.00999950003749688 a1_x2
-0.99995000374968757 a1_z2
<= 0.000000

a2_local_1: 
+0.44028653661007133 a2_x3
+0.26797659064423018 a2_x4
+0.34218035095632082 a2_x1
<= 46.376115

a2_local_2: 
+0.68928687508009412 a2_x5
+0.66975995717254755 a2_x1
+0.28384346900607854 a2_x6
<= 107.801753

a2_local_3: 
+0.23893641348045350 a2_x1
+0.61303451322557734 a2_x5
+0.67357377337805568 a2_x3
<= 92.894293

a2_local_4: 
+0.56087033282076082 a2_x2
+0.60820612403187646 a2_x5
+0.63217956389271190 a2_x3
<= 109.291354

a2_local_5: 
+0.39821460213516391 a2_x5
+0.34356407514661369 a2_x6
+0.27228723824384471 a2_x4
<= 35.118704

a2_local_6: 
+0.61391408120970670 a2_x4
+0.35816453125501330 a2_x5
+0.28479957911726389 a2_x1
<= 78.480068

a2_local_7: 
+0.45707893606967953 a2_x4
+0.43239067335974063 a2_x5
+0.61975983238952714 a2_x1
<= 73.552852

a2_local_8: 
+0.46377004711846187 a2_x4
+0.65595381900059357 a2_x2
+0.54071318072203889 a2_x6
<= 73.380928

a2_act_1: 
+0.00999950003749688 a2_x1
-0.99995000374968757 a2_z1
<= 0.000000

a2_act_2: 
+0.00999950003749688 a2_x2
-0.99995000374968757 a2_z2
<= 0.000000

a3_local_1: 
+0.38935504944354188 a3_x3
+0.76106422488616876 a3_x1
+0.51882934677139469 a3_x2
<= 73.797714

a3_local_2: 
+0.47117552203127405 a3_x1
+0.68043027825278202 a3_x3
+0.56125597001314653 a3_x2
<= 99.583196

a3_local_3: 
+0.70601884989081820 a3_x4
+0.51651010903940942 a3_x5
+0.48451490261801439 a3_x1
<= 105.955341

a3_local_4: 
+0.65165291567723282 a3_x4
+0.63018723906727958 a3_x5
+0.42215224884645697 a3_x2
<= 107.238724

a3_local_5: 
+0.42301046648128976 a3_x6
+0.59503761023033963 a3_x3
+0.68336841283355199 a3_x2
<= 73.231019

a3_local_6: 
+0.38721326104395398 a3_x3
+0.66670280261942272 a3_x4
+0.63684634210389701 a3_x5
<= 104.380799

a3_local_7: 
+0.33392485473398842 a3_x6
+0.62470608810755324 a3_x2
+0.70585869327524953 a3_x3
<= 81.276941

a3_local_8: 
+0.41818308283620931 a3_x5
+0.53634170675183135 a3_x3
+0.73311696394786596 a3_x4
<= 76.962588

a3_act_1: 
+0.00999950003749688 a3_x1
-0.99995000374968757 a3_z1
<= 0.000000

a3_act_2: 
+0.00999950003749688 a3_x2
-0.99995000374968757 a3_z2
<= 0.000000

a4_local_1: 
+0.52496234318269286 a4_x2
+0.74472763505073414 a4_x5
+0.41206223781350942 a4_x1
<= 85.140001

a4_local_2: 
+0.57980497964627653 a4_x2
+0.50540677745012974 a4_x6
+0.63905412516065963 a4_x3
<= 112.885530

a4_local_3: 
+0.70498937722588939 a4_x5
+0.58937948088498149 a4_x2
+0.39448929707965752 a4_x1
<= 85.548467

a4_local_4: 
+0.66500127634266981 a4_x6
+0.64697927483056983 a4_x4
+0.37308326202381459 a4_x2
<= 89.619992

a4_local_5: 
+0.48611403238797785 a4_x6
+0.77820125541204055 a4_x4
+0.39761281869505150 a4_x1
<= 73.745506

a4_local_6: 
+0.64146942402042184 a4_x5
+0.25791486802359692 a4_x2
+0.72249352862103799 a4_x3
<= 50.790251

a4_local_7: 
+0.65410535763238409 a4_x6
+0.61056522807917080 a4_x2
+0.44649331840156475 a4_x3
<= 91.675214

a4_local_8: 
+0.36932026857460587 a4_x3
+0.63509260875151219 a4_x2
+0.67842458499761038 a4_x1
<= 77.268136

a4_act_1: 
+0.00999950003749688 a4_x1
-0.99995000374968757 a4_z1
<= 0.000000

a4_act_2: 
+0.00999950003749688 a4_x2
-0.99995000374968757 a4_z2
<= 0.000000

coupling_1: 
+0.00501291249340805 a1_x1
+0.02861081509683079 a2_x1
+0.23857799816012232 a3_x1
+0.96414849798907221 a4_x1
+0.07954402739097648 short_1
-0.07954402739097648 surp_1
= 46.521548

coupling_2: 
+0.01552979022401071 a1_x2
+0.03732334765145908 a2_x2
+0.32987191162299595 a3_x2
+0.92874781202205536 a4_x2
+0.11614176019443287 short_2
-0.11614176019443287 surp_2
= 102.875894

coupling_3: 
+0.00588274076163657 a1_x3
+0.03877325290995606 a2_x3
+0.25445817300275742 a3_x3
+0.95952209410435030 a4_x3
+0.08071684253491604 short_3
-0.08071684253491604 surp_3
= 42.660698

bounds
  0.000000 <= a1_x1 <= 100.000000
  0.000000 <= a1_x2 <= 100.000000
  0.000000 <= a1_x3 <= 100.000000
  0.000000 <= a1_x4 <= 100.000000
  0.000000 <= a1_x5 <= 100.000000
  0.000000 <= a1_x6 <= 100.000000
  0.000000 <= a2_x1 <= 100.000000
  0.000000 <= a2_x2 <= 100.000000
  0.000000 <= a2_x3 <= 100.000000
  0.000000 <= a2_x4 <= 100.000000
  0.000000 <= a2_x5 <= 100.000000
  0.000000 <= a2_x6 <= 100.000000
  0.000000 <= a3_x1 <= 100.000000
  0.000000 <= a3_x2 <= 100.000000
  0.000000 <= a3_x3 <= 100.000000
  0.000000 <= a3_x4 <= 100.000000
  0.000000 <= a3_x5 <= 100.000000
  0.000000 <= a3_x6 <= 100.000000
  0.000000 <= a4_x1 <= 100.000000
  0.000000 <= a4_x2 <= 100.000000
  0.000000 <= a4_x3 <= 100.000000
  0.000000 <= a4_x4 <= 100.000000
  0.000000 <= a4_x5 <= 100.000000
  0.000000 <= a4_x6 <= 100.000000
  0.000000 <= short_1 <= +inf
  0.000000 <= surp_1 <= +inf
  0.000000 <= short_2 <= +inf
  0.000000 <= surp_2 <= +inf
  0.000000 <= short_3 <= +inf
  0.000000 <= surp_3 <= +inf
 0 <= a1_z1 <= 1
 0 <= a1_z2 <= 1
 0 <= a2_z1 <= 1
 0 <= a2_z2 <= 1
 0 <= a3_z1 <= 1
 0 <= a3_z2 <= 1
 0 <= a4_z1 <= 1
 0 <= a4_z2 <= 1

binary
  a1_z1
  a1_z2
  a2_z1
  a2_z2
  a3_z1
  a3_z2
  a4_z1
  a4_z2
end
