min
obj: 
  +3.04305245350352704 a1_x1
  +8.52421046785006808 a1_x2
  +7.69307565210918742 a1_x3
  +6.91899621560824230 a1_x4
  +9.20970734213053355 a1_x5
  +1.67836132765545631 a1_x6
  +29.95730103851083470 a1_z1
  +31.08072985890714435 a1_z2
  +8.69577677526249104 a2_x1
  +6.90777420422215815 a2_x2
  +5.08754459362986733 a2_x3
  +7.59170235780382363 a2_x4
  +8.27944903727416381 a2_x5
  +1.03512879040065853 a2_x6
  +28.92886188645300649 a2_z1
  +23.93421358976911506 a2_z2
  +5.14038055583452635 a3_x1
  +3.33875162916421697 a3_x2
  +6.11068986646011059 a3_x3
  +6.55082117265498010 a3_x4
  +5.19513264683116827 a3_x5
  +3.93701514527552376 a3_x6
  +16.85304582879687985 a3_z1
  +38.53959756350231913 a3_z2
  +1.41634150693496075 a4_x1
  +8.54382197580174818 a4_x2
  +7.14956107064012691 a4_x3
  +5.56590579337685210 a4_x4
  +2.52647125500070402 a4_x5
  +2.35011295395534869 a4_x6
  +43.90402305541062589 a4_z1
  +7.45391026181894656 a4_z2
  +1000000.00000000000000000 short_1
  +1000000.00000000000000000 surp_1
  +1000000.00000000000000000 short_2
  +1000000.00000000000000000 surp_2
  +1000000.00000000000000000 short_3
  +1000000.00000000000000000 surp_3

s.t.

a1_local_1: 
+0.32057420966845834 a1_x4
+0.39881655547319073 a1_x3
+0.85917258520971374 a1_x1
<= 98.060632

a1_local_2: 
+0.44020292127886679 a1_x6
+0.76696171523614198 a1_x4
+0.46689518680276310 a1_x2
<= 74.836805

a1_local_3: 
+0.81574044103210464 a1_x3
+0.48179282396386125 a1_x1
+0.32006750481995982 a1_x4
<= 67.944737

a1_local_4: 
+0.64260247416647343 a1_x3
+0.36048964248785254 a1_x1
+0.67609857110787241 a1_x2
<= 83.320819

a1_local_5: 
+0.37011809770011750 a1_x3
+0.63634259431643780 a1_x2
+0.67681658993664717 a1_x4
<= 66.484282

a1_local_6: 
+0.39889648326338084 a1_x3
+0.75200527944347917 a1_x5
+0.52475675825018409 a1_x4
<= 58.217509

a1_local_7: 
+0.68680950089366721 a1_x5
+0.57869639946617268 a1_x6
+0.43977629168371418 a1_x1
<= 75.345730

a1_local_8: 
+0.63546041559223032 a1_x2
+0.51496752828059766 a1_x3
+0.57532469530859021 a1_x6
<= 86.098527

a1_act_1: 
+0.00999950003749688 a1_x1
-0.99995000374968757 a1_z1
<= 0.000000

a1_act_2: 
+0.00999950003749688 a1_x2
-0.99995000374968757 a1_z2
<= 0.000000

a2_local_1: 
+0.24026449497753916 a2_x6
+0.29450423903590150 a2_x3
+0.33278404550840773 a2_x1
<= 29.321019

a2_local_2: 
+0.32430602841509387 a2_x4
+0.40380059267734619 a2_x1
+0.61929698947330036 a2_x5
<= 70.795358

a2_local_3: 
+0.40249111583787184 a2_x6
+0.47796984006598681 a2_x5
+0.64586124938231404 a2_x3
<= 93.621030

a2_local_4: 
+0.38560099038809897 a2_x4
+0.60129482230625231 a2_x3
+0.40957543212242459 a2_x6
<= 68.299739

a2_local_5: 
+0.57172464644889898 a2_x6
+0.51949070718464119 a2_x2
+0.38900374194358983 a2_x5
<= 84.410790

a2_local_6: 
+0.44799715800580298 a2_x2
+0.38103395351105929 a2_x1
+0.47180071158067677 a2_x4
<= 54.000739

a2_local_7: 
+0.38064717660259567 a2_x6
+0.66515308649609706 a2_x2
+0.63256764105431829 a2_x5
<= 76.503237

a2_local_8: 
+0.65693477383290733 a2_x2
+0.34119797476051650 a2_x4
+0.47486991345575968 a2_x5
<= 64.093358

a2_act_1: 
+0.00999950003749688 a2_x1
-0.99995000374968757 a2_z1
<= 0.000000

a2_act_2: 
+0.00999950003749688 a2_x2
-0.99995000374968757 a2_z2
<= 0.000000

a3_local_1: 
+0.43916412540896549 a3_x6
+0.67204660813131256 a3_x5
+0.59622833499673300 a3_x2
<= 113.898118

a3_local_2: 
+0.76425937996545013 a3_x4
+0.35930134111975726 a3_x3
+0.53554658658642362 a3_x1
<= 71.417709

a3_local_3: 
+0.55605910967858829 a3_x2
+0.53905068947928647 a3_x4
+0.63263150468132834 a3_x3
<= 93.475562

a3_local_4: 
+0.50218270487831196 a3_x5
+0.64335141499858828 a3_x2
+0.57785074867167607 a3_x1
<= 114.452444

a3_local_5: 
+0.60492717680726626 a3_x6
+0.70975801389622750 a3_x2
+0.36098015523027449 a3_x3
<= 116.537854

a3_local_6: 
+0.66469134061111490 a3_x1
+0.69315613126423536 a3_x4
+0.27878306872440656 a3_x3
<= 92.594312

a3_local_7: 
+0.65803520434094120 a3_x2
+0.56043963372902361 a3_x6
+0.50288874196352173 a3_x5
<= 120.302352

a3_local_8: 
+0.58872131469057198 a3_x2
+0.46340501164364856 a3_x3
+0.66231639630357508 a3_x4
<= 78.105450

a3_act_1: 
+0.00999950003749688 a3_x1
-0.99995000374968757 a3_z1
<= 0.000000

a3_act_2: 
+0.00999950003749688 a3_x2
-0.99995000374968757 a3_z2
<= 0.000000

a4_local_1: 
+0.51602702371966702 a4_x4
+0.42875634124771345 a4_x5
+0.74154171199663244 a4_x6
<= 62.213505

a4_local_2: 
+0.57747459613667140 a4_x3
+0.67175147683171188 a4_x1
+0.46397526247764792 a4_x2
<= 113.622318

a4_local_3: 
+0.38039709920775339 a4_x4
+0.48483302235681563 a4_x6
+0.78754999037945661 a4_x2
<= 51.235527

a4_local_4: 
+0.65355168662442209 a4_x2
+0.59376740934225092 a4_x3
+0.46937240706433203 a4_x1
<= 101.876529

a4_local_5: 
+0.42022637349550407 a4_x4
+0.76044650119543955 a4_x5
+0.49510697211656313 a4_x2
<= 115.091859

a4_local_6: 
+0.75499499136017845 a4_x6
+0.31340401870487733 a4_x5
+0.57598653116255849 a4_x3
<= 112.920043

a4_local_7: 
+0.27999188131792924 a4_x4
+0.65744062282580895 a4_x3
+0.69955441093202964 a4_x5
<= 107.468800

a4_local_8: 
+0.55105963022109283 a4_x1
+0.32422238895329442 a4_x6
+0.76890384733203865 a4_x4
<= 90.824734

a4_act_1: 
+0.00999950003749688 a4_x1
-0.99995000374968757 a4_z1
<= 0.000000

a4_act_2: 
+0.00999950003749688 a4_x2
-0.99995000374968757 a4_z2
<= 0.000000

coupling_1: 
+0.01137877603780583 a1_x1
+0.02062684809961110 a2_x1
+0.09255804256910648 a3_x1
+0.98909139353710795 a4_x1
+0.07929779498811473 short_1
-0.07929779498811473 surp_1
= 22.473927

coupling_2: 
+0.00593742130065823 a1_x2
+0.03348584277889453 a2_x2
+0.22525761284617349 a3_x2
+0.96725027479473158 a4_x2
+0.07914972876152217 short_2
-0.07914972876152217 surp_2
= 40.920999

coupling_3: 
+0.01047927494303213 a1_x3
+0.07093117674807436 a2_x3
+0.37212902812995885 a3_x3
+0.89669799364374692 a4_x3
+0.16172762222349812 short_3
-0.16172762222349812 surp_3
= 28.138535

bounds
  0.000000 <= a1_x1 <= 100.000000
  0.000000 <= a1_x2 <= 100.000000
  0.000000 <= a1_x3 <= 100.000000
  0.000000 <= a1_x4 <= 100.000000
  0.000000 <= a1_x5 <= 100.000000
  0.000000 <= a1_x6 <= 100.000000
  0.000000 <= a2_x1 <= 100.000000
  0.000000 <= a2_x2 <= 100.000000
  0.000000 <= a2_x3 <= 100.000000
  0.000000 <= a2_x4 <= 100.000000
  0.000000 <= a2_x5 <= 100.000000
  0.000000 <= a2_x6 <= 100.000000
  0.000000 <= a3_x1 <= 100.000000
  0.000000 <= a3_x2 <= 100.000000
  0.000000 <= a3_x3 <= 100.000000
  0.000000 <= a3_x4 <= 100.000000
  0.000000 <= a3_x5 <= 100.000000
  0.000000 <= a3_x6 <= 100.000000
  0.000000 <= a4_x1 <= 100.000000
  0.000000 <= a4_x2 <= 100.000000
  0.000000 <= a4_x3 <= 100.000000
  0.000000 <= a4_x4 <= 100.000000
  0.000000 <= a4_x5 <= 100.000000
  0.000000 <= a4_x6 <= 100.000000
  0.000000 <= short_1 <= +inf
  0.000000 <= surp_1 <= +inf
  0.000000 <= short_2 <= +inf
  0.000000 <= surp_2 <= +inf
  0.000000 <= short_3 <= +inf
  0.000000 <= surp_3 <= +inf
 0 <= a1_z1 <= 1
 0 <= a1_z2 <= 1
 0 <= a2_z1 <= 1
 0 <= a2_z2 <= 1
 0 <= a3_z1 <= 1
 0 <= a3_z2 <= 1
 0 <= a4_z1 <= 1
 0 <= a4_z2 <= 1

binary
  a1_z1
  a1_z2
  a2_z1
  a2_z2
  a3_z1
  a3_z2
  a4_z1
  a4_z2
end
