min
obj: 
  +2.86702301288668870 a1_x1
  +4.61217347674817457 a1_x2
  +8.37266539443051627 a1_x3
  +3.88741117842564377 a1_x4
  +3.57352147071314707 a1_x5
  +7.90632682258909369 a1_x6
  +32.52167325628295202 a1_z1
  +46.95512094955829951 a1_z2
  +6.18957109820114049 a2_x1
  +7.65671715801393571 a2_x2
  +8.20437447093011585 a2_x3
  +3.61886914738285226 a2_x4
  +5.28592570462095690 a2_x5
  +3.39477691808076010 a2_x6
  +12.60548138304202581 a2_z1
  +31.13088232979415793 a2_z2
  +1.00384692741400694 a3_x1
  +6.98746639113835144 a3_x2
  +2.08920162411281263 a3_x3
  +9.36108080061404380 a3_x4
  +4.85098195997041159 a3_x5
  +1.72431460157976346 a3_x6
  +35.01946721881928681 a3_z1
  +33.01267747284549614 a3_z2
  +2.50332166724604033 a4_x1
  +6.42161923356443864 a4_x2
  +2.38773349159600956 a4_x3
  +7.47586240964883597 a4_x4
  +7.41060969147519710 a4_x5
  +8.58602476997859654 a4_x6
  +17.16287865875343854 a4_z1
  +23.31726507162430551 a4_z2
  +1000000.00000000000000000 short_1
  +1000000.00000000000000000 surp_1
  +1000000.00000000000000000 short_2
  +1000000.00000000000000000 surp_2
  +1000000.00000000000000000 short_3
  +1000000.00000000000000000 surp_3

s.t.

a1_local_1: 
+0.75472573801036946 a1_x3
+1.32498462638392334 a1_x1
+1.17726940492991550 a1_x2
<= 195.876542

a1_local_2: 
+0.83501334719060138 a1_x6
+1.19758564742048179 a1_x4
+0.89946252450197961 a1_x3
<= 114.840219

a1_local_3: 
+0.86023087927746555 a1_x5
+1.16247861369488459 a1_x6
+1.11929804140982836 a1_x4
<= 115.254113

a1_local_4: 
+1.20889444057699258 a1_x3
+1.39445729136045404 a1_x6
+0.71712486728394864 a1_x4
<= 111.928132

a1_local_5: 
+1.39104089118424734 a1_x4
+1.10590084617046980 a1_x5
+0.71888612788992923 a1_x2
<= 117.761669

a1_local_6: 
+1.09884614159380289 a1_x5
+1.06563975392349031 a1_x4
+0.91004551242230036 a1_x2
<= 149.558708

a1_local_7: 
+1.10034232255426989 a1_x2
+1.40128976124175919 a1_x3
+0.71362827850383004 a1_x6
<= 200.053802

a1_local_8: 
+1.33173245233488458 a1_x2
+1.28005771666042723 a1_x5
+0.75090157805100533 a1_x1
<= 175.583995

a1_act_1: 
+0.10000000000000001 a1_x1
-10.00000000000000000 a1_z1
<= 0.000000

a1_act_2: 
+0.10000000000000001 a1_x2
-10.00000000000000000 a1_z2
<= 0.000000

a2_local_1: 
+0.63988352588496811 a2_x4
+0.53762771409426813 a2_x3
+0.63805236758035289 a2_x1
<= 97.833039

a2_local_2: 
+1.19734608056762992 a2_x6
+0.70713748685113864 a2_x2
+1.41415215371054526 a2_x5
<= 129.783223

a2_local_3: 
+0.66540499150489674 a2_x6
+0.55237007187951215 a2_x4
+0.40854450639927925 a2_x5
<= 97.843652

a2_local_4: 
+0.69308902132071393 a2_x3
+0.43374738377742261 a2_x4
+0.50261180441065423 a2_x1
<= 106.019162

a2_local_5: 
+0.87198419583563425 a2_x5
+0.84711582467920143 a2_x4
+1.18047611774776473 a2_x3
<= 195.287760

a2_local_6: 
+0.71387563931575104 a2_x6
+1.40080420864129573 a2_x4
+1.27589176230556056 a2_x3
<= 189.959994

a2_local_7: 
+0.92871378714409636 a2_x6
+0.97454969749439158 a2_x3
+1.07675799998093802 a2_x5
<= 111.062357

a2_local_8: 
+0.78168112142113433 a2_x5
+1.27929404023721482 a2_x3
+1.04273300432338933 a2_x4
<= 130.612004

a2_act_1: 
+0.10000000000000001 a2_x1
-10.00000000000000000 a2_z1
<= 0.000000

a2_act_2: 
+0.10000000000000001 a2_x2
-10.00000000000000000 a2_z2
<= 0.000000

a3_local_1: 
+0.93126784523215722 a3_x4
+1.07380492639119152 a3_x2
+0.94722641192316093 a3_x6
<= 98.044679

a3_local_2: 
+1.71832187295687167 a3_x4
+2.98788100271296608 a3_x6
+1.18845630043138040 a3_x3
<= 220.107653

a3_local_3: 
+1.78346298224415190 a3_x4
+1.48746888410392120 a3_x2
+1.56300703208139669 a3_x3
<= 151.807308

a3_local_4: 
+1.69922910598085619 a3_x2
+2.21336352112616153 a3_x4
+1.13910713833385535 a3_x3
<= 261.924672

a3_local_5: 
+0.90265322112945079 a3_x4
+1.10784515757750612 a3_x6
+0.95875510752176007 a3_x1
<= 111.895866

a3_local_6: 
+0.90638225907679659 a3_x3
+1.05355645056875868 a3_x4
+1.10328726096046803 a3_x1
<= 104.618213

a3_local_7: 
+1.02241018488976732 a3_x4
+0.82643913357730203 a3_x1
+1.21001046461997408 a3_x6
<= 178.266010

a3_local_8: 
+1.00859539514839303 a3_x2
+0.99147785604639971 a3_x3
+0.99814337026916711 a3_x1
<= 116.232827

a3_act_1: 
+0.10000000000000001 a3_x1
-10.00000000000000000 a3_z1
<= 0.000000

a3_act_2: 
+0.10000000000000001 a3_x2
-10.00000000000000000 a3_z2
<= 0.000000

a4_local_1: 
+0.89633879767285585 a4_x1
+1.11564957647295571 a4_x4
+0.98904099682245017 a4_x5
<= 94.340779

a4_local_2: 
+0.92326042774078854 a4_x6
+1.08311801302585109 a4_x2
+1.00301281519550378 a4_x3
<= 117.338260

a4_local_3: 
+1.01295713808790344 a4_x1
+0.98720860182459258 a4_x4
+1.00762777197440667 a4_x5
<= 147.181969

a4_local_4: 
+0.71017452675661275 a4_x2
+1.40810457475436124 a4_x6
+1.32700371764590175 a4_x5
<= 120.320504

a4_local_5: 
+0.84812426917146100 a4_x2
+0.73876325011160293 a4_x5
+1.35361362364591487 a4_x1
<= 159.211268

a4_local_6: 
+0.84123829877085554 a4_x5
+1.18872381519138326 a4_x6
+0.98031800258427526 a4_x4
<= 209.602465

a4_local_7: 
+0.70970419192545464 a4_x1
+1.13979625326221079 a4_x5
+1.40903775316158364 a4_x2
<= 109.529798

a4_local_8: 
+1.01436104398474036 a4_x1
+0.94029390323611639 a4_x6
+1.06349727096857594 a4_x5
<= 149.223657

a4_act_1: 
+0.10000000000000001 a4_x1
-10.00000000000000000 a4_z1
<= 0.000000

a4_act_2: 
+0.10000000000000001 a4_x2
-10.00000000000000000 a4_z2
<= 0.000000

coupling_1: 
+0.07778096630006218 a1_x1
+0.60965190614247977 a2_x1
+3.01861968368211242 a3_x1
+12.85661579649468322 a4_x1
+1.18535777278742205 short_1
-1.18535777278742205 surp_1
= 984.187499

coupling_2: 
+0.07558847663897623 a1_x2
+0.40412349063321618 a2_x2
+1.93837887308523427 a3_x2
+13.22952974401342274 a4_x2
+1.09681368161947113 short_2
-1.09681368161947113 surp_2
= 623.377377

coupling_3: 
+0.12869162599353556 a1_x3
+0.46936314216879838 a2_x3
+2.38898140795629077 a3_x3
+7.77051336697099693 a4_x3
+1.38929255486363634 short_3
-1.38929255486363634 surp_3
= 476.357648

bounds
  0.000000 <= a1_x1 <= 100.000000
  0.000000 <= a1_x2 <= 100.000000
  0.000000 <= a1_x3 <= 100.000000
  0.000000 <= a1_x4 <= 100.000000
  0.000000 <= a1_x5 <= 100.000000
  0.000000 <= a1_x6 <= 100.000000
  0.000000 <= a2_x1 <= 100.000000
  0.000000 <= a2_x2 <= 100.000000
  0.000000 <= a2_x3 <= 100.000000
  0.000000 <= a2_x4 <= 100.000000
  0.000000 <= a2_x5 <= 100.000000
  0.000000 <= a2_x6 <= 100.000000
  0.000000 <= a3_x1 <= 100.000000
  0.000000 <= a3_x2 <= 100.000000
  0.000000 <= a3_x3 <= 100.000000
  0.000000 <= a3_x4 <= 100.000000
  0.000000 <= a3_x5 <= 100.000000
  0.000000 <= a3_x6 <= 100.000000
  0.000000 <= a4_x1 <= 100.000000
  0.000000 <= a4_x2 <= 100.000000
  0.000000 <= a4_x3 <= 100.000000
  0.000000 <= a4_x4 <= 100.000000
  0.000000 <= a4_x5 <= 100.000000
  0.000000 <= a4_x6 <= 100.000000
  0.000000 <= short_1 <= +inf
  0.000000 <= surp_1 <= +inf
  0.000000 <= short_2 <= +inf
  0.000000 <= surp_2 <= +inf
  0.000000 <= short_3 <= +inf
  0.000000 <= surp_3 <= +inf
 0 <= a1_z1 <= 1
 0 <= a1_z2 <= 1
 0 <= a2_z1 <= 1
 0 <= a2_z2 <= 1
 0 <= a3_z1 <= 1
 0 <= a3_z2 <= 1
 0 <= a4_z1 <= 1
 0 <= a4_z2 <= 1

binary
  a1_z1
  a1_z2
  a2_z1
  a2_z2
  a3_z1
  a3_z2
  a4_z1
  a4_z2
end
