min
obj: 
  +9.92789069156587445 a1_x1
  +4.10293210566149646 a1_x2
  +3.32901181929639423 a1_x3
  +9.10176472428019245 a1_x4
  +1.02767819950250816 a1_x5
  +7.50152284301075145 a1_x6
  +48.47610588570461232 a1_z1
  +46.46239370281180214 a1_z2
  +6.93758052846583873 a2_x1
  +8.73612443817434503 a2_x2
  +2.04228756855595339 a2_x3
  +7.91416373752481395 a2_x4
  +8.85104976446995906 a2_x5
  +5.35890260317347789 a2_x6
  +22.32551298055883748 a2_z1
  +43.59910462783197715 a2_z2
  +2.44474458582316245 a3_x1
  +8.77121756982191414 a3_x2
  +5.76281450528001393 a3_x3
  +8.52709380603204359 a3_x4
  +1.13892657158295396 a3_x5
  +2.91144295006929399 a3_x6
  +15.13786411581276603 a3_z1
  +21.64888772902043002 a3_z2
  +4.31354625098332889 a4_x1
  +3.73746776663401503 a4_x2
  +6.30470396079639350 a4_x3
  +7.23244248154489888 a4_x4
  +3.53129435828251648 a4_x5
  +2.19432544763669313 a4_x6
  +13.98335585286305616 a4_z1
  +25.76781967633817416 a4_z2
  +1000000.00000000000000000 short_1
  +1000000.00000000000000000 surp_1
  +1000000.00000000000000000 short_2
  +1000000.00000000000000000 surp_2
  +1000000.00000000000000000 short_3
  +1000000.00000000000000000 surp_3

s.t.

a1_local_1: 
+1.21501867946975217 a1_x4
+1.18164631490537930 a1_x6
+0.82303261414582640 a1_x1
<= 128.373546

a1_local_2: 
+1.05148116348112253 a1_x4
+0.91201026733257162 a1_x3
+1.09647888386693171 a1_x5
<= 154.346076

a1_local_3: 
+0.75664890650966599 a1_x4
+0.94991445195648350 a1_x3
+1.32161692351196858 a1_x2
<= 162.941027

a1_local_4: 
+1.07192480178993677 a1_x4
+1.35216756611632483 a1_x5
+0.73955331059462159 a1_x2
<= 207.259973

a1_local_5: 
+1.52554721067789356 a1_x2
+0.65550249313860254 a1_x1
+1.35918274828457331 a1_x6
<= 178.363233

a1_local_6: 
+0.70229148870958713 a1_x3
+1.42391017985627544 a1_x5
+1.14116453450411171 a1_x4
<= 223.831032

a1_local_7: 
+0.72880026951819588 a1_x6
+0.81002640736533738 a1_x4
+1.37211804361857892 a1_x3
<= 97.558206

a1_local_8: 
+1.35127531285957314 a1_x1
+0.74004164102117487 a1_x3
+1.21572688211841951 a1_x4
<= 201.196128

a1_act_1: 
+0.10000000000000001 a1_x1
-10.00000000000000000 a1_z1
<= 0.000000

a1_act_2: 
+0.10000000000000001 a1_x2
-10.00000000000000000 a1_z2
<= 0.000000

a2_local_1: 
+0.76527659051235031 a2_x3
+0.73916055019772731 a2_x1
+1.35288605396012729 a2_x6
<= 171.853028

a2_local_2: 
+0.38130267566412690 a2_x4
+0.68075693279386518 a2_x1
+0.60481592760766745 a2_x5
<= 58.607344

a2_local_3: 
+0.60709627354040507 a2_x2
+1.43189962289797412 a2_x5
+1.64718520535185808 a2_x1
<= 190.273264

a2_local_4: 
+1.07695403690108549 a2_x2
+1.03994431642959650 a2_x1
+0.92854473425577266 a2_x4
<= 169.619087

a2_local_5: 
+0.47763629274461006 a2_x4
+0.64121848835429274 a2_x5
+0.65950491884133822 a2_x2
<= 68.975935

a2_local_6: 
+1.06787208593486804 a2_x1
+1.23640084455691723 a2_x2
+0.80879918871162304 a2_x3
<= 203.369346

a2_local_7: 
+0.51088020975890436 a2_x1
+0.57675983587326018 a2_x2
+0.68388582744126880 a2_x4
<= 113.096149

a2_local_8: 
+0.65568429538975681 a2_x6
+1.52512422065191067 a2_x3
+1.26651329856328276 a2_x5
<= 155.206400

a2_act_1: 
+0.10000000000000001 a2_x1
-10.00000000000000000 a2_z1
<= 0.000000

a2_act_2: 
+0.10000000000000001 a2_x2
-10.00000000000000000 a2_z2
<= 0.000000

a3_local_1: 
+3.00618242496879606 a3_x4
+1.15810557743215892 a3_x6
+3.06899648290831895 a3_x3
<= 309.938190

a3_local_2: 
+1.07016672572159233 a3_x6
+1.05551066019918616 a3_x4
+0.93443383723757589 a3_x3
<= 122.101310

a3_local_3: 
+2.07938929707640652 a3_x2
+1.52011244657534528 a3_x1
+1.66134886064749332 a3_x4
<= 242.273879

a3_local_4: 
+1.08614038043402616 a3_x5
+1.16725675397535178 a3_x3
+2.01499305569260212 a3_x2
<= 248.288855

a3_local_5: 
+1.13078124983673733 a3_x1
+1.53559266261154770 a3_x2
+2.96694016859019971 a3_x5
<= 196.149487

a3_local_6: 
+2.02253945358991416 a3_x6
+1.73116475814952420 a3_x4
+1.55719831190744551 a3_x2
<= 311.510972

a3_local_7: 
+2.33590994515020745 a3_x2
+1.43455849429300319 a3_x3
+1.19821478062720010 a3_x5
<= 259.932306

a3_local_8: 
+1.26958460401620776 a3_x5
+1.70066513099467898 a3_x2
+3.06428236038254065 a3_x3
<= 343.943206

a3_act_1: 
+0.10000000000000001 a3_x1
-10.00000000000000000 a3_z1
<= 0.000000

a3_act_2: 
+0.10000000000000001 a3_x2
-10.00000000000000000 a3_z2
<= 0.000000

a4_local_1: 
+0.70324529153788740 a4_x1
+1.42197894821756510 a4_x4
+1.07483931909977626 a4_x6
<= 137.382062

a4_local_2: 
+1.12009862686782857 a4_x6
+1.11846103865430657 a4_x3
+0.89277852504500899 a4_x4
<= 209.447731

a4_local_3: 
+0.80718506019082659 a4_x1
+1.52835033008549059 a4_x2
+0.65430024799619313 a4_x5
<= 105.251528

a4_local_4: 
+1.09580791442912395 a4_x4
+0.91256869642245975 a4_x5
+1.04518022884542816 a4_x1
<= 111.203509

a4_local_5: 
+0.67531843618071807 a4_x4
+1.48078291132628848 a4_x6
+1.01655210253788342 a4_x2
<= 216.062013

a4_local_6: 
+1.21738940896177206 a4_x6
+1.11979119258846138 a4_x2
+0.82142985033263227 a4_x3
<= 159.549914

a4_local_7: 
+1.49656109700580608 a4_x6
+1.31532496345145566 a4_x3
+0.66819858006513477 a4_x4
<= 216.631570

a4_local_8: 
+0.94803023231847250 a4_x2
+0.93191586716542862 a4_x4
+1.07305823973322845 a4_x3
<= 134.273624

a4_act_1: 
+0.10000000000000001 a4_x1
-10.00000000000000000 a4_z1
<= 0.000000

a4_act_2: 
+0.10000000000000001 a4_x2
-10.00000000000000000 a4_z2
<= 0.000000

coupling_1: 
+0.02142228587865310 a1_x1
+0.05803941069758419 a2_x1
+0.45853878057751746 a3_x1
+0.85624516375740400 a4_x1
+0.16241754634606143 short_1
-0.16241754634606143 surp_1
= 62.012556

coupling_2: 
+0.00868045436924723 a1_x2
+0.06749455131333902 a2_x2
+0.20508981217789957 a3_x2
+0.95792677244751445 a4_x2
+0.13357320619060600 short_2
-0.13357320619060600 surp_2
= 58.657104

coupling_3: 
+0.01335555907427683 a1_x3
+0.02951571591772074 a2_x3
+0.20218170880782937 a3_x3
+0.96421983290244018 a4_x3
+0.11906536443654439 short_3
-0.11906536443654439 surp_3
= 81.605169

bounds
  0.000000 <= a1_x1 <= 100.000000
  0.000000 <= a1_x2 <= 100.000000
  0.000000 <= a1_x3 <= 100.000000
  0.000000 <= a1_x4 <= 100.000000
  0.000000 <= a1_x5 <= 100.000000
  0.000000 <= a1_x6 <= 100.000000
  0.000000 <= a2_x1 <= 100.000000
  0.000000 <= a2_x2 <= 100.000000
  0.000000 <= a2_x3 <= 100.000000
  0.000000 <= a2_x4 <= 100.000000
  0.000000 <= a2_x5 <= 100.000000
  0.000000 <= a2_x6 <= 100.000000
  0.000000 <= a3_x1 <= 100.000000
  0.000000 <= a3_x2 <= 100.000000
  0.000000 <= a3_x3 <= 100.000000
  0.000000 <= a3_x4 <= 100.000000
  0.000000 <= a3_x5 <= 100.000000
  0.000000 <= a3_x6 <= 100.000000
  0.000000 <= a4_x1 <= 100.000000
  0.000000 <= a4_x2 <= 100.000000
  0.000000 <= a4_x3 <= 100.000000
  0.000000 <= a4_x4 <= 100.000000
  0.000000 <= a4_x5 <= 100.000000
  0.000000 <= a4_x6 <= 100.000000
  0.000000 <= short_1 <= +inf
  0.000000 <= surp_1 <= +inf
  0.000000 <= short_2 <= +inf
  0.000000 <= surp_2 <= +inf
  0.000000 <= short_3 <= +inf
  0.000000 <= surp_3 <= +inf
 0 <= a1_z1 <= 1
 0 <= a1_z2 <= 1
 0 <= a2_z1 <= 1
 0 <= a2_z2 <= 1
 0 <= a3_z1 <= 1
 0 <= a3_z2 <= 1
 0 <= a4_z1 <= 1
 0 <= a4_z2 <= 1

binary
  a1_z1
  a1_z2
  a2_z1
  a2_z2
  a3_z1
  a3_z2
  a4_z1
  a4_z2
end
