min
obj: 
  +9.92789069156587445 a1_x1
  +4.10293210566149646 a1_x2
  +3.32901181929639423 a1_x3
  +9.10176472428019245 a1_x4
  +1.02767819950250816 a1_x5
  +7.50152284301075145 a1_x6
  +48.47610588570461232 a1_z1
  +46.46239370281180214 a1_z2
  +6.93758052846583873 a2_x1
  +8.73612443817434503 a2_x2
  +2.04228756855595339 a2_x3
  +7.91416373752481395 a2_x4
  +8.85104976446995906 a2_x5
  +5.35890260317347789 a2_x6
  +22.32551298055883748 a2_z1
  +43.59910462783197715 a2_z2
  +2.44474458582316245 a3_x1
  +8.77121756982191414 a3_x2
  +5.76281450528001393 a3_x3
  +8.52709380603204359 a3_x4
  +1.13892657158295396 a3_x5
  +2.91144295006929399 a3_x6
  +15.13786411581276603 a3_z1
  +21.64888772902043002 a3_z2
  +4.31354625098332889 a4_x1
  +3.73746776663401503 a4_x2
  +6.30470396079639350 a4_x3
  +7.23244248154489888 a4_x4
  +3.53129435828251648 a4_x5
  +2.19432544763669313 a4_x6
  +13.98335585286305616 a4_z1
  +25.76781967633817416 a4_z2
  +1000000.00000000000000000 short_1
  +1000000.00000000000000000 surp_1
  +1000000.00000000000000000 short_2
  +1000000.00000000000000000 surp_2
  +1000000.00000000000000000 short_3
  +1000000.00000000000000000 surp_3

s.t.

a1_local_1: 
+0.11134504074834206 a1_x4
+0.10828677723760305 a1_x6
+0.07542320254637938 a1_x1
<= 11.764229

a1_local_2: 
+0.07298177769921903 a1_x4
+0.06330130572145626 a1_x3
+0.07610500400152996 a1_x5
<= 10.712937

a1_local_3: 
+0.07752157798920740 a1_x4
+0.09732237321283835 a1_x3
+0.13540471482407490 a1_x2
<= 16.693932

a1_local_4: 
+0.08962417744879492 a1_x4
+0.11305541739845237 a1_x5
+0.06183442815288571 a1_x2
<= 17.329112

a1_local_5: 
+0.13077237350602036 a1_x2
+0.05619073357209151 a1_x1
+0.11651134280048088 a1_x6
<= 15.289585

a1_local_6: 
+0.05918217510716905 a1_x3
+0.11999305552737832 a1_x5
+0.09616605126627309 a1_x4
<= 18.862264

a1_local_7: 
+0.06623290516299683 a1_x6
+0.07361468493146865 a1_x4
+0.12469721548745545 a1_x3
<= 8.866028

a1_local_8: 
+0.14141426269262422 a1_x1
+0.07744716567446444 a1_x3
+0.12722878826710685 a1_x4
<= 21.055666

a1_act_1: 
+1.00000000000000000 a1_x1
-100.00000000000000000 a1_z1
<= 0.000000

a1_act_2: 
+1.00000000000000000 a1_x2
-100.00000000000000000 a1_z2
<= 0.000000

a2_local_1: 
+0.37638435500179446 a2_x3
+0.36353975853708448 a2_x1
+0.66538706543969173 a2_x6
<= 84.522109

a2_local_2: 
+0.38130267566412690 a2_x4
+0.68075693279386518 a2_x1
+0.60481592760766745 a2_x5
<= 58.607344

a2_local_3: 
+0.24068378150122088 a2_x2
+0.56767769955076086 a2_x5
+0.65302783320504876 a2_x1
<= 75.433981

a2_local_4: 
+0.46623041508531538 a2_x2
+0.45020832245519266 a2_x1
+0.40198168356660757 a2_x4
<= 73.430782

a2_local_5: 
+0.47763629274461006 a2_x4
+0.64121848835429274 a2_x5
+0.65950491884133822 a2_x2
<= 68.975935

a2_local_6: 
+0.49459263848049295 a2_x1
+0.57264794537031583 a2_x2
+0.37460116245623287 a2_x3
<= 94.191976

a2_local_7: 
+0.51088020975890436 a2_x1
+0.57675983587326018 a2_x2
+0.68388582744126880 a2_x4
<= 113.096149

a2_local_8: 
+0.29516976511677206 a2_x6
+0.68656602140536360 a2_x3
+0.57014699830804050 a2_x5
<= 69.869352

a2_act_1: 
+1.00000000000000000 a2_x1
-100.00000000000000000 a2_z1
<= 0.000000

a2_act_2: 
+1.00000000000000000 a2_x2
-100.00000000000000000 a2_z2
<= 0.000000

a3_local_1: 
+3.00618242496879606 a3_x4
+1.15810557743215892 a3_x6
+3.06899648290831895 a3_x3
<= 309.938190

a3_local_2: 
+2.66060178966577388 a3_x6
+2.62416451945249962 a3_x4
+2.32314860845835458 a3_x3
<= 303.562946

a3_local_3: 
+2.07938929707640652 a3_x2
+1.52011244657534528 a3_x1
+1.66134886064749332 a3_x4
<= 242.273879

a3_local_4: 
+1.08614038043402616 a3_x5
+1.16725675397535178 a3_x3
+2.01499305569260212 a3_x2
<= 248.288855

a3_local_5: 
+1.13078124983673733 a3_x1
+1.53559266261154770 a3_x2
+2.96694016859019971 a3_x5
<= 196.149487

a3_local_6: 
+2.02253945358991416 a3_x6
+1.73116475814952420 a3_x4
+1.55719831190744551 a3_x2
<= 311.510972

a3_local_7: 
+2.33590994515020745 a3_x2
+1.43455849429300319 a3_x3
+1.19821478062720010 a3_x5
<= 259.932306

a3_local_8: 
+1.26958460401620776 a3_x5
+1.70066513099467898 a3_x2
+3.06428236038254065 a3_x3
<= 343.943206

a3_act_1: 
+1.00000000000000000 a3_x1
-100.00000000000000000 a3_z1
<= 0.000000

a3_act_2: 
+1.00000000000000000 a3_x2
-100.00000000000000000 a3_z2
<= 0.000000

a4_local_1: 
+6.85564658663456150 a4_x1
+13.86228281926399220 a4_x4
+10.47816259537659001 a4_x6
<= 1339.280726

a4_local_2: 
+13.64733417055498954 a4_x6
+13.62738171900508277 a4_x3
+10.87765539509240931 a4_x4
<= 2551.920970

a4_local_3: 
+7.35240335863759054 a4_x1
+13.92127859432740422 a4_x2
+5.95982207572985345 a4_x5
<= 958.704176

a4_local_4: 
+13.03295576484224227 a4_x4
+10.85360608939362237 a4_x5
+12.43081703413924721 a4_x1
<= 1322.595310

a4_local_5: 
+5.64169317362299516 a4_x4
+12.37064234421627518 a4_x6
+8.49240114034936511 a4_x2
<= 1805.008596

a4_local_6: 
+13.76465794514763274 a4_x6
+12.66114410270273538 a4_x2
+9.28766164099062408 a4_x3
<= 1803.983156

a4_local_7: 
+13.93548617729729600 a4_x6
+12.24787473328308707 a4_x3
+6.22204605934056332 a4_x4
<= 2017.202143

a4_local_8: 
+12.09889043955518062 a4_x2
+11.89323672531353537 a4_x4
+13.69451483213136989 a4_x3
<= 1713.618207

a4_act_1: 
+1.00000000000000000 a4_x1
-100.00000000000000000 a4_z1
<= 0.000000

a4_act_2: 
+1.00000000000000000 a4_x2
-100.00000000000000000 a4_z2
<= 0.000000

coupling_1: 
+0.00245515044819603 a1_x1
+0.00665174043490856 a2_x1
+0.05255189380942652 a3_x1
+0.09813195050578100 a4_x1
+0.01861423724644573 short_1
-0.01861423724644573 surp_1
= 7.107092

coupling_2: 
+0.00377920079997628 a1_x2
+0.02938503579041694 a2_x2
+0.08928974789564131 a3_x2
+0.41705162780163169 a4_x2
+0.05815363415529494 short_2
-0.05815363415529494 surp_2
= 25.537485

coupling_3: 
+0.03145425207320915 a1_x3
+0.06951373307803593 a2_x3
+0.47616684543608201 a3_x3
+2.27087563384112379 a4_x3
+0.28041596501854932 short_3
-0.28041596501854932 surp_3
= 192.191845

bounds
  0.000000 <= a1_x1 <= 100.000000
  0.000000 <= a1_x2 <= 100.000000
  0.000000 <= a1_x3 <= 100.000000
  0.000000 <= a1_x4 <= 100.000000
  0.000000 <= a1_x5 <= 100.000000
  0.000000 <= a1_x6 <= 100.000000
  0.000000 <= a2_x1 <= 100.000000
  0.000000 <= a2_x2 <= 100.000000
  0.000000 <= a2_x3 <= 100.000000
  0.000000 <= a2_x4 <= 100.000000
  0.000000 <= a2_x5 <= 100.000000
  0.000000 <= a2_x6 <= 100.000000
  0.000000 <= a3_x1 <= 100.000000
  0.000000 <= a3_x2 <= 100.000000
  0.000000 <= a3_x3 <= 100.000000
  0.000000 <= a3_x4 <= 100.000000
  0.000000 <= a3_x5 <= 100.000000
  0.000000 <= a3_x6 <= 100.000000
  0.000000 <= a4_x1 <= 100.000000
  0.000000 <= a4_x2 <= 100.000000
  0.000000 <= a4_x3 <= 100.000000
  0.000000 <= a4_x4 <= 100.000000
  0.000000 <= a4_x5 <= 100.000000
  0.000000 <= a4_x6 <= 100.000000
  0.000000 <= short_1 <= +inf
  0.000000 <= surp_1 <= +inf
  0.000000 <= short_2 <= +inf
  0.000000 <= surp_2 <= +inf
  0.000000 <= short_3 <= +inf
  0.000000 <= surp_3 <= +inf
 0 <= a1_z1 <= 1
 0 <= a1_z2 <= 1
 0 <= a2_z1 <= 1
 0 <= a2_z2 <= 1
 0 <= a3_z1 <= 1
 0 <= a3_z2 <= 1
 0 <= a4_z1 <= 1
 0 <= a4_z2 <= 1

binary
  a1_z1
  a1_z2
  a2_z1
  a2_z2
  a3_z1
  a3_z2
  a4_z1
  a4_z2
end
