min
obj: 
  +4.00927114806491947 a1_x1
  +1.96797315584533505 a1_x2
  +5.12450639908132288 a1_x3
  +5.32896604620880687 a1_x4
  +7.73264361972508052 a1_x5
  +5.13954220661915251 a1_x6
  +7.46013036925632012 a1_z1
  +49.87266735161764331 a1_z2
  +4.20073886186967549 a2_x1
  +7.53413172178710777 a2_x2
  +3.45719216892709458 a2_x3
  +4.76571137466424233 a2_x4
  +9.38617884989886875 a2_x5
  +1.72886855476886026 a2_x6
  +29.54080410777594423 a2_z1
  +23.53717041290824596 a2_z2
  +8.21626166621846110 a3_x1
  +4.90875225577424779 a3_x2
  +9.92442060145863181 a3_x3
  +6.78612387718403109 a3_x4
  +8.67367115140907785 a3_x5
  +9.64439582433125331 a3_x6
  +44.88444155829282778 a3_z1
  +12.68276888992290807 a3_z2
  +8.69787784647402162 a4_x1
  +4.12769081519996917 a4_x2
  +7.02237149328651711 a4_x3
  +1.06108582988083655 a4_x4
  +7.09274128796206593 a4_x5
  +7.93550517031278613 a4_x6
  +37.98565391640966737 a4_z1
  +17.37310151636162914 a4_z2
  +1000000.00000000000000000 short_1
  +1000000.00000000000000000 surp_1
  +1000000.00000000000000000 short_2
  +1000000.00000000000000000 surp_2
  +1000000.00000000000000000 short_3
  +1000000.00000000000000000 surp_3

s.t.

a1_local_1: 
+0.13463297193691534 a1_x3
+0.05719871763544802 a1_x6
+0.09100731920416558 a1_x4
<= 10.691467

a1_local_2: 
+0.11360950830885895 a1_x2
+0.13716565153331864 a1_x5
+0.07599067907345147 a1_x3
<= 10.209057

a1_local_3: 
+0.08341000306760485 a1_x4
+0.05050910831042280 a1_x2
+0.06806354998598153 a1_x5
<= 11.319562

a1_local_4: 
+0.14002056070224245 a1_x3
+0.06702770766901486 a1_x6
+0.08392379830640834 a1_x5
<= 16.977303

a1_local_5: 
+0.06001096640018554 a1_x1
+0.13946943376067589 a1_x6
+0.13390078702804706 a1_x3
<= 23.180421

a1_local_6: 
+0.13463490246850496 a1_x1
+0.13401998514857136 a1_x3
+0.06340013344215988 a1_x2
<= 23.114732

a1_local_7: 
+0.06297531430205321 a1_x1
+0.14426630003982435 a1_x5
+0.08678052248882787 a1_x4
<= 11.504971

a1_local_8: 
+0.13070260743489709 a1_x3
+0.08297723944781384 a1_x1
+0.10125555787149859 a1_x6
<= 11.327183

a1_act_1: 
+1.00000000000000000 a1_x1
-100.00000000000000000 a1_z1
<= 0.000000

a1_act_2: 
+1.00000000000000000 a1_x2
-100.00000000000000000 a1_z2
<= 0.000000

a2_local_1: 
+0.52863920803033648 a2_x6
+0.58282630080425946 a2_x5
+0.58178625970216458 a2_x3
<= 93.859900

a2_local_2: 
+0.51994057711509090 a2_x4
+0.56406978040085598 a2_x5
+0.33078981155633108 a2_x3
<= 43.694634

a2_local_3: 
+0.69243414210764209 a2_x1
+0.55541336608486103 a2_x5
+0.55357487177182529 a2_x6
<= 72.494496

a2_local_4: 
+0.32500183314932224 a2_x1
+0.44844911292136991 a2_x4
+0.28652623693084900 a2_x5
<= 68.085559

a2_local_5: 
+0.38478334937367176 a2_x5
+0.45250348597243334 a2_x1
+0.33447925302892162 a2_x3
<= 77.729460

a2_local_6: 
+0.41197549470920708 a2_x6
+0.47158739250967924 a2_x2
+0.61357107736613170 a2_x4
<= 68.552122

a2_local_7: 
+0.51003588959090784 a2_x6
+0.45728351426094060 a2_x4
+0.45829857385162720 a2_x3
<= 78.669554

a2_local_8: 
+0.51195943521713549 a2_x3
+0.41274297189103570 a2_x5
+0.29283455442810263 a2_x4
<= 47.352818

a2_act_1: 
+1.00000000000000000 a2_x1
-100.00000000000000000 a2_z1
<= 0.000000

a2_act_2: 
+1.00000000000000000 a2_x2
-100.00000000000000000 a2_z2
<= 0.000000

a3_local_1: 
+3.05260896442762109 a3_x1
+2.34046593144498871 a3_x2
+2.06069930852160210 a3_x5
<= 274.082513

a3_local_2: 
+2.08153995427087413 a3_x6
+3.03795056905323824 a3_x2
+3.10901573143947862 a3_x3
<= 513.247020

a3_local_3: 
+2.81575242594358643 a3_x1
+1.09970988898367228 a3_x6
+2.18345050933810869 a3_x3
<= 219.934964

a3_local_4: 
+2.49296734043137036 a3_x1
+1.65265421710089644 a3_x2
+3.17565645508336258 a3_x3
<= 241.374608

a3_local_5: 
+2.90375853275058526 a3_x6
+1.89395152309679005 a3_x5
+2.52901055163875643 a3_x3
<= 491.779951

a3_local_6: 
+1.12274338937219942 a3_x5
+2.31781005481401969 a3_x3
+1.78021805486781126 a3_x4
<= 206.592716

a3_local_7: 
+1.54542236019619961 a3_x1
+1.19380679864705241 a3_x5
+2.40896910972650602 a3_x2
<= 266.661871

a3_local_8: 
+2.07503229163409664 a3_x1
+1.93829852246265300 a3_x3
+2.94922397680719905 a3_x6
<= 428.591800

a3_act_1: 
+1.00000000000000000 a3_x1
-100.00000000000000000 a3_z1
<= 0.000000

a3_act_2: 
+1.00000000000000000 a3_x2
-100.00000000000000000 a3_z2
<= 0.000000

a4_local_1: 
+10.62466217915622479 a4_x3
+13.98765333692142931 a4_x5
+13.56221527406703231 a4_x2
<= 2181.581726

a4_local_2: 
+13.88590547734390235 a4_x6
+9.97686681717157242 a4_x4
+10.23015912943405681 a4_x5
<= 1348.664661

a4_local_3: 
+8.93587212840996337 a4_x6
+7.46296853145503558 a4_x3
+7.81379828106607199 a4_x2
<= 1598.232117

a4_local_4: 
+7.68361154538431279 a4_x3
+7.62437218136610184 a4_x6
+14.86395310481717758 a4_x5
<= 1117.299478

a4_local_5: 
+7.74835126940429753 a4_x1
+13.31981338049969388 a4_x6
+7.21280487742475440 a4_x3
<= 1114.077257

a4_local_6: 
+6.38032442025477486 a4_x6
+7.20330247603551754 a4_x3
+9.16491823156322738 a4_x4
<= 1328.643597

a4_local_7: 
+12.39709378833591558 a4_x6
+12.16744515720235675 a4_x4
+12.84400232705640299 a4_x5
<= 1241.560265

a4_local_8: 
+14.43953424668786312 a4_x2
+14.79650118184043350 a4_x4
+10.12906806698781992 a4_x1
<= 1214.862564

a4_act_1: 
+1.00000000000000000 a4_x1
-100.00000000000000000 a4_z1
<= 0.000000

a4_act_2: 
+1.00000000000000000 a4_x2
-100.00000000000000000 a4_z2
<= 0.000000

coupling_1: 
+0.00225416120668589 a1_x1
+0.02443542252011940 a2_x1
+0.09928243483096189 a3_x1
+0.45763902092045017 a4_x1
+0.03750614771464270 short_1
-0.03750614771464270 surp_1
= 43.313593

coupling_2: 
+7807.15870607770648348 a1_x2
+46635.60280522949324222 a2_x2
+220526.32144118746509776 a3_x2
+848276.96848458214662969 a4_x2
+123949.17156767786946148 short_2
-123949.17156767786946148 surp_2
= 27671607.997043

coupling_3: 
+0.06016716148454127 a1_x3
+0.26044092240015293 a2_x3
+1.04764286096347048 a3_x3
+7.05950684942927875 a4_x3
+0.66724544800694141 short_3
-0.66724544800694141 surp_3
= 418.783877

bounds
  0.000000 <= a1_x1 <= 100.000000
  0.000000 <= a1_x2 <= 100.000000
  0.000000 <= a1_x3 <= 100.000000
  0.000000 <= a1_x4 <= 100.000000
  0.000000 <= a1_x5 <= 100.000000
  0.000000 <= a1_x6 <= 100.000000
  0.000000 <= a2_x1 <= 100.000000
  0.000000 <= a2_x2 <= 100.000000
  0.000000 <= a2_x3 <= 100.000000
  0.000000 <= a2_x4 <= 100.000000
  0.000000 <= a2_x5 <= 100.000000
  0.000000 <= a2_x6 <= 100.000000
  0.000000 <= a3_x1 <= 100.000000
  0.000000 <= a3_x2 <= 100.000000
  0.000000 <= a3_x3 <= 100.000000
  0.000000 <= a3_x4 <= 100.000000
  0.000000 <= a3_x5 <= 100.000000
  0.000000 <= a3_x6 <= 100.000000
  0.000000 <= a4_x1 <= 100.000000
  0.000000 <= a4_x2 <= 100.000000
  0.000000 <= a4_x3 <= 100.000000
  0.000000 <= a4_x4 <= 100.000000
  0.000000 <= a4_x5 <= 100.000000
  0.000000 <= a4_x6 <= 100.000000
  0.000000 <= short_1 <= +inf
  0.000000 <= surp_1 <= +inf
  0.000000 <= short_2 <= +inf
  0.000000 <= surp_2 <= +inf
  0.000000 <= short_3 <= +inf
  0.000000 <= surp_3 <= +inf
 0 <= a1_z1 <= 1
 0 <= a1_z2 <= 1
 0 <= a2_z1 <= 1
 0 <= a2_z2 <= 1
 0 <= a3_z1 <= 1
 0 <= a3_z2 <= 1
 0 <= a4_z1 <= 1
 0 <= a4_z2 <= 1

binary
  a1_z1
  a1_z2
  a2_z1
  a2_z2
  a3_z1
  a3_z2
  a4_z1
  a4_z2
end
