min
obj: 
  +3.05711040055168581 a1_x1
  +8.05560131874530505 a1_x2
  +1.97423451738110156 a1_x3
  +4.43855917145081946 a1_x4
  +2.09177435273224699 a1_x5
  +8.36067334918018190 a1_x6
  +15.66642560195388789 a1_z1
  +12.32473257168471292 a1_z2
  +3.90447270498543908 a2_x1
  +3.19064241710492480 a2_x2
  +7.25662050376060552 a2_x3
  +4.24034203150857802 a2_x4
  +1.72165381936256479 a2_x5
  +9.86521199550605488 a2_x6
  +47.43293385770623871 a2_z1
  +10.01849972745584338 a2_z2
  +7.66342890098139051 a3_x1
  +6.60319515439368221 a3_x2
  +5.66277254283255616 a3_x3
  +4.15025934339557701 a3_x4
  +2.04336446202724131 a3_x5
  +3.95648142420414572 a3_x6
  +26.64691344464440093 a3_z1
  +25.19269856348255487 a3_z2
  +2.43191733608034033 a4_x1
  +1.25980278183489802 a4_x2
  +6.71866199762658312 a4_x3
  +9.23282830324045278 a4_x4
  +5.85378359150520033 a4_x5
  +9.83498899970064500 a4_x6
  +10.08347259986509314 a4_z1
  +40.29173016694412013 a4_z2
  +1000000.00000000000000000 short_1
  +1000000.00000000000000000 surp_1
  +1000000.00000000000000000 short_2
  +1000000.00000000000000000 surp_2
  +1000000.00000000000000000 short_3
  +1000000.00000000000000000 surp_3

s.t.

a1_local_1: 
+0.00215900962430949 a1_x5
+0.00355364486757268 a1_x1
+0.00149589802700257 a1_x6
<= 0.282010

a1_local_2: 
+0.00724914067047334 a1_x6
+0.01446081711893130 a1_x4
+0.01261065865713312 a1_x2
<= 1.468864

a1_local_3: 
+214.09625863190362338 a1_x4
+95.21036954604052482 a1_x5
+165.89125847885171083 a1_x1
<= 31411.906335

a1_local_4: 
+964.39309915236890447 a1_x3
+342.88941912528309786 a1_x1
+424.84723402505892409 a1_x4
<= 76370.395491

a1_local_5: 
+8.16150779826939754 a1_x4
+9.65434367922018311 a1_x5
+10.90671895675878034 a1_x1
<= 887.178763

a1_local_6: 
+0.04328993210618103 a1_x2
+0.05631589448306862 a1_x5
+0.07238135659841967 a1_x6
<= 6.523280

a1_local_7: 
+0.00000009755143953 a1_x1
+0.00000010906326932 a1_x3
+0.00000008795376034 a1_x5
<= 0.000017

a1_local_8: 
+3.78233807428361946 a1_x3
+3.32055827854043972 a1_x4
+2.43680470560852003 a1_x1
<= 338.650957

a1_act_1: 
+0.00005287458637580 a1_x1
-0.00528745863758019 a1_z1
<= 0.000000

a1_act_2: 
+11.28412092945715450 a1_x2
-1128.41209294571535793 a1_z2
<= 0.000000

a2_local_1: 
+358.29139414289073784 a2_x2
+205.45245425562973196 a2_x6
+527.12536967875598748 a2_x4
<= 74230.190213

a2_local_2: 
+0.00024114733094289 a2_x2
+0.00026149944985640 a2_x5
+0.00027180687868204 a2_x3
<= 0.046990

a2_local_3: 
+0.13314042993630934 a2_x3
+0.10551871568785323 a2_x5
+0.11076464215924846 a2_x2
<= 16.003474

a2_local_4: 
+0.00010769234392525 a2_x1
+0.00023010113368046 a2_x5
+0.00015594493371997 a2_x6
<= 0.031690

a2_local_5: 
+71.16447977671364811 a2_x2
+86.11611682095914944 a2_x6
+48.51551754374985848 a2_x1
<= 12321.839397

a2_local_6: 
+0.00000294306946340 a2_x1
+0.00000377147698012 a2_x5
+0.00000220162483037 a2_x4
<= 0.000584

a2_local_7: 
+1.63066549239498770 a2_x6
+1.10490293824875829 a2_x3
+1.82488562676074051 a2_x4
<= 144.839689

a2_local_8: 
+0.01273043218732075 a2_x3
+0.01430761608645544 a2_x1
+0.00854734581481072 a2_x4
<= 1.897919

a2_act_1: 
+276.40564687645121467 a2_x1
-27640.56468764512101188 a2_z1
<= 0.000000

a2_act_2: 
+0.05512928408057442 a2_x2
-5.51292840805744166 a2_z2
<= 0.000000

a3_local_1: 
+17.87053550420776560 a3_x5
+16.47256974996532719 a3_x6
+9.45325990973272567 a3_x2
<= 2026.873352

a3_local_2: 
+16895.99356040894053876 a3_x3
+12762.18216590860902215 a3_x1
+21973.89261568973597605 a3_x5
<= 3331730.141619

a3_local_3: 
+4.70740862814470695 a3_x6
+8.80661258819648118 a3_x2
+9.95063786318584498 a3_x3
<= 1145.778059

a3_local_4: 
+4564.93498188870307786 a3_x5
+6239.73715340798480611 a3_x6
+5642.80772659087415377 a3_x3
<= 681576.581474

a3_local_5: 
+0.00009450012736061 a3_x5
+0.00006703036381363 a3_x6
+0.00005436683056732 a3_x4
<= 0.008166

a3_local_6: 
+0.00652037567732845 a3_x3
+0.00530495004843740 a3_x6
+0.00698765908376595 a3_x2
<= 0.604753

a3_local_7: 
+285152.59440955816535279 a3_x4
+284122.09869604592677206 a3_x6
+302178.43102049274602905 a3_x3
<= 30343623.041124

a3_local_8: 
+11.30935934324172898 a3_x6
+6.83942769894135338 a3_x3
+5.32351367513926554 a3_x5
<= 1227.431453

a3_act_1: 
+0.00001312824710308 a3_x1
-0.00131282471030836 a3_z1
<= 0.000000

a3_act_2: 
+9.02562598275485151 a3_x2
-902.56259827548512931 a3_z2
<= 0.000000

a4_local_1: 
+102957.39652007793483790 a4_x4
+204984.81031571043422446 a4_x1
+80553.86899318442738149 a4_x6
<= 24976461.104142

a4_local_2: 
+8969.63586260203192069 a4_x2
+9879.68488890347543929 a4_x6
+4227.35104134035100287 a4_x1
<= 1226549.686037

a4_local_3: 
+6601636.48045707680284977 a4_x4
+9592911.26398274488747120 a4_x3
+7198757.63497321866452694 a4_x5
<= 962647567.465201

a4_local_4: 
+92.09762148470474585 a4_x1
+175.36644362278536846 a4_x6
+106.37321720431565097 a4_x4
<= 25780.572077

a4_local_5: 
+10952971.02604837156832218 a4_x3
+10731169.84825412184000015 a4_x6
+11582159.00782354548573494 a4_x4
<= 2059483057.030864

a4_local_6: 
+0.52513931018092386 a4_x3
+0.31294119502309015 a4_x1
+0.39685823356606220 a4_x5
<= 53.057968

a4_local_7: 
+10971.63253037903086806 a4_x5
+18538.26201990704066702 a4_x4
+10579.07637012700433843 a4_x3
<= 2307394.489718

a4_local_8: 
+0.00115457205390758 a4_x1
+0.00150628532956430 a4_x4
+0.00118474093611243 a4_x6
<= 0.152270

a4_act_1: 
+1.33096042445541096 a4_x1
-133.09604244554108732 a4_z1
<= 0.000000

a4_act_2: 
+0.00074643660746783 a4_x2
-0.07464366074678265 a4_z2
<= 0.000000

coupling_1: 
+0.00000418468976650 a1_x1
+0.00004999524067666 a2_x1
+0.00135381050936168 a3_x1
+0.02998131939308777 a4_x1
+0.00031730102119019 short_1
-0.00031730102119019 surp_1
= 0.992071

coupling_2: 
+0.00011187824103864 a1_x2
+0.00202709013680943 a2_x2
+0.03746091284282883 a3_x2
+0.92193297154936138 a4_x2
+0.00838735962964515 short_2
-0.00838735962964515 surp_2
= 42.187989

coupling_3: 
+0.00000000698134389 a1_x3
+0.00000022977004472 a2_x3
+0.00000518013892399 a3_x3
+0.00018774586171248 a4_x3
+0.00000126797589854 short_3
-0.00000126797589854 surp_3
= 0.013279

bounds
  0.000000 <= a1_x1 <= 100.000000
  0.000000 <= a1_x2 <= 100.000000
  0.000000 <= a1_x3 <= 100.000000
  0.000000 <= a1_x4 <= 100.000000
  0.000000 <= a1_x5 <= 100.000000
  0.000000 <= a1_x6 <= 100.000000
  0.000000 <= a2_x1 <= 100.000000
  0.000000 <= a2_x2 <= 100.000000
  0.000000 <= a2_x3 <= 100.000000
  0.000000 <= a2_x4 <= 100.000000
  0.000000 <= a2_x5 <= 100.000000
  0.000000 <= a2_x6 <= 100.000000
  0.000000 <= a3_x1 <= 100.000000
  0.000000 <= a3_x2 <= 100.000000
  0.000000 <= a3_x3 <= 100.000000
  0.000000 <= a3_x4 <= 100.000000
  0.000000 <= a3_x5 <= 100.000000
  0.000000 <= a3_x6 <= 100.000000
  0.000000 <= a4_x1 <= 100.000000
  0.000000 <= a4_x2 <= 100.000000
  0.000000 <= a4_x3 <= 100.000000
  0.000000 <= a4_x4 <= 100.000000
  0.000000 <= a4_x5 <= 100.000000
  0.000000 <= a4_x6 <= 100.000000
  0.000000 <= short_1 <= +inf
  0.000000 <= surp_1 <= +inf
  0.000000 <= short_2 <= +inf
  0.000000 <= surp_2 <= +inf
  0.000000 <= short_3 <= +inf
  0.000000 <= surp_3 <= +inf
 0 <= a1_z1 <= 1
 0 <= a1_z2 <= 1
 0 <= a2_z1 <= 1
 0 <= a2_z2 <= 1
 0 <= a3_z1 <= 1
 0 <= a3_z2 <= 1
 0 <= a4_z1 <= 1
 0 <= a4_z2 <= 1

binary
  a1_z1
  a1_z2
  a2_z1
  a2_z2
  a3_z1
  a3_z2
  a4_z1
  a4_z2
end
