min
obj: 
  +3.04305245350352704 a1_x1
  +8.52421046785006808 a1_x2
  +7.69307565210918742 a1_x3
  +6.91899621560824230 a1_x4
  +9.20970734213053355 a1_x5
  +1.67836132765545631 a1_x6
  +29.95730103851083470 a1_z1
  +31.08072985890714435 a1_z2
  +3.99822752437524187 a2_x1
  +4.07165663414877166 a2_x2
  +8.34795406785622518 a2_x3
  +4.87171054907478673 a2_x4
  +6.00614521080850050 a2_x5
  +2.78826542023549706 a2_x6
  +21.64829021237791906 a2_z1
  +42.54057128991149028 a2_z2
  +2.99288059555848207 a3_x1
  +5.53541108642779456 a3_x2
  +5.21389691922773402 a3_x3
  +2.06500474656608013 a3_x4
  +6.41053556614162368 a3_x5
  +2.65986220405491736 a3_x6
  +31.21797170368752461 a3_z1
  +44.91309333626589506 a3_z2
  +1.34783919856301182 a4_x1
  +6.31764736904795043 a4_x2
  +9.98943596309341864 a4_x3
  +5.70541292643470310 a4_x4
  +4.44152957180650887 a4_x5
  +5.06133401945766614 a4_x6
  +15.23838321132246598 a4_z1
  +39.66649904034947838 a4_z2
  +1000000.00000000000000000 short_1
  +1000000.00000000000000000 surp_1
  +1000000.00000000000000000 short_2
  +1000000.00000000000000000 surp_2
  +1000000.00000000000000000 short_3
  +1000000.00000000000000000 surp_3

s.t.

a1_local_1: 
+0.32057420966845834 a1_x4
+0.39881655547319073 a1_x3
+0.85917258520971374 a1_x1
<= 98.060632

a1_local_2: 
+0.71851210683700539 a1_x5
+0.43740103016539983 a1_x2
+0.54075936528080104 a1_x1
<= 66.230323

a1_local_3: 
+0.44583703621762527 a1_x1
+0.63122774479384314 a1_x5
+0.63465019604437412 a1_x4
<= 98.355344

a1_local_4: 
+0.67238242082710009 a1_x4
+0.50484375993973951 a1_x1
+0.54132675734032865 a1_x2
<= 72.263039

a1_local_5: 
+0.41293992751723851 a1_x4
+0.84403856159986124 a1_x6
+0.34216885129201186 a1_x3
<= 109.630317

a1_local_6: 
+0.45432171448337544 a1_x5
+0.77608570160407864 a1_x1
+0.43735884981853446 a1_x6
<= 90.231901

a1_local_7: 
+0.62138382017165439 a1_x1
+0.65116963280946338 a1_x2
+0.43572956903986843 a1_x4
<= 97.324578

a1_local_8: 
+0.66009330918955356 a1_x3
+0.70102273254504954 a1_x6
+0.26989618674271099 a1_x5
<= 83.622159

a1_act_1: 
+0.00999950003749688 a1_x1
-0.99995000374968745 a1_z1
<= 0.000000

a1_act_2: 
+0.01961465883163257 a1_x2
-1.96146588316325676 a1_z2
<= 0.000000

a2_local_1: 
+0.46725481970829102 a2_x5
+0.56948691451308942 a2_x3
+0.67628218049696798 a2_x6
<= 112.474812

a2_local_2: 
+0.46830058037843819 a2_x4
+0.73025412611403573 a2_x3
+0.49741680481327111 a2_x6
<= 82.947938

a2_local_3: 
+0.61266458497935949 a2_x3
+0.45877397385008223 a2_x1
+0.64355928027639653 a2_x2
<= 113.649161

a2_local_4: 
+0.68560532977285071 a2_x4
+0.53137936056987289 a2_x5
+0.49757542839997015 a2_x1
<= 53.689309

a2_local_5: 
+0.61830245895774449 a2_x1
+0.69392124773728781 a2_x6
+0.36901947263732870 a2_x2
<= 101.613139

a2_local_6: 
+0.59093418824796340 a2_x1
+0.46771691553338907 a2_x5
+0.65729572650645851 a2_x3
<= 93.811356

a2_local_7: 
+0.42953475260766755 a2_x3
+0.80579608405734893 a2_x6
+0.40766722608042888 a2_x1
<= 75.769274

a2_local_8: 
+0.36140821265773371 a2_x4
+0.63378927037520971 a2_x1
+0.68388249325509254 a2_x6
<= 60.356386

a2_act_1: 
+0.00819897311699784 a2_x1
-0.81989731169978364 a2_z1
<= 0.000000

a2_act_2: 
+0.00999950003749687 a2_x2
-0.99995000374968745 a2_z2
<= 0.000000

a3_local_1: 
+0.77587593470491301 a3_x4
+0.30046593902603058 a3_x2
+0.55474025762602042 a3_x5
<= 87.255291

a3_local_2: 
+0.60028845242800910 a3_x1
+0.55355542155519710 a3_x6
+0.57726091947093916 a3_x3
<= 55.527369

a3_local_3: 
+0.65803520434094132 a3_x2
+0.56043963372902372 a3_x6
+0.50288874196352162 a3_x5
<= 120.302352

a3_local_4: 
+0.45456016235262348 a3_x1
+0.64967499502156911 a3_x5
+0.60934182496007983 a3_x4
<= 54.578124

a3_local_5: 
+0.69562191725744771 a3_x4
+0.39214676980554591 a3_x2
+0.60193941486012414 a3_x6
<= 68.461224

a3_local_6: 
+0.52530328897034662 a3_x5
+0.45420843915298614 a3_x2
+0.71954926752734916 a3_x1
<= 84.743753

a3_local_7: 
+0.68508900262603045 a3_x2
+0.64609933940739350 a3_x4
+0.33646500872780322 a3_x5
<= 107.049165

a3_local_8: 
+0.44402910180242122 a3_x3
+0.48224385791657948 a3_x5
+0.75516820527235462 a3_x6
<= 83.183825

a3_act_1: 
+0.00999950003749688 a3_x1
-0.99995000374968768 a3_z1
<= 0.000000

a3_act_2: 
+0.00999950003749688 a3_x2
-0.99995000374968757 a3_z2
<= 0.000000

a4_local_1: 
+0.44906980633884047 a4_x6
+0.70565496272732209 a4_x2
+0.54807607374624401 a4_x1
<= 52.557537

a4_local_2: 
+0.55870470512122905 a4_x1
+0.66882405949111434 a4_x6
+0.49043188102041935 a4_x5
<= 56.772112

a4_local_3: 
+0.61234879185445090 a4_x6
+0.49429505297309517 a4_x3
+0.61701001427911961 a4_x2
<= 74.022542

a4_local_4: 
+0.45184677256682376 a4_x4
+0.65485140171962786 a4_x6
+0.60580866268714251 a4_x2
<= 66.464620

a4_local_5: 
+0.79505838499632697 a4_x5
+0.34511803577662198 a4_x6
+0.49877420325104904 a4_x1
<= 59.919733

a4_local_6: 
+0.67476592541544211 a4_x5
+0.58004673672683360 a4_x1
+0.45632962769339619 a4_x2
<= 111.469865

a4_local_7: 
+0.71020750681948663 a4_x4
+0.59154241136035990 a4_x2
+0.38168425801861355 a4_x5
<= 80.641054

a4_local_8: 
+0.71280416022467408 a4_x3
+0.36265918395011687 a4_x1
+0.60032370056747930 a4_x2
<= 107.133208

a4_act_1: 
+0.00999950003749688 a4_x1
-0.99995000374968757 a4_z1
<= 0.000000

a4_act_2: 
+0.00999950003749688 a4_x2
-0.99995000374968757 a4_z2
<= 0.000000

coupling_1: 
+0.00013216291965694 a1_x1
+0.00392837098712296 a2_x1
+0.05174451444787698 a3_x1
+0.99847074462518348 a4_x1
+0.01347641989801674 short_1
-0.01347641989801674 surp_1
= 60.263904

coupling_2: 
+0.00007985991909785 a1_x2
+0.00210720648089088 a2_x2
+0.02158932615440199 a3_x2
+0.99970900735942692 a4_x2
+0.00746173250219309 short_2
-0.00746173250219309 surp_2
= 73.150359

coupling_3: 
+0.00010358752297348 a1_x3
+0.00125776588702745 a2_x3
+0.05114785245986262 a3_x3
+0.99861748874762124 a4_x3
+0.00852688837552385 short_3
-0.00852688837552385 surp_3
= 25.835193

bounds
  0.000000 <= a1_x1 <= 100.000000
  0.000000 <= a1_x2 <= 100.000000
  0.000000 <= a1_x3 <= 100.000000
  0.000000 <= a1_x4 <= 100.000000
  0.000000 <= a1_x5 <= 100.000000
  0.000000 <= a1_x6 <= 100.000000
  0.000000 <= a2_x1 <= 100.000000
  0.000000 <= a2_x2 <= 100.000000
  0.000000 <= a2_x3 <= 100.000000
  0.000000 <= a2_x4 <= 100.000000
  0.000000 <= a2_x5 <= 100.000000
  0.000000 <= a2_x6 <= 100.000000
  0.000000 <= a3_x1 <= 100.000000
  0.000000 <= a3_x2 <= 100.000000
  0.000000 <= a3_x3 <= 100.000000
  0.000000 <= a3_x4 <= 100.000000
  0.000000 <= a3_x5 <= 100.000000
  0.000000 <= a3_x6 <= 100.000000
  0.000000 <= a4_x1 <= 100.000000
  0.000000 <= a4_x2 <= 100.000000
  0.000000 <= a4_x3 <= 100.000000
  0.000000 <= a4_x4 <= 100.000000
  0.000000 <= a4_x5 <= 100.000000
  0.000000 <= a4_x6 <= 100.000000
  0.000000 <= short_1 <= +inf
  0.000000 <= surp_1 <= +inf
  0.000000 <= short_2 <= +inf
  0.000000 <= surp_2 <= +inf
  0.000000 <= short_3 <= +inf
  0.000000 <= surp_3 <= +inf
 0 <= a1_z1 <= 1
 0 <= a1_z2 <= 1
 0 <= a2_z1 <= 1
 0 <= a2_z2 <= 1
 0 <= a3_z1 <= 1
 0 <= a3_z2 <= 1
 0 <= a4_z1 <= 1
 0 <= a4_z2 <= 1

binary
  a1_z1
  a1_z2
  a2_z1
  a2_z2
  a3_z1
  a3_z2
  a4_z1
  a4_z2
end
