min
obj: 
  +4.00927114806491947 a1_x1
  +1.96797315584533505 a1_x2
  +5.12450639908132288 a1_x3
  +5.32896604620880687 a1_x4
  +7.73264361972508052 a1_x5
  +5.13954220661915251 a1_x6
  +7.46013036925632012 a1_z1
  +49.87266735161764331 a1_z2
  +9.36843435344059650 a2_x1
  +1.05737072364449292 a2_x2
  +6.60719118774421155 a2_x3
  +2.15746424177711438 a2_x4
  +4.02884955809363987 a2_x5
  +6.58160214482754569 a2_x6
  +37.18631761224219190 a2_z1
  +14.56992703067312611 a2_z2
  +7.57718464422320714 a3_x1
  +6.32546719961394732 a3_x2
  +1.31829467185166682 a3_x3
  +2.45084274434978422 a3_x4
  +7.58215052014305346 a3_x5
  +8.03960198396170256 a3_x6
  +34.57098216458418705 a3_z1
  +17.01923611963366056 a3_z2
  +9.65762920804675851 a4_x1
  +1.01038921150930694 a4_x2
  +8.26245311728527554 a4_x3
  +1.87174926104206407 a4_x4
  +5.72310336143512366 a4_x5
  +2.03823444273170651 a4_x6
  +33.41705432517787955 a4_z1
  +11.21145989114648600 a4_z2
  +1000000.00000000000000000 short_1
  +1000000.00000000000000000 surp_1
  +1000000.00000000000000000 short_2
  +1000000.00000000000000000 surp_2
  +1000000.00000000000000000 short_3
  +1000000.00000000000000000 surp_3

s.t.

a1_local_1: 
+4931.76606712765897100 a1_x3
+2095.25713247938665518 a1_x6
+3333.70646324040853870 a1_x4
<= 391641.177148

a1_local_2: 
+0.00019585904701585 a1_x4
+0.00010850720875844 a1_x6
+0.00007583131724474 a1_x2
<= 0.021553

a1_local_3: 
+0.35073671583835064 a1_x6
+0.59314807322054053 a1_x4
+0.31000498674640209 a1_x1
<= 79.604011

a1_local_4: 
+2382.74121345384082815 a1_x2
+2812.90939399168519230 a1_x5
+2762.91261409926391934 a1_x3
<= 537175.156682

a1_local_5: 
+64.51759627237188965 a1_x1
+29.25993473086948171 a1_x4
+41.07003025877214952 a1_x2
<= 9229.642480

a1_local_6: 
+0.00005178811724739 a1_x1
+0.00005308808703769 a1_x3
+0.00002706084859176 a1_x6
<= 0.008237

a1_local_7: 
+5413.00133100299080979 a1_x2
+8730.45702039432035235 a1_x5
+6895.68782856557118066 a1_x4
<= 1170385.820571

a1_local_8: 
+0.00080590373836510 a1_x4
+0.00125639757277353 a1_x5
+0.00050981270996522 a1_x6
<= 0.133272

a1_act_1: 
+1013.02026254815075390 a1_x1
-101302.02625481507857330 a1_z1
<= 0.000000

a1_act_2: 
+0.00039829861158941 a1_x2
-0.03982986115894099 a1_z2
<= 0.000000

a2_local_1: 
+0.00020148524691493 a2_x4
+0.00038012028547184 a2_x2
+0.00030490103597207 a2_x6
<= 0.051156

a2_local_2: 
+27.77552611215948630 a2_x1
+38.32566089003995558 a2_x4
+24.48729872866622870 a2_x5
<= 5818.774015

a2_local_3: 
+0.03541933649523763 a2_x4
+0.02618108717604185 a2_x5
+0.05116886828540802 a2_x3
<= 7.204384

a2_local_4: 
+0.00007657583526088 a2_x2
+0.00005183008599037 a2_x1
+0.00007349865681640 a2_x5
<= 0.009230

a2_local_5: 
+0.02329172610579041 a2_x2
+0.01468626899171787 a2_x3
+0.02727792896420922 a2_x6
<= 3.679194

a2_local_6: 
+4780.14886294104780973 a2_x6
+3430.70927223201942979 a2_x5
+5477.06518528248216171 a2_x2
<= 762637.788296

a2_local_7: 
+3.50952176152341089 a2_x2
+2.39504119154210526 a2_x5
+2.53180087191060332 a2_x6
<= 562.501499

a2_local_8: 
+60502.10925672423763899 a2_x2
+49727.81128686998272315 a2_x4
+43182.91888628793822136 a2_x5
<= 10187175.525455

a2_act_1: 
+5155.59933906681726512 a2_x1
-515559.93390668171923608 a2_z1
<= 0.000000

a2_act_2: 
+675888.71614944480825216 a2_x2
-67588871.61494448781013489 a2_z2
<= 0.000000

a3_local_1: 
+493.20464092650604471 a3_x1
+410.22838798731947918 a3_x2
+763.21411945835677670 a3_x6
<= 75272.080087

a3_local_2: 
+0.00217704770703731 a3_x2
+0.00179888694831548 a3_x1
+0.00371365202035237 a3_x6
<= 0.331053

a3_local_3: 
+4.08153106050505254 a3_x1
+3.15289829784878251 a3_x5
+6.36219747972177441 a3_x2
<= 704.266186

a3_local_4: 
+0.06180283797978767 a3_x4
+0.09403629497335717 a3_x6
+0.08854133989415498 a3_x5
<= 15.692352

a3_local_5: 
+0.00635669985806724 a3_x4
+0.00933618029504252 a3_x1
+0.00619973329792690 a3_x5
<= 0.712458

a3_local_6: 
+0.44965280641505956 a3_x5
+0.25502481018866996 a3_x6
+0.23142252754342621 a3_x1
<= 55.169363

a3_local_7: 
+0.21575177091084846 a3_x6
+0.26634379707815625 a3_x1
+0.30748853836640422 a3_x4
<= 49.531748

a3_local_8: 
+0.00749937769967881 a3_x3
+0.00962258748901674 a3_x1
+0.00615548076502453 a3_x6
<= 0.948194

a3_act_1: 
+686663.12520023540128022 a3_x1
-68666312.52002353966236115 a3_z1
<= 0.000000

a3_act_2: 
+0.00012862479913969 a3_x2
-0.01286247991396860 a3_z2
<= 0.000000

a4_local_1: 
+26767.26582979705926846 a4_x3
+26003.19325724982991233 a4_x2
+36294.39338434806268197 a4_x5
<= 5307229.842043

a4_local_2: 
+89.23695822877549233 a4_x2
+175.94190662458842667 a4_x5
+206.26942858685072224 a4_x3
<= 32617.623859

a4_local_3: 
+12.48861145576013421 a4_x4
+5.83539476767321030 a4_x5
+5.95865030765813231 a4_x2
<= 823.120064

a4_local_4: 
+10047336.04741346463561058 a4_x5
+10235925.11119118332862854 a4_x3
+8482769.68484582193195820 a4_x1
<= 951875498.747287

a4_local_5: 
+28886147.43016715720295906 a4_x5
+44074378.16973490267992020 a4_x6
+22270496.36363534256815910 a4_x1
<= 5112131329.616280

a4_local_6: 
+1.40362242026404838 a4_x3
+0.63442720463063595 a4_x2
+0.81325515595465636 a4_x1
<= 139.846814

a4_local_7: 
+0.00010545315734802 a4_x1
+0.00009312530515186 a4_x2
+0.00020608637414334 a4_x3
<= 0.024721

a4_local_8: 
+0.54374728417934892 a4_x3
+0.38860856809788336 a4_x1
+0.59859247639862134 a4_x4
<= 87.993365

a4_act_1: 
+0.00184428378640038 a4_x1
-0.18442837864003761 a4_z1
<= 0.000000

a4_act_2: 
+71551.72279249201528728 a4_x2
-7155172.27924920152872801 a4_z2
<= 0.000000

coupling_1: 
+0.00748913487826302 a1_x1
+0.20709224575661622 a2_x1
+4.51307930555617531 a3_x1
+39.33968832966378670 a4_x1
+0.66348925535804648 short_1
-0.66348925535804648 surp_1
= 2491.923313

coupling_2: 
+0.00000014442224762 a1_x2
+0.00000284841176189 a2_x2
+0.00005021750741121 a3_x2
+0.00167836694901747 a4_x2
+0.00001787045756171 short_2
-0.00001787045756171 surp_2
= 0.095106

coupling_3: 
+0.00000094914075802 a1_x3
+0.00001361936002035 a2_x3
+0.00042000886258557 a3_x3
+0.01021820945911843 a4_x3
+0.00011917326850739 short_3
-0.00011917326850739 surp_3
= 0.232456

bounds
  0.000000 <= a1_x1 <= 100.000000
  0.000000 <= a1_x2 <= 100.000000
  0.000000 <= a1_x3 <= 100.000000
  0.000000 <= a1_x4 <= 100.000000
  0.000000 <= a1_x5 <= 100.000000
  0.000000 <= a1_x6 <= 100.000000
  0.000000 <= a2_x1 <= 100.000000
  0.000000 <= a2_x2 <= 100.000000
  0.000000 <= a2_x3 <= 100.000000
  0.000000 <= a2_x4 <= 100.000000
  0.000000 <= a2_x5 <= 100.000000
  0.000000 <= a2_x6 <= 100.000000
  0.000000 <= a3_x1 <= 100.000000
  0.000000 <= a3_x2 <= 100.000000
  0.000000 <= a3_x3 <= 100.000000
  0.000000 <= a3_x4 <= 100.000000
  0.000000 <= a3_x5 <= 100.000000
  0.000000 <= a3_x6 <= 100.000000
  0.000000 <= a4_x1 <= 100.000000
  0.000000 <= a4_x2 <= 100.000000
  0.000000 <= a4_x3 <= 100.000000
  0.000000 <= a4_x4 <= 100.000000
  0.000000 <= a4_x5 <= 100.000000
  0.000000 <= a4_x6 <= 100.000000
  0.000000 <= short_1 <= +inf
  0.000000 <= surp_1 <= +inf
  0.000000 <= short_2 <= +inf
  0.000000 <= surp_2 <= +inf
  0.000000 <= short_3 <= +inf
  0.000000 <= surp_3 <= +inf
 0 <= a1_z1 <= 1
 0 <= a1_z2 <= 1
 0 <= a2_z1 <= 1
 0 <= a2_z2 <= 1
 0 <= a3_z1 <= 1
 0 <= a3_z2 <= 1
 0 <= a4_z1 <= 1
 0 <= a4_z2 <= 1

binary
  a1_z1
  a1_z2
  a2_z1
  a2_z2
  a3_z1
  a3_z2
  a4_z1
  a4_z2
end
