min
obj: 
  +3.05711040055168581 a1_x1
  +8.05560131874530505 a1_x2
  +1.97423451738110156 a1_x3
  +4.43855917145081946 a1_x4
  +2.09177435273224699 a1_x5
  +8.36067334918018190 a1_x6
  +15.66642560195388789 a1_z1
  +12.32473257168471292 a1_z2
  +3.90447270498543908 a2_x1
  +3.19064241710492480 a2_x2
  +7.25662050376060552 a2_x3
  +4.24034203150857802 a2_x4
  +1.72165381936256479 a2_x5
  +9.86521199550605488 a2_x6
  +47.43293385770623871 a2_z1
  +10.01849972745584338 a2_z2
  +7.66342890098139051 a3_x1
  +6.60319515439368221 a3_x2
  +5.66277254283255616 a3_x3
  +4.15025934339557701 a3_x4
  +2.04336446202724131 a3_x5
  +3.95648142420414572 a3_x6
  +26.64691344464440093 a3_z1
  +25.19269856348255487 a3_z2
  +2.43191733608034033 a4_x1
  +1.25980278183489802 a4_x2
  +6.71866199762658312 a4_x3
  +9.23282830324045278 a4_x4
  +5.85378359150520033 a4_x5
  +9.83498899970064500 a4_x6
  +10.08347259986509314 a4_z1
  +40.29173016694412013 a4_z2
  +1000000.00000000000000000 short_1
  +1000000.00000000000000000 surp_1
  +1000000.00000000000000000 short_2
  +1000000.00000000000000000 surp_2
  +1000000.00000000000000000 short_3
  +1000000.00000000000000000 surp_3

s.t.

a1_local_1: 
+0.48857595054224545 a1_x5
+0.80417678527912273 a1_x1
+0.33851623088099803 a1_x6
<= 63.817730

a1_local_2: 
+0.35342997224112577 a1_x6
+0.70503338605983568 a1_x4
+0.61482939036991346 a1_x2
<= 71.614084

a1_local_3: 
+0.74573951461699794 a1_x4
+0.33163650418498652 a1_x5
+0.57783198719936379 a1_x1
<= 109.413868

a1_local_4: 
+0.87022843928748250 a1_x3
+0.30940922774732776 a1_x1
+0.38336456962019178 a1_x4
<= 68.913486

a1_local_5: 
+0.48881551660507250 a1_x4
+0.57822563056811738 a1_x5
+0.65323388681254080 a1_x1
<= 53.135616

a1_local_6: 
+0.42686846088954566 a1_x2
+0.55531339579470362 a1_x5
+0.71372988556508221 a1_x6
<= 64.324018

a1_local_7: 
+0.57139596473844712 a1_x1
+0.63882513973615174 a1_x3
+0.51517869940604633 a1_x5
<= 101.163247

a1_local_8: 
+0.67638656867122227 a1_x3
+0.59380758038668469 a1_x4
+0.43576801993317599 a1_x1
<= 60.560149

a1_act_1: 
+0.00999950003749688 a1_x1
-0.99995000374968757 a1_z1
<= 0.000000

a1_act_2: 
+0.00999950003749688 a1_x2
-0.99995000374968757 a1_z2
<= 0.000000

a2_local_1: 
+0.53503474098336090 a2_x2
+0.30680111898869000 a2_x6
+0.78715366944971776 a2_x4
<= 110.847571

a2_local_2: 
+0.53866597001214767 a2_x2
+0.58412777891330880 a2_x5
+0.60715213139103497 a2_x3
<= 104.964606

a2_local_3: 
+0.65649870962920376 a2_x3
+0.52029951175570555 a2_x5
+0.54616651519656967 a2_x2
<= 78.911117

a2_local_4: 
+0.36126372550430841 a2_x1
+0.77189510197559064 a2_x5
+0.52313141004994168 a2_x6
<= 106.306855

a2_local_5: 
+0.58429520661682965 a2_x2
+0.70705546402948771 a2_x6
+0.39833614236049741 a2_x1
<= 101.168332

a2_local_6: 
+0.55886031861343599 a2_x1
+0.71616686352898518 a2_x5
+0.41806718103953683 a2_x4
<= 110.912029

a2_local_7: 
+0.60728785821860076 a2_x6
+0.41148484593429779 a2_x3
+0.67961877462787323 a2_x4
<= 53.940790

a2_local_8: 
+0.60701757524427613 a2_x3
+0.68222149071861393 a2_x1
+0.40755797249744941 a2_x4
<= 90.497347

a2_act_1: 
+0.00999950003749688 a2_x1
-0.99995000374968745 a2_z1
<= 0.000000

a2_act_2: 
+0.00999950003749688 a2_x2
-0.99995000374968745 a2_z2
<= 0.000000

a3_local_1: 
+0.68527064115462499 a3_x5
+0.63166369196743588 a3_x6
+0.36249845326786923 a3_x2
<= 77.723289

a3_local_2: 
+0.55368439932831137 a3_x3
+0.41821874170260809 a3_x1
+0.72008795992512886 a3_x5
<= 109.181327

a3_local_3: 
+0.33392485473398836 a3_x6
+0.62470608810755324 a3_x2
+0.70585869327524953 a3_x3
<= 81.276941

a3_local_4: 
+0.47692833798501405 a3_x5
+0.65190577343271527 a3_x6
+0.58954068815642013 a3_x3
<= 71.208722

a3_local_5: 
+0.73839275958119754 a3_x5
+0.52375310694776578 a3_x6
+0.42480444390404615 a3_x4
<= 63.802822

a3_local_6: 
+0.59650708934715391 a3_x3
+0.48531564270572586 a3_x6
+0.63925583243621231 a3_x2
<= 55.324968

a3_local_7: 
+0.56652304607657045 a3_x4
+0.56447572270644075 a3_x6
+0.60034889584238038 a3_x3
<= 60.284781

a3_local_8: 
+0.79372392475499953 a3_x6
+0.48001104496921226 a3_x3
+0.37361976390320228 a3_x5
<= 86.144730

a3_act_1: 
+0.00999950003749688 a3_x1
-0.99995000374968757 a3_z1
<= 0.000000

a3_act_2: 
+0.00999950003749688 a3_x2
-0.99995000374968757 a3_z2
<= 0.000000

a4_local_1: 
+0.42348175066660387 a4_x4
+0.84313831999073807 a4_x1
+0.33133212976640813 a4_x6
<= 102.732546

a4_local_2: 
+0.64079774750179153 a4_x2
+0.70581235624433569 a4_x6
+0.30200523930794471 a4_x1
<= 87.625662

a4_local_3: 
+0.48220838956365947 a4_x4
+0.70070236456157209 a4_x3
+0.52582436738158467 a4_x5
<= 70.315404

a4_local_4: 
+0.40962377825572538 a4_x1
+0.77997959185042565 a4_x6
+0.47311752935644658 a4_x4
<= 114.664583

a4_local_5: 
+0.56997887086460219 a4_x3
+0.55843661583855042 a4_x6
+0.60272102407224892 a4_x4
<= 107.172915

a4_local_6: 
+0.52513931018092386 a4_x3
+0.31294119502309015 a4_x1
+0.39685823356606220 a4_x5
<= 53.057968

a4_local_7: 
+0.45716693749280463 a4_x5
+0.77245391245228767 a4_x4
+0.44080987330208898 a4_x3
<= 96.144714

a4_local_8: 
+0.51605433910780085 a4_x1
+0.67325818048797237 a4_x4
+0.52953880074460613 a4_x6
<= 68.059322

a4_act_1: 
+0.00999950003749688 a4_x1
-0.99995000374968768 a4_z1
<= 0.000000

a4_act_2: 
+0.00999950003749688 a4_x2
-0.99995000374968745 a4_z2
<= 0.000000

coupling_1: 
+0.00013941871340102 a1_x1
+0.00166566042412883 a2_x1
+0.04510406504085692 a3_x1
+0.99886902233765074 a4_x1
+0.01057132131736846 short_1
-0.01057132131736846 surp_1
= 33.052204

coupling_2: 
+0.00011187824103864 a1_x2
+0.00202709013680943 a2_x2
+0.03746091284282883 a3_x2
+0.92193297154936138 a4_x2
+0.00838735962964515 short_2
-0.00838735962964515 surp_2
= 42.187989

coupling_3: 
+0.00003716920685810 a1_x3
+0.00122331322604064 a2_x3
+0.02757945434591775 a3_x3
+0.99957327355816417 a4_x3
+0.00675080030063697 short_3
-0.00675080030063697 surp_3
= 70.698547

bounds
  0.000000 <= a1_x1 <= 100.000000
  0.000000 <= a1_x2 <= 100.000000
  0.000000 <= a1_x3 <= 100.000000
  0.000000 <= a1_x4 <= 100.000000
  0.000000 <= a1_x5 <= 100.000000
  0.000000 <= a1_x6 <= 100.000000
  0.000000 <= a2_x1 <= 100.000000
  0.000000 <= a2_x2 <= 100.000000
  0.000000 <= a2_x3 <= 100.000000
  0.000000 <= a2_x4 <= 100.000000
  0.000000 <= a2_x5 <= 100.000000
  0.000000 <= a2_x6 <= 100.000000
  0.000000 <= a3_x1 <= 100.000000
  0.000000 <= a3_x2 <= 100.000000
  0.000000 <= a3_x3 <= 100.000000
  0.000000 <= a3_x4 <= 100.000000
  0.000000 <= a3_x5 <= 100.000000
  0.000000 <= a3_x6 <= 100.000000
  0.000000 <= a4_x1 <= 100.000000
  0.000000 <= a4_x2 <= 100.000000
  0.000000 <= a4_x3 <= 100.000000
  0.000000 <= a4_x4 <= 100.000000
  0.000000 <= a4_x5 <= 100.000000
  0.000000 <= a4_x6 <= 100.000000
  0.000000 <= short_1 <= +inf
  0.000000 <= surp_1 <= +inf
  0.000000 <= short_2 <= +inf
  0.000000 <= surp_2 <= +inf
  0.000000 <= short_3 <= +inf
  0.000000 <= surp_3 <= +inf
 0 <= a1_z1 <= 1
 0 <= a1_z2 <= 1
 0 <= a2_z1 <= 1
 0 <= a2_z2 <= 1
 0 <= a3_z1 <= 1
 0 <= a3_z2 <= 1
 0 <= a4_z1 <= 1
 0 <= a4_z2 <= 1

binary
  a1_z1
  a1_z2
  a2_z1
  a2_z2
  a3_z1
  a3_z2
  a4_z1
  a4_z2
end
