min
obj: 
  +4.00927114806491947 a1_x1
  +1.96797315584533505 a1_x2
  +5.12450639908132288 a1_x3
  +5.32896604620880687 a1_x4
  +7.73264361972508052 a1_x5
  +5.13954220661915251 a1_x6
  +7.46013036925632012 a1_z1
  +49.87266735161764331 a1_z2
  +9.36843435344059650 a2_x1
  +1.05737072364449292 a2_x2
  +6.60719118774421155 a2_x3
  +2.15746424177711438 a2_x4
  +4.02884955809363987 a2_x5
  +6.58160214482754569 a2_x6
  +37.18631761224219190 a2_z1
  +14.56992703067312611 a2_z2
  +7.57718464422320714 a3_x1
  +6.32546719961394732 a3_x2
  +1.31829467185166682 a3_x3
  +2.45084274434978422 a3_x4
  +7.58215052014305346 a3_x5
  +8.03960198396170256 a3_x6
  +34.57098216458418705 a3_z1
  +17.01923611963366056 a3_z2
  +9.65762920804675851 a4_x1
  +1.01038921150930694 a4_x2
  +8.26245311728527554 a4_x3
  +1.87174926104206407 a4_x4
  +5.72310336143512366 a4_x5
  +2.03823444273170651 a4_x6
  +33.41705432517787955 a4_z1
  +11.21145989114648600 a4_z2
  +1000000.00000000000000000 short_1
  +1000000.00000000000000000 surp_1
  +1000000.00000000000000000 short_2
  +1000000.00000000000000000 surp_2
  +1000000.00000000000000000 short_3
  +1000000.00000000000000000 surp_3

s.t.

a1_local_1: 
+0.78148208496250937 a1_x3
+0.33201208048706410 a1_x6
+0.52825536371465343 a1_x4
<= 62.059019

a1_local_2: 
+0.82850689794525345 a1_x4
+0.45899830670512559 a1_x6
+0.32077542689389565 a1_x2
<= 91.172631

a1_local_3: 
+0.35073671583835064 a1_x6
+0.59314807322054053 a1_x4
+0.31000498674640209 a1_x1
<= 79.604011

a1_local_4: 
+0.51721050820825065 a1_x2
+0.61058510634536678 a1_x5
+0.59973253881057687 a1_x3
<= 116.602103

a1_local_5: 
+0.78788977519871017 a1_x1
+0.35732272634753814 a1_x4
+0.50154777576307552 a1_x2
<= 112.712521

a1_local_6: 
+0.65598510136492916 a1_x1
+0.67245144267999746 a1_x3
+0.34277194171173625 a1_x6
<= 104.329587

a1_local_7: 
+0.43751232582857641 a1_x2
+0.70564966142939822 a1_x5
+0.55735224057380928 a1_x4
<= 94.597838

a1_local_8: 
+0.51093370724646558 a1_x4
+0.79654162038621523 a1_x5
+0.32321539844488512 a1_x6
<= 84.492688

a1_act_1: 
+0.00999950003749688 a1_x1
-0.99995000374968745 a1_z1
<= 0.000000

a1_act_2: 
+0.00999950003749688 a1_x2
-0.99995000374968757 a1_z2
<= 0.000000

a2_local_1: 
+0.38210255802832643 a2_x4
+0.72087130775669528 a2_x2
+0.57822330703748115 a2_x6
<= 97.014553

a2_local_2: 
+0.52120176967801146 a2_x1
+0.71917277819711234 a2_x4
+0.45949889051526149 a2_x5
<= 109.188042

a2_local_3: 
+0.52461682870637982 a2_x4
+0.38778363135704452 a2_x5
+0.75789249784491519 a2_x3
<= 106.708416

a2_local_4: 
+0.64829000143276161 a2_x2
+0.43879281768829248 a2_x1
+0.62223864970562437 a2_x5
<= 78.142519

a2_local_5: 
+0.60093396416614830 a2_x2
+0.37891042526939889 a2_x3
+0.70377926961066539 a2_x6
<= 94.924375

a2_local_6: 
+0.59465521118310694 a2_x6
+0.42678360136503857 a2_x5
+0.68135228583946383 a2_x2
<= 94.872890

a2_local_7: 
+0.70956674119344976 a2_x2
+0.48423736588227223 a2_x5
+0.51188789131557511 a2_x6
<= 113.728417

a2_local_8: 
+0.67651343220211613 a2_x2
+0.55603899934845002 a2_x4
+0.48285630083254316 a2_x5
<= 113.909435

a2_act_1: 
+0.00999950003749688 a2_x1
-0.99995000374968745 a2_z1
<= 0.000000

a2_act_2: 
+0.00999950003749687 a2_x2
-0.99995000374968745 a2_z2
<= 0.000000

a3_local_1: 
+0.49468250114607065 a3_x1
+0.41145761448933227 a3_x2
+0.76550104803234320 a3_x6
<= 75.497629

a3_local_2: 
+0.46662846550291309 a3_x2
+0.38557347806034403 a3_x1
+0.79598427635151570 a3_x6
<= 70.957978

a3_local_3: 
+0.49835127935034823 a3_x1
+0.38496605246954757 a3_x5
+0.77681860225916632 a3_x2
<= 85.990269

a3_local_4: 
+0.43162885350286873 a3_x4
+0.65674618696769393 a3_x6
+0.61836961336016016 a3_x5
<= 109.594837

a3_local_5: 
+0.49336283095547800 a3_x4
+0.72460937963388761 a3_x1
+0.48118017828895315 a3_x5
<= 55.296011

a3_local_6: 
+0.44965280641505956 a3_x5
+0.25502481018866996 a3_x6
+0.23142252754342621 a3_x1
<= 55.169363

a3_local_7: 
+0.46854196695973055 a3_x6
+0.57841122714162529 a3_x1
+0.66776408821830624 a3_x4
<= 107.566683

a3_local_8: 
+0.54881279298141439 a3_x3
+0.70419164456558436 a3_x1
+0.45046492203495364 a3_x6
<= 69.389881

a3_act_1: 
+0.00999950003749688 a3_x1
-0.99995000374968745 a3_z1
<= 0.000000

a3_act_2: 
+0.00999950003749688 a3_x2
-0.99995000374968757 a3_z2
<= 0.000000

a4_local_1: 
+0.51419106913609902 a4_x3
+0.49951346644504346 a4_x2
+0.69720430381684528 a4_x5
<= 101.950278

a4_local_2: 
+0.31264890934173256 a4_x2
+0.61642671719781394 a4_x5
+0.72268164623999653 a4_x3
<= 114.278486

a4_local_3: 
+0.83160858398989934 a4_x4
+0.38857517482686521 a4_x5
+0.39678268175738912 a4_x2
<= 54.811034

a4_local_4: 
+0.60294574131329626 a4_x5
+0.61426306685376231 a4_x3
+0.50905531893063438 a4_x1
<= 57.122532

a4_local_5: 
+0.50491806736059985 a4_x5
+0.77040214169723154 a4_x6
+0.38927918685842400 a4_x1
<= 89.357969

a4_local_6: 
+1.40362242026404838 a4_x3
+0.63442720463063595 a4_x2
+0.81325515595465636 a4_x1
<= 139.846814

a4_local_7: 
+0.42261030873506084 a4_x1
+0.37320564837512737 a4_x2
+0.82590439578183461 a4_x3
<= 99.069870

a4_local_8: 
+0.54374728417934892 a4_x3
+0.38860856809788336 a4_x1
+0.59859247639862134 a4_x4
<= 87.993365

a4_act_1: 
+0.00999950003749688 a4_x1
-0.99995000374968745 a4_z1
<= 0.000000

a4_act_2: 
+0.00999950003749688 a4_x2
-0.99995000374968745 a4_z2
<= 0.000000

coupling_1: 
+0.00018907482042395 a1_x1
+0.00522836479968786 a2_x1
+0.11393968370549566 a3_x1
+0.99319142028732477 a4_x1
+0.01675081486035936 short_1
-0.01675081486035936 surp_1
= 62.912467

coupling_2: 
+0.00008600091218373 a1_x2
+0.00169617918180136 a2_x2
+0.02990364376823771 a3_x2
+0.99943804348597665 a4_x2
+0.01064154364582084 short_2
-0.01064154364582084 surp_2
= 56.633724

coupling_3: 
+0.00009279613784121 a1_x3
+0.00133154539943072 a2_x3
+0.04106366729863713 a3_x3
+0.99901976123548419 a4_x3
+0.01165140044605941 short_3
-0.01165140044605941 surp_3
= 22.726865

bounds
  0.000000 <= a1_x1 <= 100.000000
  0.000000 <= a1_x2 <= 100.000000
  0.000000 <= a1_x3 <= 100.000000
  0.000000 <= a1_x4 <= 100.000000
  0.000000 <= a1_x5 <= 100.000000
  0.000000 <= a1_x6 <= 100.000000
  0.000000 <= a2_x1 <= 100.000000
  0.000000 <= a2_x2 <= 100.000000
  0.000000 <= a2_x3 <= 100.000000
  0.000000 <= a2_x4 <= 100.000000
  0.000000 <= a2_x5 <= 100.000000
  0.000000 <= a2_x6 <= 100.000000
  0.000000 <= a3_x1 <= 100.000000
  0.000000 <= a3_x2 <= 100.000000
  0.000000 <= a3_x3 <= 100.000000
  0.000000 <= a3_x4 <= 100.000000
  0.000000 <= a3_x5 <= 100.000000
  0.000000 <= a3_x6 <= 100.000000
  0.000000 <= a4_x1 <= 100.000000
  0.000000 <= a4_x2 <= 100.000000
  0.000000 <= a4_x3 <= 100.000000
  0.000000 <= a4_x4 <= 100.000000
  0.000000 <= a4_x5 <= 100.000000
  0.000000 <= a4_x6 <= 100.000000
  0.000000 <= short_1 <= +inf
  0.000000 <= surp_1 <= +inf
  0.000000 <= short_2 <= +inf
  0.000000 <= surp_2 <= +inf
  0.000000 <= short_3 <= +inf
  0.000000 <= surp_3 <= +inf
 0 <= a1_z1 <= 1
 0 <= a1_z2 <= 1
 0 <= a2_z1 <= 1
 0 <= a2_z2 <= 1
 0 <= a3_z1 <= 1
 0 <= a3_z2 <= 1
 0 <= a4_z1 <= 1
 0 <= a4_z2 <= 1

binary
  a1_z1
  a1_z2
  a2_z1
  a2_z2
  a3_z1
  a3_z2
  a4_z1
  a4_z2
end
