min
obj: 
  +3.04305245350352704 a1_x1
  +8.52421046785006808 a1_x2
  +7.69307565210918742 a1_x3
  +6.91899621560824230 a1_x4
  +9.20970734213053355 a1_x5
  +1.67836132765545631 a1_x6
  +29.95730103851083470 a1_z1
  +31.08072985890714435 a1_z2
  +3.99822752437524187 a2_x1
  +4.07165663414877166 a2_x2
  +8.34795406785622518 a2_x3
  +4.87171054907478673 a2_x4
  +6.00614521080850050 a2_x5
  +2.78826542023549706 a2_x6
  +21.64829021237791906 a2_z1
  +42.54057128991149028 a2_z2
  +2.99288059555848207 a3_x1
  +5.53541108642779456 a3_x2
  +5.21389691922773402 a3_x3
  +2.06500474656608013 a3_x4
  +6.41053556614162368 a3_x5
  +2.65986220405491736 a3_x6
  +31.21797170368752461 a3_z1
  +44.91309333626589506 a3_z2
  +1.34783919856301182 a4_x1
  +6.31764736904795043 a4_x2
  +9.98943596309341864 a4_x3
  +5.70541292643470310 a4_x4
  +4.44152957180650887 a4_x5
  +5.06133401945766614 a4_x6
  +15.23838321132246598 a4_z1
  +39.66649904034947838 a4_z2
  +1000000.00000000000000000 short_1
  +1000000.00000000000000000 surp_1
  +1000000.00000000000000000 short_2
  +1000000.00000000000000000 surp_2
  +1000000.00000000000000000 short_3
  +1000000.00000000000000000 surp_3

s.t.

a1_local_1: 
+0.61083524062177030 a1_x4
+0.75992141376050704 a1_x3
+1.63710266451244379 a1_x1
<= 186.848748

a1_local_2: 
+1.28167273121496295 a1_x5
+0.78023037835255260 a1_x2
+0.96459965814708049 a1_x1
<= 118.140805

a1_local_3: 
+0.83814828794477136 a1_x1
+1.18667228297280536 a1_x5
+1.19310629680113789 a1_x4
<= 184.902457

a1_local_4: 
+1.15406342901720782 a1_x4
+0.86650349959671868 a1_x1
+0.92912216983077667 a1_x2
<= 124.030802

a1_local_5: 
+0.76839671045887625 a1_x4
+1.57058305825052602 a1_x6
+0.63670621858986609 a1_x3
<= 203.999587

a1_local_6: 
+0.77981160522968496 a1_x5
+1.33209709655167341 a1_x1
+0.75069602853173778 a1_x6
<= 154.876779

a1_local_7: 
+1.16655267771810900 a1_x1
+1.22247096584000969 a1_x2
+0.81801533774085111 a1_x4
<= 182.711946

a1_local_8: 
+1.51754265032335045 a1_x3
+1.61163865876701373 a1_x6
+0.62048648098640879 a1_x5
<= 192.245841

a1_act_1: 
+0.09999999999999999 a1_x1
-9.99999999999999822 a1_z1
<= 0.000000

a1_act_2: 
+0.10000000000000001 a1_x2
-10.00000000000000000 a1_z2
<= 0.000000

a2_local_1: 
+0.83121414050046560 a2_x5
+1.01307799557591238 a2_x3
+1.20305941787504977 a2_x6
<= 200.084944

a2_local_2: 
+0.80080234873124045 a2_x4
+1.24874758619821802 a2_x3
+0.85059161206027156 a2_x6
<= 141.842455

a2_local_3: 
+1.12753261154025997 a2_x3
+0.84431617156280270 a2_x1
+1.18439043770656638 a2_x2
<= 209.157079

a2_local_4: 
+1.17383655438535950 a2_x4
+0.90978364752428620 a2_x5
+0.85190735989953625 a2_x1
<= 91.922379

a2_local_5: 
+1.22185941291671729 a2_x1
+1.37129360572163450 a2_x6
+0.72923843284003087 a2_x2
<= 200.802970

a2_local_6: 
+1.06577903710321964 a2_x1
+0.84355059122910936 a2_x5
+1.18546535370561879 a2_x3
<= 169.193421

a2_local_7: 
+0.74943303332591926 a2_x3
+1.40591698308712476 a2_x6
+0.71127955066322002 a2_x1
<= 132.198841

a2_local_8: 
+0.72695623445771240 a2_x4
+1.27483838301150532 a2_x1
+1.37559862973865243 a2_x6
<= 121.404135

a2_act_1: 
+0.10000000000000001 a2_x1
-10.00000000000000000 a2_z1
<= 0.000000

a2_act_2: 
+0.09999999999999999 a2_x2
-10.00000000000000000 a2_z2
<= 0.000000

a3_local_1: 
+1.60693576631933643 a3_x4
+0.62230240994043318 a3_x2
+1.14893621663299994 a3_x5
<= 180.716584

a3_local_2: 
+1.04135651924529160 a3_x1
+0.96028591699290100 a3_x6
+1.00140927143469582 a3_x3
<= 96.326670

a3_local_3: 
+1.14390144253803649 a3_x2
+0.97424530062977988 a3_x6
+0.87420118798106050 a3_x5
<= 209.128680

a3_local_4: 
+0.83646468463381485 a3_x1
+1.19550773436152546 a3_x5
+1.12128813667140914 a3_x4
<= 100.432631

a3_local_5: 
+1.33187144401718660 a3_x4
+0.75082321532760155 a3_x2
+1.15250238353818979 a3_x6
<= 131.079179

a3_local_6: 
+0.91886614957596924 a3_x5
+0.79450627542706120 a3_x2
+1.25864329952898402 a3_x1
<= 148.234683

a3_local_7: 
+1.42693287974081118 a3_x2
+1.34572353000167366 a3_x4
+0.70080381088537280 a3_x5
<= 222.966611

a3_local_8: 
+0.76680311613969054 a3_x3
+0.83279697544284459 a3_x5
+1.30411572273504861 a3_x6
<= 143.651882

a3_act_1: 
+0.10000000000000001 a3_x1
-10.00000000000000000 a3_z1
<= 0.000000

a3_act_2: 
+0.09999999999999999 a3_x2
-9.99999999999999822 a3_z2
<= 0.000000

a4_local_1: 
+0.79773882252891359 a4_x6
+1.25354310428305049 a4_x2
+0.97361602930101743 a4_x1
<= 93.364521

a4_local_2: 
+0.97552193232156181 a4_x1
+1.16779496023100848 a4_x6
+0.85631470767966333 a4_x5
<= 99.126498

a4_local_3: 
+1.10881636468053846 a4_x6
+0.89504944078909066 a4_x3
+1.11725671725841535 a4_x2
<= 134.037018

a4_local_4: 
+0.83066174780787505 a4_x4
+1.20385945619743584 a4_x6
+1.11370073471185749 a4_x2
<= 122.186592

a4_local_5: 
+1.51780396527752592 a4_x5
+0.65884661186608062 a4_x6
+0.95218348458280622 a4_x1
<= 114.389597

a4_local_6: 
+1.21601025722284350 a4_x5
+1.04531476021733027 a4_x1
+0.82236148425575506 a4_x2
<= 200.882253

a4_local_7: 
+1.36408208422634214 a4_x4
+1.13616428670305347 a4_x2
+0.73309371302766102 a4_x5
<= 154.885743

a4_local_8: 
+1.40196048471349366 a4_x3
+0.71328686571673328 a4_x1
+1.18073119265648208 a4_x2
<= 210.712189

a4_act_1: 
+0.10000000000000001 a4_x1
-10.00000000000000000 a4_z1
<= 0.000000

a4_act_2: 
+0.10000000000000001 a4_x2
-10.00000000000000178 a4_z2
<= 0.000000

coupling_1: 
+0.01150501369250252 a1_x1
+0.34197157654656102 a2_x1
+4.50445063396018330 a3_x1
+86.91862754163177840 a4_x1
+1.17314596147738603 short_1
-1.17314596147738603 surp_1
= 5246.078378

coupling_2: 
+0.00893773822120747 a1_x2
+0.23583369626454409 a2_x2
+2.41622766113591902 a3_x2
+111.88512968831416572 a4_x2
+0.83509991663726713 short_2
-0.83509991663726713 surp_2
= 8186.819663

coupling_3: 
+0.01018483834699435 a1_x3
+0.12366491513671658 a2_x3
+5.02891269282467501 a3_x3
+98.18516170117814568 a4_x3
+0.83837297402899058 short_3
-0.83837297402899058 surp_3
= 2540.144356

bounds
  0.000000 <= a1_x1 <= 100.000000
  0.000000 <= a1_x2 <= 100.000000
  0.000000 <= a1_x3 <= 100.000000
  0.000000 <= a1_x4 <= 100.000000
  0.000000 <= a1_x5 <= 100.000000
  0.000000 <= a1_x6 <= 100.000000
  0.000000 <= a2_x1 <= 100.000000
  0.000000 <= a2_x2 <= 100.000000
  0.000000 <= a2_x3 <= 100.000000
  0.000000 <= a2_x4 <= 100.000000
  0.000000 <= a2_x5 <= 100.000000
  0.000000 <= a2_x6 <= 100.000000
  0.000000 <= a3_x1 <= 100.000000
  0.000000 <= a3_x2 <= 100.000000
  0.000000 <= a3_x3 <= 100.000000
  0.000000 <= a3_x4 <= 100.000000
  0.000000 <= a3_x5 <= 100.000000
  0.000000 <= a3_x6 <= 100.000000
  0.000000 <= a4_x1 <= 100.000000
  0.000000 <= a4_x2 <= 100.000000
  0.000000 <= a4_x3 <= 100.000000
  0.000000 <= a4_x4 <= 100.000000
  0.000000 <= a4_x5 <= 100.000000
  0.000000 <= a4_x6 <= 100.000000
  0.000000 <= short_1 <= +inf
  0.000000 <= surp_1 <= +inf
  0.000000 <= short_2 <= +inf
  0.000000 <= surp_2 <= +inf
  0.000000 <= short_3 <= +inf
  0.000000 <= surp_3 <= +inf
 0 <= a1_z1 <= 1
 0 <= a1_z2 <= 1
 0 <= a2_z1 <= 1
 0 <= a2_z2 <= 1
 0 <= a3_z1 <= 1
 0 <= a3_z2 <= 1
 0 <= a4_z1 <= 1
 0 <= a4_z2 <= 1

binary
  a1_z1
  a1_z2
  a2_z1
  a2_z2
  a3_z1
  a3_z2
  a4_z1
  a4_z2
end
