min
obj: 
  +7.78207569299738466 a1_x1
  +2.62040292120299334 a1_x2
  +1.02293933329670939 a1_x3
  +7.19109322240713489 a1_x4
  +4.26327457704359070 a1_x5
  +6.02462654690972954 a1_x6
  +42.77102711119731282 a1_z1
  +28.11411837117618262 a1_z2
  +5.79112125901829966 a2_x1
  +5.43489317194582089 a2_x2
  +9.42596272358853859 a2_x3
  +8.92130525199075564 a2_x4
  +6.14845489869399664 a2_x5
  +2.14640938868183095 a2_x6
  +31.66094613130910673 a2_z1
  +6.98996133690631005 a2_z2
  +2.81862526144540748 a3_x1
  +1.36412059178846468 a3_x2
  +2.33366974601915000 a3_x3
  +2.45567759910651384 a3_x4
  +5.22782650613177147 a3_x5
  +6.66961894421152923 a3_x6
  +49.85791959361311854 a3_z1
  +30.64094479818616890 a3_z2
  +7.09948941464576322 a4_x1
  +9.56749156260526412 a4_x2
  +9.23547813869581802 a4_x3
  +8.94781396766327930 a4_x4
  +7.43389970639344355 a4_x5
  +1.79601697429660612 a4_x6
  +7.43041409826294341 a4_z1
  +14.53020430166953325 a4_z2
  +1000000.00000000000000000 short_1
  +1000000.00000000000000000 surp_1
  +1000000.00000000000000000 short_2
  +1000000.00000000000000000 surp_2
  +1000000.00000000000000000 short_3
  +1000000.00000000000000000 surp_3

s.t.

a1_local_1: 
+0.95481444815371741 a1_x4
+1.46705201016064612 a1_x6
+0.68163909191637828 a1_x3
<= 155.134012

a1_local_2: 
+1.18244517205215183 a1_x6
+0.82897500109521427 a1_x5
+1.20630899445560247 a1_x4
<= 170.495492

a1_local_3: 
+0.84399922378939274 a1_x4
+1.11357159617208157 a1_x2
+1.18483521289296223 a1_x3
<= 182.282873

a1_local_4: 
+1.19758523486506618 a1_x4
+0.79737307360439302 a1_x5
+1.25411809490840387 a1_x2
<= 165.564964

a1_local_5: 
+1.23558876522844452 a1_x2
+3.00664443172470097 a1_x5
+1.46644764569395547 a1_x4
<= 315.805751

a1_local_6: 
+1.21403828594119134 a1_x2
+1.40003140346869070 a1_x3
+0.71426969246719696 a1_x1
<= 180.408799

a1_local_7: 
+0.69192169838644424 a1_x5
+1.44525023905449390 a1_x2
+0.69543377360441838 a1_x6
<= 155.429650

a1_local_8: 
+0.74867955695315003 a1_x5
+1.33568492783432169 a1_x1
+0.97185828750832415 a1_x6
<= 187.789074

a1_act_1: 
+0.10000000000000001 a1_x1
-10.00000000000000000 a1_z1
<= 0.000000

a1_act_2: 
+0.10000000000000001 a1_x2
-10.00000000000000000 a1_z2
<= 0.000000

a2_local_1: 
+0.81848637660494361 a2_x6
+1.22176743386734121 a2_x4
+1.21543312631518075 a2_x3
<= 204.872075

a2_local_2: 
+0.69285574422466190 a2_x5
+0.96068947586547837 a2_x4
+1.44330188258603065 a2_x6
<= 140.505480

a2_local_3: 
+1.05329592614143297 a2_x4
+0.71248261481990194 a2_x5
+1.40354301873425391 a2_x3
<= 98.180901

a2_local_4: 
+0.59713733734977459 a2_x5
+0.58967684947922938 a2_x6
+1.69584408966223776 a2_x4
<= 107.699265

a2_local_5: 
+1.13459092532418415 a2_x4
+0.70649130278326988 a2_x2
+1.41544559155991423 a2_x3
<= 155.097291

a2_local_6: 
+1.06361368015279734 a2_x5
+0.94019099101502868 a2_x4
+0.96862832615074579 a2_x3
<= 112.470333

a2_local_7: 
+0.78957405229364686 a2_x1
+1.26650565212355115 a2_x6
+0.84616689981046311 a2_x4
<= 202.656546

a2_local_8: 
+1.26532847115316294 a2_x4
+1.17523426714088353 a2_x3
+0.79030862167247795 a2_x5
<= 123.815451

a2_act_1: 
+0.10000000000000001 a2_x1
-10.00000000000000000 a2_z1
<= 0.000000

a2_act_2: 
+0.09999999999999999 a2_x2
-10.00000000000000000 a2_z2
<= 0.000000

a3_local_1: 
+0.80844359286331835 a3_x6
+1.23694467842615174 a3_x2
+1.01886316006728261 a3_x1
<= 204.643722

a3_local_2: 
+1.33917282145482153 a3_x1
+0.90098794126553783 a3_x6
+0.74672961098003898 a3_x2
<= 204.883970

a3_local_3: 
+0.64630509300298711 a3_x6
+1.54725687732647699 a3_x5
+0.72827656365187832 a3_x3
<= 154.929131

a3_local_4: 
+1.40713861328755141 a3_x2
+0.64748981093283309 a3_x6
+1.54442584750377510 a3_x4
<= 152.653566

a3_local_5: 
+0.91630918724395727 a3_x1
+1.22186586872684222 a3_x5
+0.81842043844139645 a3_x3
<= 146.564112

a3_local_6: 
+0.92875587504695523 a3_x5
+1.09939612336072701 a3_x2
+0.90959025482381684 a3_x3
<= 151.380653

a3_local_7: 
+1.52513596812868424 a3_x2
+1.24715683803209187 a3_x3
+1.81442283111437308 a3_x1
<= 244.955677

a3_local_8: 
+1.46666857942566908 a3_x6
+0.68181729262352420 a3_x1
+1.19424259936885613 a3_x2
<= 152.062870

a3_act_1: 
+0.10000000000000001 a3_x1
-10.00000000000000000 a3_z1
<= 0.000000

a3_act_2: 
+0.09999999999999999 a3_x2
-9.99999999999999822 a3_z2
<= 0.000000

a4_local_1: 
+0.65971910537090339 a4_x1
+1.51579663505089157 a4_x6
+0.79997380034740884 a4_x5
<= 187.950887

a4_local_2: 
+1.45044259568023293 a4_x2
+0.68944472740819995 a4_x5
+1.35217358403012233 a4_x4
<= 234.773625

a4_local_3: 
+1.47738544751928536 a4_x6
+1.14917475825977777 a4_x2
+0.67687142964561142 a4_x5
<= 192.378328

a4_local_4: 
+1.25275092169876001 a4_x6
+0.76093814043862718 a4_x3
+1.31416727176215709 a4_x4
<= 210.720927

a4_local_5: 
+0.75743099510792988 a4_x5
+0.77052448154442177 a4_x2
+1.32025228233168024 a4_x3
<= 114.119623

a4_local_6: 
+1.07025709227159815 a4_x1
+0.91269666176352959 a4_x5
+1.09565427583331010 a4_x4
<= 169.768764

a4_local_7: 
+0.72070036033487961 a4_x6
+1.38753919803140024 a4_x3
+1.14872764953857964 a4_x2
<= 195.827112

a4_local_8: 
+0.89093688456836262 a4_x3
+1.41179950563884815 a4_x6
+0.70831587346922464 a4_x4
<= 108.521300

a4_act_1: 
+0.10000000000000001 a4_x1
-10.00000000000000000 a4_z1
<= 0.000000

a4_act_2: 
+0.09999999999999999 a4_x2
-10.00000000000000000 a4_z2
<= 0.000000

coupling_1: 
+0.00015114502279432 a1_x1
+0.00407252488341179 a2_x1
+0.07061591058655997 a3_x1
+0.99725912967501862 a4_x1
+0.01534622344604200 short_1
-0.01534622344604200 surp_1
= 75.919312

coupling_2: 
+0.00014126539225177 a1_x2
+0.00270556291991823 a2_x2
+0.06131456550891928 a3_x2
+0.99801236607601862 a4_x2
+0.01011190360849313 short_2
-0.01011190360849313 surp_2
= 29.743466

coupling_3: 
+0.00022392443114935 a1_x3
+0.00339591494496469 a2_x3
+0.04690968793578767 a3_x3
+0.99852611602184260 a4_x3
+0.01915064515409931 short_3
-0.01915064515409931 surp_3
= 23.527565

bounds
  0.000000 <= a1_x1 <= 100.000000
  0.000000 <= a1_x2 <= 100.000000
  0.000000 <= a1_x3 <= 100.000000
  0.000000 <= a1_x4 <= 100.000000
  0.000000 <= a1_x5 <= 100.000000
  0.000000 <= a1_x6 <= 100.000000
  0.000000 <= a2_x1 <= 100.000000
  0.000000 <= a2_x2 <= 100.000000
  0.000000 <= a2_x3 <= 100.000000
  0.000000 <= a2_x4 <= 100.000000
  0.000000 <= a2_x5 <= 100.000000
  0.000000 <= a2_x6 <= 100.000000
  0.000000 <= a3_x1 <= 100.000000
  0.000000 <= a3_x2 <= 100.000000
  0.000000 <= a3_x3 <= 100.000000
  0.000000 <= a3_x4 <= 100.000000
  0.000000 <= a3_x5 <= 100.000000
  0.000000 <= a3_x6 <= 100.000000
  0.000000 <= a4_x1 <= 100.000000
  0.000000 <= a4_x2 <= 100.000000
  0.000000 <= a4_x3 <= 100.000000
  0.000000 <= a4_x4 <= 100.000000
  0.000000 <= a4_x5 <= 100.000000
  0.000000 <= a4_x6 <= 100.000000
  0.000000 <= short_1 <= +inf
  0.000000 <= surp_1 <= +inf
  0.000000 <= short_2 <= +inf
  0.000000 <= surp_2 <= +inf
  0.000000 <= short_3 <= +inf
  0.000000 <= surp_3 <= +inf
 0 <= a1_z1 <= 1
 0 <= a1_z2 <= 1
 0 <= a2_z1 <= 1
 0 <= a2_z2 <= 1
 0 <= a3_z1 <= 1
 0 <= a3_z2 <= 1
 0 <= a4_z1 <= 1
 0 <= a4_z2 <= 1

binary
  a1_z1
  a1_z2
  a2_z1
  a2_z2
  a3_z1
  a3_z2
  a4_z1
  a4_z2
end
