min
obj: 
  +1.57709742578195788 a1_x1
  +5.24362332399284625 a1_x2
  +8.06959664561268042 a1_x3
  +3.47810228856863679 a1_x4
  +9.41205830682384104 a1_x5
  +8.31656886029670339 a1_x6
  +34.00140095985545230 a1_z1
  +10.41050343041974102 a1_z2
  +6.47735542906473949 a2_x1
  +9.58339357562265626 a2_x2
  +2.02682747423036602 a2_x3
  +2.51463833389198177 a2_x4
  +5.97191591647550446 a2_x5
  +2.17528344053247569 a2_x6
  +46.82093948760606850 a2_z1
  +31.11983884228734354 a2_z2
  +4.28980261171450117 a3_x1
  +6.29719392465862082 a3_x2
  +7.08124523691182794 a3_x3
  +4.94719983508523597 a3_x4
  +8.06509947106787273 a3_x5
  +5.84368483176889342 a3_x6
  +45.40847242123220440 a3_z1
  +47.68543785744964225 a3_z2
  +7.67454901318721916 a4_x1
  +9.54472766156331787 a4_x2
  +6.46859462349116754 a4_x3
  +6.10471800911878315 a4_x4
  +9.00917261972195327 a4_x5
  +9.20424430287105189 a4_x6
  +10.38795682780166985 a4_z1
  +22.65518679594919149 a4_z2
  +1000000.00000000000000000 short_1
  +1000000.00000000000000000 surp_1
  +1000000.00000000000000000 short_2
  +1000000.00000000000000000 surp_2
  +1000000.00000000000000000 short_3
  +1000000.00000000000000000 surp_3

s.t.

a1_local_1: 
+655.59875736850619887 a1_x1
+670.23239223169684919 a1_x6
+408.77410383870915211 a1_x5
<= 91245.628970

a1_local_2: 
+0.00000093672033160 a1_x5
+0.00000051660604087 a1_x4
+0.00000145837420096 a1_x1
<= 0.000091

a1_local_3: 
+0.00008403037870684 a1_x2
+0.00011999130362060 a1_x3
+0.00007384274742472 a1_x5
<= 0.010931

a1_local_4: 
+312.82910401979046355 a1_x2
+250.03384476230874611 a1_x4
+114.62365107353105032 a1_x1
<= 34064.263305

a1_local_5: 
+3125.09530481245292322 a1_x1
+1990.78975393121436355 a1_x3
+3569.97763019712056121 a1_x2
<= 337207.189803

a1_local_6: 
+0.89273603952308156 a1_x3
+0.71357251996279236 a1_x4
+0.61137484239468221 a1_x2
<= 93.098761

a1_local_7: 
+71.61396110174676721 a1_x1
+44.66702749257053284 a1_x4
+61.69825745814252116 a1_x3
<= 9864.842978

a1_local_8: 
+0.00000415223504276 a1_x3
+0.00000267472287126 a1_x2
+0.00000367944173860 a1_x5
<= 0.000480

a1_act_1: 
+39.69966466158268759 a1_x1
-3969.96646615826875859 a1_z1
<= 0.000000

a1_act_2: 
+9.28533059558000140 a1_x2
-928.53305955800010452 a1_z2
<= 0.000000

a2_local_1: 
+0.31587934137563284 a2_x3
+0.54416655792363222 a2_x6
+0.54420683906623979 a2_x4
<= 78.021872

a2_local_2: 
+269441.93651116284308955 a2_x6
+111445.97391161060659215 a2_x4
+250746.83290791593026370 a2_x2
<= 33940600.037915

a2_local_3: 
+51.68877007036237359 a2_x4
+73.88907151225566849 a2_x5
+89.18238878804638148 a2_x2
<= 9707.950064

a2_local_4: 
+0.00000584677668213 a2_x6
+0.00000664141428534 a2_x5
+0.00000471046773911 a2_x1
<= 0.000572

a2_local_5: 
+1.83069403066534431 a2_x6
+1.85138292669724591 a2_x5
+1.75166094400266181 a2_x2
<= 213.964010

a2_local_6: 
+0.39390749910768125 a2_x1
+0.27249972589881205 a2_x6
+0.47839701374161425 a2_x3
<= 58.702083

a2_local_7: 
+75.70658232050391234 a2_x2
+83.78285679264519104 a2_x4
+116.95756199729721914 a2_x5
<= 14563.321265

a2_local_8: 
+0.00000029635234562 a2_x4
+0.00000030235842748 a2_x3
+0.00000037103534175 a2_x2
<= 0.000031

a2_act_1: 
+5410.27218313517278148 a2_x1
-541027.21831351728178561 a2_z1
<= 0.000000

a2_act_2: 
+21.33812706094392198 a2_x2
-2133.81270609439206964 a2_z2
<= 0.000000

a3_local_1: 
+0.00005989500836300 a3_x3
+0.00005278382738796 a3_x4
+0.00006866025512108 a3_x2
<= 0.010075

a3_local_2: 
+4.10787242765093019 a3_x3
+4.94851662071368281 a3_x4
+7.23777431916566805 a3_x6
<= 1065.440362

a3_local_3: 
+499058.45865882717771456 a3_x2
+795958.92547636921517551 a3_x3
+483261.24516048649093136 a3_x5
<= 66928740.473664

a3_local_4: 
+0.15881503821876503 a3_x2
+0.26024276980415284 a3_x5
+0.22927660107270045 a3_x3
<= 34.035034

a3_local_5: 
+249588.93382101721363142 a3_x2
+122816.94415510947874282 a3_x5
+266949.06152965675573796 a3_x3
<= 39950250.337834

a3_local_6: 
+42354.92646874978527194 a3_x5
+36347.70497483591316268 a3_x6
+40858.15562675421097083 a3_x1
<= 6308099.393772

a3_local_7: 
+96.79694078950495850 a3_x3
+111.85703436458361182 a3_x5
+94.97910122248038078 a3_x2
<= 17869.015800

a3_local_8: 
+150.67481252283616300 a3_x5
+230.08794779505933548 a3_x3
+153.67708427077872102 a3_x2
<= 29766.194509

a3_act_1: 
+1.77999737840251049 a3_x1
-177.99973784025104351 a3_z1
<= 0.000000

a3_act_2: 
+175353.02261030816589482 a3_x2
-17535302.26103081554174423 a3_z2
<= 0.000000

a4_local_1: 
+0.00025078083962052 a4_x6
+0.00027969088014151 a4_x1
+0.00024904563735878 a4_x3
<= 0.029118

a4_local_2: 
+1807305.92826194572262466 a4_x2
+3014339.27901528822258115 a4_x4
+2004184.45386526198126376 a4_x6
<= 383476108.554116

a4_local_3: 
+792.98474483444829275 a4_x3
+601.95838055021408763 a4_x2
+1180.51327767396946911 a4_x1
<= 77744.516149

a4_local_4: 
+8853.05054870158164704 a4_x3
+13355.49385227455422864 a4_x5
+13718.04541448458076047 a4_x2
<= 2209325.067062

a4_local_5: 
+669.39122053838502779 a4_x3
+690.40976532580691583 a4_x2
+540.49296143721198860 a4_x1
<= 104805.374854

a4_local_6: 
+632885.09522533277049661 a4_x5
+231052.63957345412927680 a4_x1
+578856.47942911449354142 a4_x6
<= 68621818.733438

a4_local_7: 
+30598.81778169797325972 a4_x6
+16506.34456950869935099 a4_x3
+25834.34638095138870995 a4_x2
<= 4870883.581192

a4_local_8: 
+0.00389795825194642 a4_x2
+0.00462178482932548 a4_x6
+0.00680615322049754 a4_x5
<= 0.778055

a4_act_1: 
+25691.18053086210420588 a4_x1
-2569118.05308621050789952 a4_z1
<= 0.000000

a4_act_2: 
+0.00382720681320619 a4_x2
-0.38272068132061932 a4_z2
<= 0.000000

coupling_1: 
+0.31000128127776061 a1_x1
+9.92150235322097629 a2_x1
+187.87993236204079039 a3_x1
+4360.45148367734327621 a4_x1
+31.05523259881258014 short_1
-31.05523259881258014 surp_1
= 336200.376632

coupling_2: 
+0.00000019350665344 a1_x2
+0.00000345691097318 a2_x2
+0.00012042605016212 a3_x2
+0.00239330469985376 a4_x2
+0.00002130996472771 short_2
-0.00002130996472771 surp_2
= 0.090682

coupling_3: 
+0.00000085713470906 a1_x3
+0.00001220877983742 a2_x3
+0.00021121948078356 a3_x3
+0.00590347567284903 a4_x3
+0.00006904340561972 short_3
-0.00006904340561972 surp_3
= 0.357689

bounds
  0.000000 <= a1_x1 <= 100.000000
  0.000000 <= a1_x2 <= 100.000000
  0.000000 <= a1_x3 <= 100.000000
  0.000000 <= a1_x4 <= 100.000000
  0.000000 <= a1_x5 <= 100.000000
  0.000000 <= a1_x6 <= 100.000000
  0.000000 <= a2_x1 <= 100.000000
  0.000000 <= a2_x2 <= 100.000000
  0.000000 <= a2_x3 <= 100.000000
  0.000000 <= a2_x4 <= 100.000000
  0.000000 <= a2_x5 <= 100.000000
  0.000000 <= a2_x6 <= 100.000000
  0.000000 <= a3_x1 <= 100.000000
  0.000000 <= a3_x2 <= 100.000000
  0.000000 <= a3_x3 <= 100.000000
  0.000000 <= a3_x4 <= 100.000000
  0.000000 <= a3_x5 <= 100.000000
  0.000000 <= a3_x6 <= 100.000000
  0.000000 <= a4_x1 <= 100.000000
  0.000000 <= a4_x2 <= 100.000000
  0.000000 <= a4_x3 <= 100.000000
  0.000000 <= a4_x4 <= 100.000000
  0.000000 <= a4_x5 <= 100.000000
  0.000000 <= a4_x6 <= 100.000000
  0.000000 <= short_1 <= +inf
  0.000000 <= surp_1 <= +inf
  0.000000 <= short_2 <= +inf
  0.000000 <= surp_2 <= +inf
  0.000000 <= short_3 <= +inf
  0.000000 <= surp_3 <= +inf
 0 <= a1_z1 <= 1
 0 <= a1_z2 <= 1
 0 <= a2_z1 <= 1
 0 <= a2_z2 <= 1
 0 <= a3_z1 <= 1
 0 <= a3_z2 <= 1
 0 <= a4_z1 <= 1
 0 <= a4_z2 <= 1

binary
  a1_z1
  a1_z2
  a2_z1
  a2_z2
  a3_z1
  a3_z2
  a4_z1
  a4_z2
end
