min
obj: 
  +1.58690782181034451 a1_x1
  +1.85914319529187777 a1_x2
  +3.32311090405199927 a1_x3
  +9.20870591814637862 a1_x4
  +9.62032466035919853 a1_x5
  +2.65221673698665317 a1_x6
  +45.97121590191820673 a1_z1
  +15.23159126469524693 a1_z2
  +7.38516429138446995 a2_x1
  +8.18461543331298103 a2_x2
  +6.32869026358351139 a2_x3
  +1.72084034317845602 a2_x4
  +2.51957804121249751 a2_x5
  +8.19694216322757185 a2_x6
  +32.90972281828447876 a2_z1
  +29.00608133785045339 a2_z2
  +9.62518175189459946 a3_x1
  +3.90094189534807345 a3_x2
  +1.32195101356612454 a3_x3
  +4.74857750195312356 a3_x4
  +3.55589835486331518 a3_x5
  +8.12436598238075014 a3_x6
  +20.82211554905935103 a3_z1
  +25.22287462451485496 a3_z2
  +3.97402812736189226 a4_x1
  +5.87257606585061964 a4_x2
  +8.54493066197249362 a4_x3
  +7.89453690964795740 a4_x4
  +2.70429770668290548 a4_x5
  +9.26226871331643586 a4_x6
  +13.31023289155729650 a4_z1
  +27.54299042523267715 a4_z2
  +1000000.00000000000000000 short_1
  +1000000.00000000000000000 surp_1
  +1000000.00000000000000000 short_2
  +1000000.00000000000000000 surp_2
  +1000000.00000000000000000 short_3
  +1000000.00000000000000000 surp_3

s.t.

a1_local_1: 
+0.00000035376350180 a1_x4
+0.00000045850610281 a1_x1
+0.00000032562222201 a1_x3
<= 0.000050

a1_local_2: 
+66.89516541070241828 a1_x2
+45.47178994502421290 a1_x4
+51.86973315856597821 a1_x3
<= 11059.611200

a1_local_3: 
+0.00000004667527828 a1_x6
+0.00000009357978781 a1_x4
+0.00000005589510107 a1_x1
<= 0.000008

a1_local_4: 
+0.00000374849497967 a1_x6
+0.00000333142596757 a1_x2
+0.00000306826388371 a1_x1
<= 0.000398

a1_local_5: 
+0.00023353845199402 a1_x1
+0.00034025061464019 a1_x2
+0.00039569853567580 a1_x5
<= 0.050600

a1_local_6: 
+0.00000007600043153 a1_x1
+0.00000012025216793 a1_x2
+0.00000010706253828 a1_x6
<= 0.000011

a1_local_7: 
+0.00000004111518871 a1_x5
+0.00000008746592430 a1_x2
+0.00000007534529804 a1_x4
<= 0.000014

a1_local_8: 
+0.00000194787677686 a1_x1
+0.00000137246232563 a1_x2
+0.00000191667531644 a1_x3
<= 0.000328

a1_act_1: 
+80.12933807745518777 a1_x1
-8012.93380774551860668 a1_z1
<= 0.000000

a1_act_2: 
+449.36641123088736549 a1_x2
-44936.64112308873882284 a1_z2
<= 0.000000

a2_local_1: 
+2.51161320593714299 a2_x1
+6.39247116863113796 a2_x5
+3.82977351574851310 a2_x3
<= 681.643151

a2_local_2: 
+2.70415260953039160 a2_x4
+6.39041202957765986 a2_x2
+5.21539781126758406 a2_x5
<= 654.860331

a2_local_3: 
+0.01081102317596548 a2_x2
+0.00961840075944885 a2_x1
+0.00878601315229271 a2_x5
<= 0.971020

a2_local_4: 
+0.00105705335063156 a2_x6
+0.00072108772783891 a2_x2
+0.00106525594376484 a2_x4
<= 0.132844

a2_local_5: 
+0.00004515218047226 a2_x1
+0.00008178771054479 a2_x6
+0.00007124743896250 a2_x2
<= 0.009395

a2_local_6: 
+5.79829123200801622 a2_x4
+6.07454731082150357 a2_x6
+5.58656912932871652 a2_x5
<= 915.523653

a2_local_7: 
+4.14232865424758767 a2_x4
+2.85870688336219914 a2_x6
+5.54969640681646048 a2_x3
<= 772.128042

a2_local_8: 
+0.00000070997248093 a2_x5
+0.00000061895654906 a2_x1
+0.00000047378540815 a2_x4
<= 0.000117

a2_act_1: 
+0.42594959901698443 a2_x1
-42.59495990169844504 a2_z1
<= 0.000000

a2_act_2: 
+436.73846818858299912 a2_x2
-43673.84681885829922976 a2_z2
<= 0.000000

a3_local_1: 
+0.00521231762777370 a3_x3
+0.00604392874012341 a3_x5
+0.00268428709861007 a3_x4
<= 0.482996

a3_local_2: 
+68766.81144820974441245 a3_x3
+76454.85962291431496851 a3_x5
+51626.25637988949165447 a3_x2
<= 10024313.793818

a3_local_3: 
+2836.57083659821273613 a3_x5
+3618.88540947482988486 a3_x6
+4035.55603026405333367 a3_x2
<= 526294.217234

a3_local_4: 
+0.05723510120724766 a3_x4
+0.05006952656779599 a3_x3
+0.02410030664329122 a3_x1
<= 5.737967

a3_local_5: 
+0.00091220070148592 a3_x1
+0.00077628367123197 a3_x4
+0.00042210803257781 a3_x5
<= 0.121090

a3_local_6: 
+0.00004420127511457 a3_x5
+0.00008025255525597 a3_x4
+0.00006239887266599 a3_x6
<= 0.007557

a3_local_7: 
+2753.15083457732362149 a3_x5
+2113.02595224933429563 a3_x4
+2467.00057783922557064 a3_x2
<= 445199.242069

a3_local_8: 
+7965.34817209502216429 a3_x6
+3639.80551108285180817 a3_x2
+6034.83527754545048083 a3_x3
<= 962486.329644

a3_act_1: 
+0.00003028450026207 a3_x1
-0.00302845002620692 a3_z1
<= 0.000000

a3_act_2: 
+128141.03396411341964267 a3_x2
-12814103.39641134254634380 a3_z2
<= 0.000000

a4_local_1: 
+0.00112066824479635 a4_x3
+0.00093956689784573 a4_x2
+0.00151444908970094 a4_x4
<= 0.211584

a4_local_2: 
+254.16202319530887621 a4_x5
+128.64908537326687110 a4_x4
+269.53616612775300609 a4_x1
<= 26174.813873

a4_local_3: 
+34.69572614934479304 a4_x3
+42.00762434809885093 a4_x2
+45.94216508018568845 a4_x6
<= 7031.356783

a4_local_4: 
+3487464.54618285596370697 a4_x1
+4127821.00605386961251497 a4_x6
+3972730.12689073802903295 a4_x5
<= 535339580.957488

a4_local_5: 
+14.38326262178567738 a4_x1
+15.93221094684725436 a4_x2
+13.55175386340470922 a4_x6
<= 1725.628269

a4_local_6: 
+261.46131555691295034 a4_x6
+768.10035656602281051 a4_x3
+437.93587627474437340 a4_x5
<= 60183.562912

a4_local_7: 
+1.59209426682844368 a4_x1
+1.67159124841096940 a4_x4
+2.32328448481465966 a4_x5
<= 179.900310

a4_local_8: 
+0.00081955207511153 a4_x5
+0.00072205209457879 a4_x1
+0.00110938014381985 a4_x6
<= 0.151260

a4_act_1: 
+33285.11012064843816916 a4_x1
-3328511.01206484390422702 a4_z1
<= 0.000000

a4_act_2: 
+8298.85402363369212253 a4_x2
-829885.40236336924135685 a4_z2
<= 0.000000

coupling_1: 
+0.01373655786469212 a1_x1
+0.20039115263412896 a2_x1
+3.11078884271699652 a3_x1
+131.85520415885045509 a4_x1
+0.93490743232512796 short_1
-0.93490743232512796 surp_1
= 8034.842781

coupling_2: 
+79.93025996431178726 a1_x2
+838.69864981334569620 a2_x2
+44978.13032468278106535 a3_x2
+609624.98489651025738567 a4_x2
+7069.56300328705401625 short_2
-7069.56300328705401625 surp_2
= 50953830.260535

coupling_3: 
+0.00000002140440033 a1_x3
+0.00000040899894295 a2_x3
+0.00001803210612716 a3_x3
+0.00027604314491696 a4_x3
+0.00000324798375829 short_3
-0.00000324798375829 surp_3
= 0.015014

bounds
  0.000000 <= a1_x1 <= 100.000000
  0.000000 <= a1_x2 <= 100.000000
  0.000000 <= a1_x3 <= 100.000000
  0.000000 <= a1_x4 <= 100.000000
  0.000000 <= a1_x5 <= 100.000000
  0.000000 <= a1_x6 <= 100.000000
  0.000000 <= a2_x1 <= 100.000000
  0.000000 <= a2_x2 <= 100.000000
  0.000000 <= a2_x3 <= 100.000000
  0.000000 <= a2_x4 <= 100.000000
  0.000000 <= a2_x5 <= 100.000000
  0.000000 <= a2_x6 <= 100.000000
  0.000000 <= a3_x1 <= 100.000000
  0.000000 <= a3_x2 <= 100.000000
  0.000000 <= a3_x3 <= 100.000000
  0.000000 <= a3_x4 <= 100.000000
  0.000000 <= a3_x5 <= 100.000000
  0.000000 <= a3_x6 <= 100.000000
  0.000000 <= a4_x1 <= 100.000000
  0.000000 <= a4_x2 <= 100.000000
  0.000000 <= a4_x3 <= 100.000000
  0.000000 <= a4_x4 <= 100.000000
  0.000000 <= a4_x5 <= 100.000000
  0.000000 <= a4_x6 <= 100.000000
  0.000000 <= short_1 <= +inf
  0.000000 <= surp_1 <= +inf
  0.000000 <= short_2 <= +inf
  0.000000 <= surp_2 <= +inf
  0.000000 <= short_3 <= +inf
  0.000000 <= surp_3 <= +inf
 0 <= a1_z1 <= 1
 0 <= a1_z2 <= 1
 0 <= a2_z1 <= 1
 0 <= a2_z2 <= 1
 0 <= a3_z1 <= 1
 0 <= a3_z2 <= 1
 0 <= a4_z1 <= 1
 0 <= a4_z2 <= 1

binary
  a1_z1
  a1_z2
  a2_z1
  a2_z2
  a3_z1
  a3_z2
  a4_z1
  a4_z2
end
