min
obj: 
  +9.92789069156587445 a1_x1
  +4.10293210566149646 a1_x2
  +3.32901181929639423 a1_x3
  +9.10176472428019245 a1_x4
  +1.02767819950250816 a1_x5
  +7.50152284301075145 a1_x6
  +48.47610588570461232 a1_z1
  +46.46239370281180214 a1_z2
  +3.18500776910177885 a2_x1
  +1.07942930179392071 a2_x2
  +3.49956447593909603 a2_x3
  +4.21239525423910788 a2_x4
  +5.82517656009187501 a2_x5
  +3.89342540667494053 a2_x6
  +48.49908581708631061 a2_z1
  +41.13663869847970034 a2_z2
  +2.67192419795283609 a3_x1
  +3.86821883222705321 a3_x2
  +5.91403436703844054 a3_x3
  +8.81180590098727734 a3_x4
  +5.97909561349352625 a3_x5
  +2.68685564033826729 a3_x6
  +5.18637677701330446 a3_z1
  +6.88066661844991856 a3_z2
  +1.28562252519206366 a4_x1
  +5.29948947704055140 a4_x2
  +9.02951063485292771 a4_x3
  +3.08226664425655672 a4_x4
  +2.19298535751718138 a4_x5
  +7.06762935071550480 a4_x6
  +41.57694264723444633 a4_z1
  +44.44096075316435446 a4_z2
  +1000000.00000000000000000 short_1
  +1000000.00000000000000000 surp_1
  +1000000.00000000000000000 short_2
  +1000000.00000000000000000 surp_2
  +1000000.00000000000000000 short_3
  +1000000.00000000000000000 surp_3

s.t.

a1_local_1: 
+0.00040307988315653 a1_x4
+0.00039200867162986 a1_x6
+0.00027303933309790 a1_x1
<= 0.042588

a1_local_2: 
+3601.77600134678095856 a1_x6
+4330.29261989140013611 a1_x5
+5752.53548179624158365 a1_x4
<= 610320.475038

a1_local_3: 
+0.37112171299084845 a1_x3
+0.30017762196443099 a1_x1
+0.24471218485946727 a1_x6
<= 54.401875

a1_local_4: 
+0.00119009009102582 a1_x5
+0.00125629205981189 a1_x2
+0.00067447768993032 a1_x4
<= 0.131553

a1_local_5: 
+6619.19811871448018792 a1_x4
+13019.80530401406394958 a1_x2
+8027.30037274018741300 a1_x5
<= 1650043.373107

a1_local_6: 
+1133.29620570632664567 a1_x3
+1069.30335602835748432 a1_x4
+557.33428876296068211 a1_x1
<= 106277.590115

a1_local_7: 
+0.00088402406917663 a1_x1
+0.00065950553550973 a1_x2
+0.00075926533371765 a1_x5
<= 0.121559

a1_local_8: 
+249.05551110189338715 a1_x5
+269.49823766958189708 a1_x2
+193.30005827599225654 a1_x4
<= 32318.487433

a1_act_1: 
+0.00021364355531852 a1_x1
-0.02136435553185177 a1_z1
<= 0.000000

a1_act_2: 
+0.00000966619922932 a1_x2
-0.00096661992293180 a1_z2
<= 0.000000

a2_local_1: 
+0.56034010642408960 a2_x6
+0.34159450233765348 a2_x4
+0.80568611668270007 a2_x1
<= 113.174669

a2_local_2: 
+0.00545875929128135 a2_x2
+0.00527116803987308 a2_x1
+0.00470651673313205 a2_x4
<= 0.859749

a2_local_3: 
+0.04359676670265825 a2_x3
+0.04484007028520811 a2_x4
+0.02271121009711930 a2_x5
<= 7.724052

a2_local_4: 
+13.06582620720391041 a2_x4
+22.39318146837371870 a2_x3
+22.64090394197114620 a2_x2
<= 2150.803405

a2_local_5: 
+9.38197515608563037 a2_x1
+6.17813104971597848 a2_x4
+9.92837594049400707 a2_x2
<= 1106.341522

a2_local_6: 
+0.00000021800148536 a2_x3
+0.00000045000144561 a2_x5
+0.00000033967940786 a2_x1
<= 0.000064

a2_local_7: 
+0.00000045148895914 a2_x3
+0.00000058003966660 a2_x6
+0.00000069289769466 a2_x4
<= 0.000113

a2_local_8: 
+1.33993980916076172 a2_x1
+2.45224332570634562 a2_x6
+2.31579785157136664 a2_x5
<= 358.667796

a2_act_1: 
+0.00093385961436546 a2_x1
-0.09338596143654594 a2_z1
<= 0.000000

a2_act_2: 
+19833.15161330121918581 a2_x2
-1983315.16133012203499675 a2_z2
<= 0.000000

a3_local_1: 
+192576.04789903596974909 a3_x1
+170494.40434102728613652 a3_x4
+81713.07607389731856529 a3_x2
<= 17128773.362897

a3_local_2: 
+953.00239485407564644 a3_x6
+1720.79621813573817235 a3_x4
+1472.89179625446422506 a3_x1
<= 161353.932187

a3_local_3: 
+2739865.44983348390087485 a3_x2
+1682640.74667732929810882 a3_x3
+1405425.44704529154114425 a3_x5
<= 304883134.094476

a3_local_4: 
+0.01636474200457493 a3_x5
+0.02948622238612068 a3_x1
+0.02435696005702083 a3_x6
<= 3.140181

a3_local_5: 
+1547623.48916334402747452 a3_x6
+1078516.95878112781792879 a3_x3
+2002641.62481168936938047 a3_x1
<= 176295942.146554

a3_local_6: 
+0.00001335381646529 a3_x2
+0.00001641815037802 a3_x6
+0.00001394981117305 a3_x4
<= 0.001804

a3_local_7: 
+0.00434659267683697 a3_x2
+0.00205096626189950 a3_x5
+0.00461831469348038 a3_x4
<= 0.584568

a3_local_8: 
+61.94237193155842647 a3_x2
+66.69108207109117359 a3_x1
+43.35480538373196424 a3_x5
<= 10685.944100

a3_act_1: 
+826.00074869091872642 a3_x1
-82600.07486909186991397 a3_z1
<= 0.000000

a3_act_2: 
+0.00008419943566907 a3_x2
-0.00841994356690675 a3_z2
<= 0.000000

a4_local_1: 
+57794.57625448634644272 a4_x2
+25941.33182025070709642 a4_x6
+55915.14250371874368284 a4_x5
<= 9180931.645709

a4_local_2: 
+1604469.53637267532758415 a4_x3
+4065269.88059690687805414 a4_x5
+3282187.16310276091098785 a4_x1
<= 515388793.658431

a4_local_3: 
+55.10575916096967575 a4_x4
+78.99338486351966537 a4_x3
+69.02818852424952922 a4_x6
<= 12469.046097

a4_local_4: 
+6.33081404747027321 a4_x5
+4.14446296788508928 a4_x1
+4.17051627801631675 a4_x4
<= 706.268739

a4_local_5: 
+10698.62831794362864457 a4_x5
+19190.34511841241328511 a4_x6
+10216.09184764372912468 a4_x1
<= 2469548.767270

a4_local_6: 
+30152.44863846846419619 a4_x4
+30146.74576797408371931 a4_x3
+26037.58026323247031542 a4_x2
<= 3604378.086333

a4_local_7: 
+0.20033664619102814 a4_x3
+0.31975037902518638 a4_x6
+0.15390832021322434 a4_x1
<= 40.982638

a4_local_8: 
+79449211.99771766364574432 a4_x3
+82354324.47703967988491058 a4_x2
+89082195.50457018613815308 a4_x6
<= 9537079908.506519

a4_act_1: 
+0.15616070134083881 a4_x1
-15.61607013408388056 a4_z1
<= 0.000000

a4_act_2: 
+777614.77249609329737723 a4_x2
-77761477.24960933625698090 a4_z2
<= 0.000000

coupling_1: 
+0.00000018859113632 a1_x1
+0.00000522102814061 a2_x1
+0.00010025245862620 a3_x1
+0.00222819197716581 a4_x1
+0.00001939835680047 short_1
-0.00001939835680047 surp_1
= 0.068135

coupling_2: 
+1079.03925221469012286 a1_x2
+17848.92291244626176194 a2_x2
+893812.09206183988135308 a3_x2
+8290633.76786516886204481 a4_x2
+150416.54789201117819175 short_2
-150416.54789201117819175 surp_2
= 517437540.165783

coupling_3: 
+0.11298106421340307 a1_x3
+1.81371918168040258 a2_x3
+67.73199071721364817 a3_x3
+2102.87142760527149221 a4_x3
+14.56773171931791033 short_3
-14.56773171931791033 surp_3
= 77050.352366

bounds
  0.000000 <= a1_x1 <= 100.000000
  0.000000 <= a1_x2 <= 100.000000
  0.000000 <= a1_x3 <= 100.000000
  0.000000 <= a1_x4 <= 100.000000
  0.000000 <= a1_x5 <= 100.000000
  0.000000 <= a1_x6 <= 100.000000
  0.000000 <= a2_x1 <= 100.000000
  0.000000 <= a2_x2 <= 100.000000
  0.000000 <= a2_x3 <= 100.000000
  0.000000 <= a2_x4 <= 100.000000
  0.000000 <= a2_x5 <= 100.000000
  0.000000 <= a2_x6 <= 100.000000
  0.000000 <= a3_x1 <= 100.000000
  0.000000 <= a3_x2 <= 100.000000
  0.000000 <= a3_x3 <= 100.000000
  0.000000 <= a3_x4 <= 100.000000
  0.000000 <= a3_x5 <= 100.000000
  0.000000 <= a3_x6 <= 100.000000
  0.000000 <= a4_x1 <= 100.000000
  0.000000 <= a4_x2 <= 100.000000
  0.000000 <= a4_x3 <= 100.000000
  0.000000 <= a4_x4 <= 100.000000
  0.000000 <= a4_x5 <= 100.000000
  0.000000 <= a4_x6 <= 100.000000
  0.000000 <= short_1 <= +inf
  0.000000 <= surp_1 <= +inf
  0.000000 <= short_2 <= +inf
  0.000000 <= surp_2 <= +inf
  0.000000 <= short_3 <= +inf
  0.000000 <= surp_3 <= +inf
 0 <= a1_z1 <= 1
 0 <= a1_z2 <= 1
 0 <= a2_z1 <= 1
 0 <= a2_z2 <= 1
 0 <= a3_z1 <= 1
 0 <= a3_z2 <= 1
 0 <= a4_z1 <= 1
 0 <= a4_z2 <= 1

binary
  a1_z1
  a1_z2
  a2_z1
  a2_z2
  a3_z1
  a3_z2
  a4_z1
  a4_z2
end
