min
obj: 
  +2.37029411872895501 a1_x1
  +4.08711411622905185 a1_x2
  +7.66136637275760890 a1_x3
  +4.89991689432673461 a1_x4
  +9.18560754331382867 a1_x5
  +7.80552329567271030 a1_x6
  +17.43087311454965516 a1_z1
  +23.40237872614093462 a1_z2
  +7.76967499598976019 a2_x1
  +1.80336421538305247 a2_x2
  +9.57158160013941384 a2_x3
  +5.65827493894111466 a2_x4
  +2.44173723344263127 a2_x5
  +7.27299337053102857 a2_x6
  +31.32172731425238510 a2_z1
  +17.35876123031728824 a2_z2
  +2.34937597507828766 a3_x1
  +3.44404861330662637 a3_x2
  +8.97236298110027342 a3_x3
  +1.18282410761081147 a3_x4
  +8.94329086748358293 a3_x5
  +1.71905082189577563 a3_x6
  +16.00176469749968788 a3_z1
  +34.61198408971173990 a3_z2
  +6.56106695092732561 a4_x1
  +3.99053598556514322 a4_x2
  +4.10040873738996048 a4_x3
  +4.88744804784333908 a4_x4
  +2.91326732486744788 a4_x5
  +5.36841797601257653 a4_x6
  +43.70048480327027818 a4_z1
  +7.09598516541455737 a4_z2
  +1000000.00000000000000000 short_1
  +1000000.00000000000000000 surp_1
  +1000000.00000000000000000 short_2
  +1000000.00000000000000000 surp_2
  +1000000.00000000000000000 short_3
  +1000000.00000000000000000 surp_3

s.t.

a1_local_1: 
+8171.96657097221486765 a1_x3
+5872.95320061378333776 a1_x2
+3264.90748213186952853 a1_x1
<= 1210796.780434

a1_local_2: 
+0.00000018854866905 a1_x6
+0.00000011211956819 a1_x3
+0.00000011029599073 a1_x2
<= 0.000013

a1_local_3: 
+453.04498778464198949 a1_x4
+524.04663401621235153 a1_x3
+379.61146331545126031 a1_x6
<= 41757.546032

a1_local_4: 
+6.40818828093912884 a1_x5
+12.10137106443670341 a1_x3
+5.82469701663364869 a1_x6
<= 1312.313502

a1_local_5: 
+5.51197696666490256 a1_x3
+4.17350449042932503 a1_x5
+2.21018488133698598 a1_x4
<= 721.069802

a1_local_6: 
+0.02213158946680207 a1_x3
+0.01596936960521781 a1_x1
+0.01213888757116722 a1_x6
<= 2.501111

a1_local_7: 
+0.09724199941942090 a1_x6
+0.11411960028586920 a1_x1
+0.10972173235099895 a1_x4
<= 14.778022

a1_local_8: 
+0.34141239162707671 a1_x3
+0.52004595972523404 a1_x2
+0.55714799710601515 a1_x4
<= 51.752088

a1_act_1: 
+116.90754449564420270 a1_x1
-11690.75444956441970135 a1_z1
<= 0.000000

a1_act_2: 
+29065.75676915334770456 a1_x2
-2906575.67691533453762531 a1_z2
<= 0.000000

a2_local_1: 
+5.66373952867205155 a2_x3
+6.62335957042953449 a2_x2
+3.29457739975581276 a2_x1
<= 986.862346

a2_local_2: 
+2.49394851145830687 a2_x6
+5.89709390240404474 a2_x2
+6.51660414483329742 a2_x1
<= 952.210450

a2_local_3: 
+0.00665772126024768 a2_x2
+0.01101287586753947 a2_x3
+0.00619533559932795 a2_x1
<= 1.331737

a2_local_4: 
+0.14118093970224824 a2_x1
+0.13537113059408348 a2_x4
+0.16086825815017380 a2_x5
<= 24.807623

a2_local_5: 
+0.73739244477898214 a2_x1
+1.10959373661701322 a2_x6
+0.99383786257801909 a2_x3
<= 87.915541

a2_local_6: 
+404.51909691752376830 a2_x1
+329.74584728216524354 a2_x6
+715.61004014121203909 a2_x2
<= 70696.686062

a2_local_7: 
+0.00000788817263397 a2_x3
+0.00000709510289695 a2_x2
+0.00000937579302480 a2_x4
<= 0.001002

a2_local_8: 
+0.40229894530067339 a2_x4
+0.20721214513683575 a2_x3
+0.35523275272223531 a2_x1
<= 58.318328

a2_act_1: 
+0.00656717356249348 a2_x1
-0.65671735624934802 a2_z1
<= 0.000000

a2_act_2: 
+33445.52508269175450550 a2_x2
-3344552.50826917542144656 a2_z2
<= 0.000000

a3_local_1: 
+456.13635954138334228 a3_x5
+306.50846007706883256 a3_x4
+806.66954325697042805 a3_x2
<= 70441.080996

a3_local_2: 
+2115541.71346927806735039 a3_x4
+1529964.37631492060609162 a3_x5
+2165853.53859650762751698 a3_x3
<= 292523118.467973

a3_local_3: 
+0.00213990782739652 a3_x4
+0.00113293901665781 a3_x3
+0.00246953760958575 a3_x6
<= 0.243414

a3_local_4: 
+15498.80658004382348736 a3_x4
+16330.21858638679805154 a3_x5
+19915.56360869192212704 a3_x2
<= 2848598.406805

a3_local_5: 
+0.00002677285064755 a3_x4
+0.00001051184268411 a3_x6
+0.00002298505969149 a3_x5
<= 0.002480

a3_local_6: 
+5.96431746060410806 a3_x1
+5.71574377953793533 a3_x5
+6.44146347947615361 a3_x3
<= 600.330071

a3_local_7: 
+0.00873769928437880 a3_x6
+0.00684344928750646 a3_x4
+0.01195438430573180 a3_x1
<= 1.038101

a3_local_8: 
+12.04824218030620919 a3_x4
+5.88728201828330100 a3_x2
+11.31236070336733768 a3_x1
<= 1849.902971

a3_act_1: 
+3801.41320667839454472 a3_x1
-380141.32066783943446353 a3_z1
<= 0.000000

a3_act_2: 
+0.00787136829421554 a3_x2
-0.78713682942155372 a3_z2
<= 0.000000

a4_local_1: 
+5061.46965417972933210 a4_x5
+6354.59178701338896644 a4_x2
+4779.18060369416707545 a4_x1
<= 1083547.987563

a4_local_2: 
+0.00272897662789994 a4_x4
+0.00149660556719482 a4_x2
+0.00311576325565385 a4_x6
<= 0.458281

a4_local_3: 
+1361.48016909597572521 a4_x1
+972.06931134382273285 a4_x3
+1027.89488006417673205 a4_x6
<= 166519.579134

a4_local_4: 
+9009.84213652397920669 a4_x3
+11878.17430744360899553 a4_x4
+9704.84968816436230554 a4_x1
<= 1846759.243743

a4_local_5: 
+0.56772055481155237 a4_x6
+0.58650938541563646 a4_x3
+0.31032034814233328 a4_x4
<= 70.056058

a4_local_6: 
+5.54104771737709090 a4_x5
+11.86799025912181449 a4_x4
+5.89597512050589323 a4_x2
<= 1305.052815

a4_local_7: 
+6572503.10069298092275858 a4_x6
+4766705.86553411092609167 a4_x2
+5117881.12718502990901470 a4_x4
<= 1113808848.098062

a4_local_8: 
+173.54039490090050890 a4_x6
+285.39234448983154380 a4_x2
+280.25491752191811656 a4_x1
<= 26713.182223

a4_act_1: 
+0.00002264235936546 a4_x1
-0.00226423593654648 a4_z1
<= 0.000000

a4_act_2: 
+392426.06953591195633635 a4_x2
-39242606.95359119772911072 a4_z2
<= 0.000000

coupling_1: 
+0.00000459049255195 a1_x1
+0.00016051682945243 a2_x1
+0.00302188816980328 a3_x1
+0.07248092023057071 a4_x1
+0.00053799659908821 short_1
-0.00053799659908821 surp_1
= 1.584095

coupling_2: 
+0.10371072084359997 a1_x2
+3.25407555875510290 a2_x2
+60.12955357627676989 a3_x2
+1398.79202927694609571 a4_x2
+10.80533437225037474 short_2
-10.80533437225037474 surp_2
= 114843.255565

coupling_3: 
+0.00000078641610163 a1_x3
+0.00001818527059987 a2_x3
+0.00079020330659507 a3_x3
+0.01537479069712669 a4_x3
+0.00012983188798458 short_3
-0.00012983188798458 surp_3
= 0.899679

bounds
  0.000000 <= a1_x1 <= 100.000000
  0.000000 <= a1_x2 <= 100.000000
  0.000000 <= a1_x3 <= 100.000000
  0.000000 <= a1_x4 <= 100.000000
  0.000000 <= a1_x5 <= 100.000000
  0.000000 <= a1_x6 <= 100.000000
  0.000000 <= a2_x1 <= 100.000000
  0.000000 <= a2_x2 <= 100.000000
  0.000000 <= a2_x3 <= 100.000000
  0.000000 <= a2_x4 <= 100.000000
  0.000000 <= a2_x5 <= 100.000000
  0.000000 <= a2_x6 <= 100.000000
  0.000000 <= a3_x1 <= 100.000000
  0.000000 <= a3_x2 <= 100.000000
  0.000000 <= a3_x3 <= 100.000000
  0.000000 <= a3_x4 <= 100.000000
  0.000000 <= a3_x5 <= 100.000000
  0.000000 <= a3_x6 <= 100.000000
  0.000000 <= a4_x1 <= 100.000000
  0.000000 <= a4_x2 <= 100.000000
  0.000000 <= a4_x3 <= 100.000000
  0.000000 <= a4_x4 <= 100.000000
  0.000000 <= a4_x5 <= 100.000000
  0.000000 <= a4_x6 <= 100.000000
  0.000000 <= short_1 <= +inf
  0.000000 <= surp_1 <= +inf
  0.000000 <= short_2 <= +inf
  0.000000 <= surp_2 <= +inf
  0.000000 <= short_3 <= +inf
  0.000000 <= surp_3 <= +inf
 0 <= a1_z1 <= 1
 0 <= a1_z2 <= 1
 0 <= a2_z1 <= 1
 0 <= a2_z2 <= 1
 0 <= a3_z1 <= 1
 0 <= a3_z2 <= 1
 0 <= a4_z1 <= 1
 0 <= a4_z2 <= 1

binary
  a1_z1
  a1_z2
  a2_z1
  a2_z2
  a3_z1
  a3_z2
  a4_z1
  a4_z2
end
