min
obj: 
  +2.86702301288668870 a1_x1
  +4.61217347674817457 a1_x2
  +8.37266539443051627 a1_x3
  +3.88741117842564377 a1_x4
  +3.57352147071314707 a1_x5
  +7.90632682258909369 a1_x6
  +32.52167325628295202 a1_z1
  +46.95512094955829951 a1_z2
  +1.34162249297538905 a2_x1
  +5.04177078463243156 a2_x2
  +1.10989142532268992 a2_x3
  +7.53499127677043390 a2_x4
  +4.74514201764349153 a2_x5
  +4.92271964690250208 a2_x6
  +7.37175972020868908 a2_z1
  +32.23919956008293042 a2_z2
  +7.19883337190115391 a3_x1
  +9.69659328832065093 a3_x2
  +2.68145044350852224 a3_x3
  +4.74181989860472974 a3_x4
  +5.40392510460596665 a3_x5
  +9.85025370993833427 a3_x6
  +17.99205279831755888 a3_z1
  +28.73085531973273987 a3_z2
  +5.38171902546503311 a4_x1
  +3.72975403904797487 a4_x2
  +6.65779047476273789 a4_x3
  +5.43042814174023825 a4_x4
  +9.71759449267787367 a4_x5
  +8.04794548671517163 a4_x6
  +7.84716545501873153 a4_z1
  +24.37447779336789466 a4_z2
  +1000000.00000000000000000 short_1
  +1000000.00000000000000000 surp_1
  +1000000.00000000000000000 short_2
  +1000000.00000000000000000 surp_2
  +1000000.00000000000000000 short_3
  +1000000.00000000000000000 surp_3

s.t.

a1_local_1: 
+13.38687241587228804 a1_x3
+23.50178250599172358 a1_x1
+20.88169851534881261 a1_x2
<= 3474.340610

a1_local_2: 
+1755.22061517844076661 a1_x4
+1318.28163521068381669 a1_x6
+1212.59022424236582083 a1_x2
<= 160601.940773

a1_local_3: 
+23.56324644766170096 a1_x3
+11.08782119406921929 a1_x4
+11.81374320622552077 a1_x1
<= 3032.277302

a1_local_4: 
+86.08256160762070408 a1_x3
+78.31657177965911387 a1_x6
+211.58515338901122504 a1_x1
<= 20601.987613

a1_local_5: 
+0.00000259033843815 a1_x5
+0.00000374496512916 a1_x1
+0.00000351709146856 a1_x3
<= 0.000502

a1_local_6: 
+0.00001595071192810 a1_x6
+0.00001286461293976 a1_x3
+0.00001193198444593 a1_x1
<= 0.001862

a1_local_7: 
+60.66212947123722188 a1_x4
+82.88013115662829478 a1_x3
+75.74191898926918043 a1_x6
<= 7592.788246

a1_local_8: 
+0.07351971057719961 a1_x6
+0.09073614103357709 a1_x3
+0.07120541100239337 a1_x2
<= 8.655657

a1_act_1: 
+0.06350623144148189 a1_x1
-6.35062314414818907 a1_z1
<= 0.000000

a1_act_2: 
+0.00000573905416221 a1_x2
-0.00057390541622053 a1_z2
<= 0.000000

a2_local_1: 
+221.96137168853937283 a2_x3
+345.57304033784930652 a2_x1
+286.86921133448498722 a2_x4
<= 38625.279453

a2_local_2: 
+573.79853987741762467 a2_x3
+359.09328791974729711 a2_x4
+416.10516199842794549 a2_x1
<= 87771.755728

a2_local_3: 
+0.00029268081920434 a2_x2
+0.00040785770626397 a2_x5
+0.00054251045704044 a2_x6
<= 0.076002

a2_local_4: 
+1.35412948939659317 a2_x3
+1.19232205090219212 a2_x4
+0.93249093036185049 a2_x2
<= 209.355068

a2_local_5: 
+6.49887089817904862 a2_x3
+9.95079381295919241 a2_x5
+12.19706775810225352 a2_x6
<= 1792.415659

a2_local_6: 
+0.01469999066250536 a2_x2
+0.03422977301575180 a2_x5
+0.01824245206585940 a2_x1
<= 4.511310

a2_local_7: 
+4.90352086395468145 a2_x6
+7.77568799202890926 a2_x2
+5.26228770952277713 a2_x5
<= 873.883577

a2_local_8: 
+0.00000077002602690 a2_x2
+0.00000103293250410 a2_x4
+0.00000071564082938 a2_x6
<= 0.000165

a2_act_1: 
+0.00015924100584423 a2_x1
-0.01592410058442332 a2_z1
<= 0.000000

a2_act_2: 
+141.53641529112923081 a2_x2
-14153.64152911292330828 a2_z2
<= 0.000000

a3_local_1: 
+0.19494174167895939 a3_x6
+0.26731411762288226 a3_x2
+0.19621413078628785 a3_x1
<= 33.727194

a3_local_2: 
+0.00011662023820401 a3_x3
+0.00008001637094309 a3_x1
+0.00009300906203091 a3_x4
<= 0.016698

a3_local_3: 
+58.48065764354528540 a3_x4
+47.27134446452453176 a3_x1
+69.21117255319323647 a3_x6
<= 10196.605684

a3_local_4: 
+79.81212113285248222 a3_x1
+80.34868261560876590 a3_x3
+56.53686791677615986 a3_x5
<= 7948.780395

a3_local_5: 
+15.06412075702147924 a3_x5
+31.97967058419579445 a3_x4
+42.03514222780555798 a3_x6
<= 3843.418399

a3_local_6: 
+78.98070734210261890 a3_x2
+130.53764555331730435 a3_x3
+134.13708282308394359 a3_x6
<= 18373.830387

a3_local_7: 
+204935.28803524342947640 a3_x4
+118789.95573864143807441 a3_x1
+245260.52870958560379222 a3_x2
<= 30557101.652460

a3_local_8: 
+194.45522822171076882 a3_x2
+91.54674753672314580 a3_x1
+143.25997486715155560 a3_x5
<= 14048.369679

a3_act_1: 
+5.49435142381746555 a3_x1
-549.43514238174657294 a3_z1
<= 0.000000

a3_act_2: 
+0.00002999008485637 a3_x2
-0.00299900848563669 a3_z2
<= 0.000000

a4_local_1: 
+18510.49045598681186675 a4_x1
+33087.17346908377658110 a4_x4
+24847.08031964917972800 a4_x3
<= 3063465.436400

a4_local_2: 
+448.63547140157453441 a4_x1
+323.95307074938313008 a4_x6
+334.13413505695058348 a4_x3
<= 51922.829571

a4_local_3: 
+0.25010444241700686 a4_x2
+0.15773384429865930 a4_x5
+0.34176884019018844 a4_x1
<= 42.721374

a4_local_4: 
+0.00127790381651486 a4_x5
+0.00132055371892199 a4_x4
+0.00194175818877770 a4_x3
<= 0.196254

a4_local_5: 
+3834752.77977199433371425 a4_x1
+6950407.65383414179086685 a4_x4
+8035181.38545161392539740 a4_x2
<= 762086110.358316

a4_local_6: 
+922.72642223428772468 a4_x4
+1095.98135351967016504 a4_x2
+600.48795164958494297 a4_x6
<= 133477.594414

a4_local_7: 
+1344.32527842824924846 a4_x2
+1434.80395051302843967 a4_x1
+1730.93228468018696731 a4_x3
<= 217118.001025

a4_local_8: 
+63.40265154548215776 a4_x1
+39.56111369561437385 a4_x2
+72.19772128730144800 a4_x5
<= 11414.560981

a4_act_1: 
+0.12433034612835597 a4_x1
-12.43303461283559663 a4_z1
<= 0.000000

a4_act_2: 
+0.00043403942169190 a4_x2
-0.04340394216919048 a4_z2
<= 0.000000

coupling_1: 
+2246.38151010297315224 a1_x1
+40282.13388202927308157 a2_x1
+852462.84253341692965478 a3_x1
+18590749.64416867867112160 a4_x1
+152254.62414554430870339 short_1
-152254.62414554430870339 surp_1
= 487789269.162080

coupling_2: 
+0.01368246377545525 a1_x2
+0.35063650741957098 a2_x2
+10.64714712727372614 a3_x2
+155.33998262592413653 a4_x2
+2.03987286678161617 short_2
-2.03987286678161617 surp_2
= 3774.705059

coupling_3: 
+0.28019056582718077 a1_x3
+5.85182935173796714 a2_x3
+94.60689691134172108 a3_x3
+1239.67477267961680809 a4_x3
+19.06649967744712626 short_3
-19.06649967744712626 surp_3
= 27598.693038

bounds
  0.000000 <= a1_x1 <= 100.000000
  0.000000 <= a1_x2 <= 100.000000
  0.000000 <= a1_x3 <= 100.000000
  0.000000 <= a1_x4 <= 100.000000
  0.000000 <= a1_x5 <= 100.000000
  0.000000 <= a1_x6 <= 100.000000
  0.000000 <= a2_x1 <= 100.000000
  0.000000 <= a2_x2 <= 100.000000
  0.000000 <= a2_x3 <= 100.000000
  0.000000 <= a2_x4 <= 100.000000
  0.000000 <= a2_x5 <= 100.000000
  0.000000 <= a2_x6 <= 100.000000
  0.000000 <= a3_x1 <= 100.000000
  0.000000 <= a3_x2 <= 100.000000
  0.000000 <= a3_x3 <= 100.000000
  0.000000 <= a3_x4 <= 100.000000
  0.000000 <= a3_x5 <= 100.000000
  0.000000 <= a3_x6 <= 100.000000
  0.000000 <= a4_x1 <= 100.000000
  0.000000 <= a4_x2 <= 100.000000
  0.000000 <= a4_x3 <= 100.000000
  0.000000 <= a4_x4 <= 100.000000
  0.000000 <= a4_x5 <= 100.000000
  0.000000 <= a4_x6 <= 100.000000
  0.000000 <= short_1 <= +inf
  0.000000 <= surp_1 <= +inf
  0.000000 <= short_2 <= +inf
  0.000000 <= surp_2 <= +inf
  0.000000 <= short_3 <= +inf
  0.000000 <= surp_3 <= +inf
 0 <= a1_z1 <= 1
 0 <= a1_z2 <= 1
 0 <= a2_z1 <= 1
 0 <= a2_z2 <= 1
 0 <= a3_z1 <= 1
 0 <= a3_z2 <= 1
 0 <= a4_z1 <= 1
 0 <= a4_z2 <= 1

binary
  a1_z1
  a1_z2
  a2_z1
  a2_z2
  a3_z1
  a3_z2
  a4_z1
  a4_z2
end
