min
obj: 
  +9.92789069156587445 a1_x1
  +4.10293210566149646 a1_x2
  +3.32901181929639423 a1_x3
  +9.10176472428019245 a1_x4
  +1.02767819950250816 a1_x5
  +7.50152284301075145 a1_x6
  +48.47610588570461232 a1_z1
  +46.46239370281180214 a1_z2
  +3.18500776910177885 a2_x1
  +1.07942930179392071 a2_x2
  +3.49956447593909603 a2_x3
  +4.21239525423910788 a2_x4
  +5.82517656009187501 a2_x5
  +3.89342540667494053 a2_x6
  +48.49908581708631061 a2_z1
  +41.13663869847970034 a2_z2
  +2.67192419795283609 a3_x1
  +3.86821883222705321 a3_x2
  +5.91403436703844054 a3_x3
  +8.81180590098727734 a3_x4
  +5.97909561349352625 a3_x5
  +2.68685564033826729 a3_x6
  +5.18637677701330446 a3_z1
  +6.88066661844991856 a3_z2
  +1.28562252519206366 a4_x1
  +5.29948947704055140 a4_x2
  +9.02951063485292771 a4_x3
  +3.08226664425655672 a4_x4
  +2.19298535751718138 a4_x5
  +7.06762935071550480 a4_x6
  +41.57694264723444633 a4_z1
  +44.44096075316435446 a4_z2
  +1000000.00000000000000000 short_1
  +1000000.00000000000000000 surp_1
  +1000000.00000000000000000 short_2
  +1000000.00000000000000000 surp_2
  +1000000.00000000000000000 short_3
  +1000000.00000000000000000 surp_3

s.t.

a1_local_1: 
+1.21501867946975239 a1_x4
+1.18164631490537930 a1_x6
+0.82303261414582640 a1_x1
<= 128.373546

a1_local_2: 
+0.79127728181851420 a1_x6
+0.95132572721491071 a1_x5
+1.26377949042312809 a1_x4
<= 134.081833

a1_local_3: 
+1.23148856847341337 a1_x3
+0.99607567280722864 a1_x1
+0.81202540210310448 a1_x6
<= 180.521067

a1_local_4: 
+1.29285773260494863 a1_x5
+1.36477642842819002 a1_x2
+0.73272074397687093 a1_x4
<= 142.913383

a1_local_5: 
+0.71301792026251265 a1_x4
+1.40248929456335225 a1_x2
+0.86469824810218676 a1_x5
<= 177.742148

a1_local_6: 
+1.42598131843986642 a1_x3
+1.34546167344763634 a1_x4
+0.70127145921804723 a1_x1
<= 133.724844

a1_local_7: 
+1.15777141363412128 a1_x1
+0.86372835624012012 a1_x2
+0.99437982447742579 a1_x5
<= 159.200569

a1_local_8: 
+1.09119457705747558 a1_x5
+1.18076092422336609 a1_x2
+0.84691149536282317 a1_x4
<= 141.597984

a1_act_1: 
+0.09999999999999999 a1_x1
-10.00000000000000000 a1_z1
<= 0.000000

a1_act_2: 
+0.09999999999999999 a1_x2
-9.99999999999999822 a1_z2
<= 0.000000

a2_local_1: 
+0.56034010642408960 a2_x6
+0.34159450233765348 a2_x4
+0.80568611668270007 a2_x1
<= 113.174669

a2_local_2: 
+1.07695403690108549 a2_x2
+1.03994431642959650 a2_x1
+0.92854473425577266 a2_x4
<= 169.619087

a2_local_3: 
+1.36615822705863144 a2_x3
+1.40511867175437066 a2_x4
+0.71168366067717481 a2_x5
<= 242.042653

a2_local_4: 
+0.75966402025395918 a2_x4
+1.30196850859396651 a2_x3
+1.31637141333308816 a2_x2
<= 125.050489

a2_local_5: 
+1.19791668431628406 a2_x1
+0.78884095717804725 a2_x4
+1.26768265630798438 a2_x2
<= 141.260763

a2_local_6: 
+0.69602168714649226 a2_x3
+1.43673684091617848 a2_x5
+1.08450744798437304 a2_x1
<= 204.147592

a2_local_7: 
+0.80721460123616018 a2_x3
+1.03704969679432990 a2_x6
+1.23882793803359137 a2_x4
<= 202.910173

a2_local_8: 
+1.33993980916076172 a2_x1
+2.45224332570634562 a2_x6
+2.31579785157136664 a2_x5
<= 358.667796

a2_act_1: 
+0.09999999999999999 a2_x1
-9.99999999999999822 a2_z1
<= 0.000000

a2_act_2: 
+0.09999999999999999 a2_x2
-10.00000000000000000 a2_z2
<= 0.000000

a3_local_1: 
+1.53516604128285983 a3_x1
+1.35913693643935440 a3_x4
+0.65139533647080361 a3_x2
<= 136.546115

a3_local_2: 
+0.74418733476839072 a3_x6
+1.34374767384508687 a3_x4
+1.15016229358444999 a3_x1
<= 125.999214

a3_local_3: 
+1.39624204437054211 a3_x2
+0.85747778462066948 a3_x3
+0.71620819902384669 a3_x5
<= 155.369181

a3_local_4: 
+0.74498068518282523 a3_x5
+1.34231668000169790 a3_x1
+1.10881459586575470 a3_x6
<= 142.952091

a3_local_5: 
+1.05305293782880072 a3_x6
+0.73385772437237728 a3_x3
+1.36266195311255700 a3_x1
<= 119.957445

a3_local_6: 
+0.90186303545680035 a3_x2
+1.10881581868303591 a3_x6
+0.94211412005498973 a3_x4
<= 121.818628

a3_local_7: 
+1.41230313942881769 a3_x2
+0.66640384915273376 a3_x5
+1.50059157261981713 a3_x4
<= 189.938858

a3_local_8: 
+1.15195450916476005 a3_x2
+1.24026720832964554 a3_x1
+0.80627786761110110 a3_x5
<= 198.728610

a3_act_1: 
+0.09999999999999999 a3_x1
-9.99999999999999822 a3_z1
<= 0.000000

a3_act_2: 
+0.09999999999999999 a3_x2
-10.00000000000000000 a3_z2
<= 0.000000

a4_local_1: 
+1.49261364504521588 a4_x2
+0.66996573649151303 a4_x6
+1.44407503393053593 a4_x5
<= 237.108475

a4_local_2: 
+0.62823343579449831 a4_x3
+1.59176500807434040 a4_x5
+1.28514731607699551 a4_x1
<= 201.801571

a4_local_3: 
+0.83522432276703851 a4_x4
+1.19728314027909444 a4_x3
+1.04624313120500445 a4_x6
<= 188.990239

a4_local_4: 
+1.23593504530041209 a4_x5
+0.80910400898692481 a4_x1
+0.81419027416480205 a4_x4
<= 137.881523

a4_local_5: 
+0.76408964291946735 a4_x5
+1.37056298370850138 a4_x6
+0.72962717648639308 a4_x1
<= 176.373698

a4_local_6: 
+1.07612069222968199 a4_x4
+1.07591716060219489 a4_x3
+0.92926379654315305 a4_x2
<= 128.637839

a4_local_7: 
+0.90307499200828600 a4_x3
+1.44136670186379678 a4_x6
+0.69378597320648783 a4_x1
<= 184.741017

a4_local_8: 
+0.94438556672081353 a4_x3
+0.97891764358082112 a4_x2
+1.05888954177084305 a4_x6
<= 113.364002

a4_act_1: 
+0.15616070134083881 a4_x1
-15.61607013408388056 a4_z1
<= 0.000000

a4_act_2: 
+0.09999999999999999 a4_x2
-10.00000000000000000 a4_z2
<= 0.000000

coupling_1: 
+0.00919992603089296 a1_x1
+0.25469422177582590 a2_x1
+4.89055435888460099 a3_x1
+108.69652610706241092 a4_x1
+0.94629817269069549 short_1
-0.94629817269069549 surp_1
= 3323.795773

coupling_2: 
+0.01140840042595765 a1_x2
+0.18871200407149100 a2_x2
+9.45004199882022711 a3_x2
+87.65470729136485772 a4_x2
+1.59031490793337227 short_2
-1.59031490793337227 surp_2
= 5470.732081

coupling_3: 
+0.00732987334712140 a1_x3
+0.11766867290124972 a2_x3
+4.39424886782648905 a3_x3
+136.42800532054511109 a4_x3
+0.94511083959833986 short_3
-0.94511083959833986 surp_3
= 4998.796286

bounds
  0.000000 <= a1_x1 <= 100.000000
  0.000000 <= a1_x2 <= 100.000000
  0.000000 <= a1_x3 <= 100.000000
  0.000000 <= a1_x4 <= 100.000000
  0.000000 <= a1_x5 <= 100.000000
  0.000000 <= a1_x6 <= 100.000000
  0.000000 <= a2_x1 <= 100.000000
  0.000000 <= a2_x2 <= 100.000000
  0.000000 <= a2_x3 <= 100.000000
  0.000000 <= a2_x4 <= 100.000000
  0.000000 <= a2_x5 <= 100.000000
  0.000000 <= a2_x6 <= 100.000000
  0.000000 <= a3_x1 <= 100.000000
  0.000000 <= a3_x2 <= 100.000000
  0.000000 <= a3_x3 <= 100.000000
  0.000000 <= a3_x4 <= 100.000000
  0.000000 <= a3_x5 <= 100.000000
  0.000000 <= a3_x6 <= 100.000000
  0.000000 <= a4_x1 <= 100.000000
  0.000000 <= a4_x2 <= 100.000000
  0.000000 <= a4_x3 <= 100.000000
  0.000000 <= a4_x4 <= 100.000000
  0.000000 <= a4_x5 <= 100.000000
  0.000000 <= a4_x6 <= 100.000000
  0.000000 <= short_1 <= +inf
  0.000000 <= surp_1 <= +inf
  0.000000 <= short_2 <= +inf
  0.000000 <= surp_2 <= +inf
  0.000000 <= short_3 <= +inf
  0.000000 <= surp_3 <= +inf
 0 <= a1_z1 <= 1
 0 <= a1_z2 <= 1
 0 <= a2_z1 <= 1
 0 <= a2_z2 <= 1
 0 <= a3_z1 <= 1
 0 <= a3_z2 <= 1
 0 <= a4_z1 <= 1
 0 <= a4_z2 <= 1

binary
  a1_z1
  a1_z2
  a2_z1
  a2_z2
  a3_z1
  a3_z2
  a4_z1
  a4_z2
end
