min
obj: 
  +7.78207569299738466 a1_x1
  +2.62040292120299334 a1_x2
  +1.02293933329670939 a1_x3
  +7.19109322240713489 a1_x4
  +4.26327457704359070 a1_x5
  +6.02462654690972954 a1_x6
  +42.77102711119731282 a1_z1
  +28.11411837117618262 a1_z2
  +5.79112125901829966 a2_x1
  +5.43489317194582089 a2_x2
  +9.42596272358853859 a2_x3
  +8.92130525199075564 a2_x4
  +6.14845489869399664 a2_x5
  +2.14640938868183095 a2_x6
  +31.66094613130910673 a2_z1
  +6.98996133690631005 a2_z2
  +2.81862526144540748 a3_x1
  +1.36412059178846468 a3_x2
  +2.33366974601915000 a3_x3
  +2.45567759910651384 a3_x4
  +5.22782650613177147 a3_x5
  +6.66961894421152923 a3_x6
  +49.85791959361311854 a3_z1
  +30.64094479818616890 a3_z2
  +7.09948941464576322 a4_x1
  +9.56749156260526412 a4_x2
  +9.23547813869581802 a4_x3
  +8.94781396766327930 a4_x4
  +7.43389970639344355 a4_x5
  +1.79601697429660612 a4_x6
  +7.43041409826294341 a4_z1
  +14.53020430166953325 a4_z2
  +1000000.00000000000000000 short_1
  +1000000.00000000000000000 surp_1
  +1000000.00000000000000000 short_2
  +1000000.00000000000000000 surp_2
  +1000000.00000000000000000 short_3
  +1000000.00000000000000000 surp_3

s.t.

a1_local_1: 
+378.27781679787784697 a1_x4
+581.21578763873537810 a1_x6
+270.05136760635190285 a1_x3
<= 61460.900172

a1_local_2: 
+0.00065995451659657 a1_x6
+0.00046267328841045 a1_x5
+0.00067327355899334 a1_x4
<= 0.095158

a1_local_3: 
+62.92966868493245869 a1_x4
+83.02933181553147790 a1_x2
+88.34283882256409015 a1_x3
<= 13591.245662

a1_local_4: 
+0.00020933779954202 a1_x4
+0.00013938074700897 a1_x5
+0.00021921973878004 a1_x2
<= 0.028941

a1_local_5: 
+1.23558876522844452 a1_x2
+3.00664443172470097 a1_x5
+1.46644764569395547 a1_x4
<= 315.805751

a1_local_6: 
+67.63174650789690645 a1_x2
+77.99306667588594166 a1_x3
+39.79059584744840095 a1_x1
<= 10050.228471

a1_local_7: 
+1066.59668820203773976 a1_x5
+2227.85196965710110817 a1_x2
+1072.01054905499722736 a1_x6
<= 239594.668574

a1_local_8: 
+3.89820502892746346 a1_x5
+6.95460915740242669 a1_x1
+5.06024617419446177 a1_x6
<= 977.775215

a1_act_1: 
+7.52113787054972516 a1_x1
-752.11378705497247665 a1_z1
<= 0.000000

a1_act_2: 
+133684.08856022861436941 a1_x2
-13368408.85602286085486412 a1_z2
<= 0.000000

a2_local_1: 
+0.00000155619928079 a2_x6
+0.00000232296304035 a2_x4
+0.00000231091953524 a2_x3
<= 0.000390

a2_local_2: 
+1.72857827065154201 a2_x5
+2.39678600728497138 a2_x4
+3.60083652769674512 a2_x6
<= 350.541539

a2_local_3: 
+0.00592457637397036 a2_x4
+0.00400757048599826 a2_x5
+0.00789464537198583 a2_x3
<= 0.552248

a2_local_4: 
+0.11586852609325368 a2_x5
+0.11442089306241152 a2_x6
+0.32906157907527001 a2_x4
<= 20.897965

a2_local_5: 
+8.58782342777925400 a2_x4
+5.34749787447037583 a2_x2
+10.71363831723923177 a2_x3
<= 1173.945713

a2_local_6: 
+0.01674902238969043 a2_x5
+0.01480545075053352 a2_x4
+0.01525326142820629 a2_x3
<= 1.771102

a2_local_7: 
+99653.56339274103811476 a2_x1
+159847.95969994753249921 a2_x6
+106796.24861803431122098 a2_x4
<= 25577647.656698

a2_local_8: 
+0.00000845312452906 a2_x4
+0.00000785124324430 a2_x3
+0.00000527971775527 a2_x5
<= 0.000827

a2_act_1: 
+421.10662114422365221 a2_x1
-42110.66211442236817675 a2_z1
<= 0.000000

a2_act_2: 
+0.00032430849539006 a2_x2
-0.03243084953900593 a2_z2
<= 0.000000

a3_local_1: 
+17997.77579608765881858 a3_x6
+27537.17537129575794097 a3_x2
+22682.18943617079639807 a3_x1
<= 4555830.307442

a3_local_2: 
+20.03106832803418769 a3_x1
+13.47679009391671912 a3_x6
+11.16942609681850307 a3_x2
<= 3064.611786

a3_local_3: 
+0.11584609364447895 a3_x6
+0.27733599354755312 a3_x5
+0.13053896047745503 a3_x3
<= 27.770065

a3_local_4: 
+7970.93431113374936103 a3_x2
+3667.79697560566000902 a3_x6
+8748.61713168977257737 a3_x4
<= 864727.563697

a3_local_5: 
+0.00002068743996137 a3_x1
+0.00002758596896334 a3_x5
+0.00001847741343109 a3_x3
<= 0.003309

a3_local_6: 
+83040.09665540209971368 a3_x5
+98297.04747960121312644 a3_x2
+81326.49785236929892562 a3_x3
<= 13534949.713395

a3_local_7: 
+1.52513596812868424 a3_x2
+1.24715683803209187 a3_x3
+1.81442283111437308 a3_x1
<= 244.955677

a3_local_8: 
+47.73506113276305030 a3_x6
+22.19082797662700202 a3_x1
+38.86852441506969313 a3_x2
<= 4949.127905

a3_act_1: 
+0.00096353767655553 a3_x1
-0.09635376765555276 a3_z1
<= 0.000000

a3_act_2: 
+0.00038953720416157 a3_x2
-0.03895372041615673 a3_z2
<= 0.000000

a4_local_1: 
+1600288.80677961534820497 a4_x1
+3676886.67597761563956738 a4_x6
+1940506.35791905503720045 a4_x5
<= 455914794.041513

a4_local_2: 
+702816.96907015878241509 a4_x2
+334072.82377224008087069 a4_x5
+655200.38008749694563448 a4_x4
<= 113760370.674734

a4_local_3: 
+458075.57625647488748655 a4_x6
+356311.13768796704243869 a4_x2
+209869.58461455270298757 a4_x5
<= 59648491.517652

a4_local_4: 
+27366.39372735779033974 a4_x6
+16622.72395311346554081 a4_x3
+28708.03633804773926386 a4_x4
<= 4603207.025170

a4_local_5: 
+1436.63691907484735566 a4_x5
+1461.47163819191973744 a4_x2
+2504.15309584769192952 a4_x3
<= 216453.333005

a4_local_6: 
+520328.45029751368565485 a4_x1
+443727.06617543805623427 a4_x5
+532675.83604250208009034 a4_x4
<= 82536727.302018

a4_local_7: 
+0.00420178305889089 a4_x6
+0.00808954597043127 a4_x3
+0.00669724152055091 a4_x2
<= 1.141699

a4_local_8: 
+16899.65836670650242013 a4_x3
+26779.59543580995159573 a4_x6
+13435.62769111812485789 a4_x4
<= 2058476.777832

a4_act_1: 
+270.67735686498156156 a4_x1
-27067.73568649815570097 a4_z1
<= 0.000000

a4_act_2: 
+0.83645193683873353 a4_x2
-83.64519368387335874 a4_z2
<= 0.000000

coupling_1: 
+30.20710339578955583 a1_x1
+813.91486111026949857 a2_x1
+14112.94975540694940719 a3_x1
+199307.32144241582136601 a4_x1
+3067.02099612179608812 short_1
-3067.02099612179608812 surp_1
= 15172861.621535

coupling_2: 
+0.00005041332555035 a1_x2
+0.00096553318618694 a2_x2
+0.02188130512865104 a3_x2
+0.35616028464068050 a4_x2
+0.00360863110506360 short_2
-0.00360863110506360 surp_2
= 10.614539

coupling_3: 
+0.01304286656082533 a1_x3
+0.19780095120369420 a2_x3
+2.73233606987873001 a3_x3
+58.16088410686168686 a4_x3
+1.11546251570934163 short_3
-1.11546251570934163 surp_3
= 1370.403800

bounds
  0.000000 <= a1_x1 <= 100.000000
  0.000000 <= a1_x2 <= 100.000000
  0.000000 <= a1_x3 <= 100.000000
  0.000000 <= a1_x4 <= 100.000000
  0.000000 <= a1_x5 <= 100.000000
  0.000000 <= a1_x6 <= 100.000000
  0.000000 <= a2_x1 <= 100.000000
  0.000000 <= a2_x2 <= 100.000000
  0.000000 <= a2_x3 <= 100.000000
  0.000000 <= a2_x4 <= 100.000000
  0.000000 <= a2_x5 <= 100.000000
  0.000000 <= a2_x6 <= 100.000000
  0.000000 <= a3_x1 <= 100.000000
  0.000000 <= a3_x2 <= 100.000000
  0.000000 <= a3_x3 <= 100.000000
  0.000000 <= a3_x4 <= 100.000000
  0.000000 <= a3_x5 <= 100.000000
  0.000000 <= a3_x6 <= 100.000000
  0.000000 <= a4_x1 <= 100.000000
  0.000000 <= a4_x2 <= 100.000000
  0.000000 <= a4_x3 <= 100.000000
  0.000000 <= a4_x4 <= 100.000000
  0.000000 <= a4_x5 <= 100.000000
  0.000000 <= a4_x6 <= 100.000000
  0.000000 <= short_1 <= +inf
  0.000000 <= surp_1 <= +inf
  0.000000 <= short_2 <= +inf
  0.000000 <= surp_2 <= +inf
  0.000000 <= short_3 <= +inf
  0.000000 <= surp_3 <= +inf
 0 <= a1_z1 <= 1
 0 <= a1_z2 <= 1
 0 <= a2_z1 <= 1
 0 <= a2_z2 <= 1
 0 <= a3_z1 <= 1
 0 <= a3_z2 <= 1
 0 <= a4_z1 <= 1
 0 <= a4_z2 <= 1

binary
  a1_z1
  a1_z2
  a2_z1
  a2_z2
  a3_z1
  a3_z2
  a4_z1
  a4_z2
end
