min
obj: 
  +4.68205187695116365 a1_x1
  +5.71291625483064269 a1_x2
  +9.00563589084773142 a1_x3
  +9.01724711762336106 a1_x4
  +9.40638568868457803 a1_x5
  +5.77535620951187667 a1_x6
  +36.44079832510822570 a1_z1
  +20.35589591192510284 a1_z2
  +9.85237733259970305 a2_x1
  +8.66656609951932211 a2_x2
  +1.31834896047554095 a2_x3
  +8.26919439786070853 a2_x4
  +6.06353184831551140 a2_x5
  +3.26315819103542193 a2_x6
  +31.01579944565894920 a2_z1
  +42.14273897613190911 a2_z2
  +3.40700085697226296 a3_x1
  +9.41882509326676143 a3_x2
  +9.74900107951637906 a3_x3
  +7.04508203399397814 a3_x4
  +9.97637618984075480 a3_x5
  +5.84735535483849578 a3_x6
  +49.07354774414897491 a3_z1
  +13.99914181947612590 a3_z2
  +1.91431389506638183 a4_x1
  +6.10422017205319989 a4_x2
  +2.25748963263893865 a4_x3
  +5.65946667698913863 a4_x4
  +4.35204976180165826 a4_x5
  +6.78234121926408484 a4_x6
  +29.95675458969477134 a4_z1
  +32.97214499302464219 a4_z2
  +1000000.00000000000000000 short_1
  +1000000.00000000000000000 surp_1
  +1000000.00000000000000000 short_2
  +1000000.00000000000000000 surp_2
  +1000000.00000000000000000 short_3
  +1000000.00000000000000000 surp_3

s.t.

a1_local_1: 
+0.00000039513561100 a1_x4
+0.00000032329961556 a1_x2
+0.00000021288270463 a1_x6
<= 0.000041

a1_local_2: 
+0.00208147430700458 a1_x3
+0.00093092275951968 a1_x4
+0.00187584476372024 a1_x5
<= 0.205345

a1_local_3: 
+6.11700002779620267 a1_x1
+10.75439134295285548 a1_x3
+8.04354418316576769 a1_x6
<= 1297.335665

a1_local_4: 
+0.00000043356768366 a1_x2
+0.00000037669021254 a1_x1
+0.00000074580468463 a1_x5
<= 0.000074

a1_local_5: 
+25.14470149156711543 a1_x2
+40.94048782860119218 a1_x3
+41.97734405701569216 a1_x5
<= 4602.134267

a1_local_6: 
+0.00000018236065753 a1_x6
+0.00000012827825413 a1_x1
+0.00000016198373296 a1_x3
<= 0.000025

a1_local_7: 
+18.33986525315435756 a1_x4
+14.84770120746507693 a1_x2
+13.67950912262011087 a1_x5
<= 2467.922901

a1_local_8: 
+0.00000007154919651 a1_x6
+0.00000006984057638 a1_x2
+0.00000005707761769 a1_x4
<= 0.000012

a1_act_1: 
+0.00001962820109460 a1_x1
-0.00196282010946048 a1_z1
<= 0.000000

a1_act_2: 
+0.07273068583572291 a1_x2
-7.27306858357229125 a1_z2
<= 0.000000

a2_local_1: 
+55565.55948757466831012 a2_x2
+76365.52502484557044227 a2_x6
+80034.76256088614172768 a2_x5
<= 7028109.483873

a2_local_2: 
+2.79972049098606357 a2_x1
+3.28491604731548126 a2_x4
+4.13797345065663436 a2_x5
<= 709.857716

a2_local_3: 
+414.74224825409407913 a2_x2
+288.01694810047337114 a2_x5
+178.49589465820540113 a2_x1
<= 55625.329135

a2_local_4: 
+9.23827940583706564 a2_x6
+17.73060982077417691 a2_x4
+9.82751739257636636 a2_x5
<= 1372.206302

a2_local_5: 
+0.00000315941730355 a2_x5
+0.00000585425132180 a2_x3
+0.00000411079084363 a2_x6
<= 0.000678

a2_local_6: 
+534.38723006184136466 a2_x6
+373.64333959831395759 a2_x4
+488.12252670587702141 a2_x1
<= 73482.775906

a2_local_7: 
+2422.17459687588234374 a2_x3
+2212.20427681681258036 a2_x6
+2754.49477692521168137 a2_x1
<= 345365.701857

a2_local_8: 
+2.81648961276503673 a2_x5
+2.82270185105058591 a2_x3
+3.04650226850785177 a2_x6
<= 604.145892

a2_act_1: 
+0.36369542065584565 a2_x1
-36.36954206558456804 a2_z1
<= 0.000000

a2_act_2: 
+0.00000836674068245 a2_x2
-0.00083667406824458 a2_z2
<= 0.000000

a3_local_1: 
+545.31492272662956111 a3_x5
+368.67064290376595181 a3_x2
+441.26981890442783651 a3_x3
<= 52480.131645

a3_local_2: 
+59.45674259840910025 a3_x2
+39.07679803846639999 a3_x3
+53.38191220214729782 a3_x4
<= 7701.274490

a3_local_3: 
+0.09479616035319806 a3_x6
+0.19268262250475091 a3_x4
+0.16540151758214264 a3_x1
<= 31.075150

a3_local_4: 
+0.00019273137573766 a3_x4
+0.00021688561659455 a3_x2
+0.00008730363987216 a3_x1
<= 0.024465

a3_local_5: 
+9.28774795303850809 a3_x3
+18.16550784164607535 a3_x5
+21.19949982282149392 a3_x2
<= 2406.554566

a3_local_6: 
+0.04024233020155400 a3_x1
+0.03645737702999140 a3_x6
+0.03278851253825982 a3_x2
<= 4.968761

a3_local_7: 
+39725.99421959347091615 a3_x1
+52999.09215119151485851 a3_x4
+29895.79001497063291026 a3_x6
<= 4185328.630857

a3_local_8: 
+180.14337525634712733 a3_x4
+85.84771822998170876 a3_x3
+138.15023292176078940 a3_x5
<= 25689.258704

a3_act_1: 
+0.00051177465597418 a3_x1
-0.05117746559741759 a3_z1
<= 0.000000

a3_act_2: 
+3.54435386823029752 a3_x2
-354.43538682302977350 a3_z2
<= 0.000000

a4_local_1: 
+3027.50915725932009082 a4_x3
+2307.74548272962329065 a4_x5
+2642.73297281639997891 a4_x2
<= 509745.046951

a4_local_2: 
+16.73500888154686805 a4_x3
+7.85558729599098360 a4_x2
+11.70591546650479131 a4_x6
<= 1247.059305

a4_local_3: 
+0.00330828137693586 a4_x5
+0.00512797173765937 a4_x6
+0.00610189432638658 a4_x3
<= 0.851439

a4_local_4: 
+482.15657784364628924 a4_x3
+455.43938349830989409 a4_x6
+521.80958519313458055 a4_x1
<= 99200.062019

a4_local_5: 
+0.00812961232567120 a4_x3
+0.00837650476382030 a4_x6
+0.00308572855149757 a4_x5
<= 1.012467

a4_local_6: 
+176.33902591556093853 a4_x3
+183.35358755539184017 a4_x4
+248.16314946698940958 a4_x6
<= 35631.721572

a4_local_7: 
+0.08268390163716571 a4_x6
+0.07396707484263133 a4_x3
+0.10923054862122654 a4_x1
<= 17.989696

a4_local_8: 
+0.00352866546996731 a4_x1
+0.00802058822791493 a4_x6
+0.00611890611040424 a4_x3
<= 0.935617

a4_act_1: 
+0.00039842227169960 a4_x1
-0.03984222716995969 a4_z1
<= 0.000000

a4_act_2: 
+0.00232057670786040 a4_x2
-0.23205767078603992 a4_z2
<= 0.000000

coupling_1: 
+5988.57471693629122456 a1_x1
+85617.57555773734929971 a2_x1
+1775681.98544933344237506 a3_x1
+79796478.96261931955814362 a4_x1
+667620.69556152552831918 short_1
-667620.69556152552831918 surp_1
= 4120984088.005465

coupling_2: 
+0.00350177409540059 a1_x2
+0.03580792563319794 a2_x2
+0.79826899148395802 a3_x2
+40.17800464188354681 a4_x2
+0.28973691174563837 short_2
-0.28973691174563837 surp_2
= 976.060622

coupling_3: 
+1.20308072646923647 a1_x3
+43.40967338434148814 a2_x3
+459.20450034809812223 a3_x3
+19351.60003712386242114 a4_x3
+156.37143617608060708 short_3
-156.37143617608060708 surp_3
= 1193917.478287

bounds
  0.000000 <= a1_x1 <= 100.000000
  0.000000 <= a1_x2 <= 100.000000
  0.000000 <= a1_x3 <= 100.000000
  0.000000 <= a1_x4 <= 100.000000
  0.000000 <= a1_x5 <= 100.000000
  0.000000 <= a1_x6 <= 100.000000
  0.000000 <= a2_x1 <= 100.000000
  0.000000 <= a2_x2 <= 100.000000
  0.000000 <= a2_x3 <= 100.000000
  0.000000 <= a2_x4 <= 100.000000
  0.000000 <= a2_x5 <= 100.000000
  0.000000 <= a2_x6 <= 100.000000
  0.000000 <= a3_x1 <= 100.000000
  0.000000 <= a3_x2 <= 100.000000
  0.000000 <= a3_x3 <= 100.000000
  0.000000 <= a3_x4 <= 100.000000
  0.000000 <= a3_x5 <= 100.000000
  0.000000 <= a3_x6 <= 100.000000
  0.000000 <= a4_x1 <= 100.000000
  0.000000 <= a4_x2 <= 100.000000
  0.000000 <= a4_x3 <= 100.000000
  0.000000 <= a4_x4 <= 100.000000
  0.000000 <= a4_x5 <= 100.000000
  0.000000 <= a4_x6 <= 100.000000
  0.000000 <= short_1 <= +inf
  0.000000 <= surp_1 <= +inf
  0.000000 <= short_2 <= +inf
  0.000000 <= surp_2 <= +inf
  0.000000 <= short_3 <= +inf
  0.000000 <= surp_3 <= +inf
 0 <= a1_z1 <= 1
 0 <= a1_z2 <= 1
 0 <= a2_z1 <= 1
 0 <= a2_z2 <= 1
 0 <= a3_z1 <= 1
 0 <= a3_z2 <= 1
 0 <= a4_z1 <= 1
 0 <= a4_z2 <= 1

binary
  a1_z1
  a1_z2
  a2_z1
  a2_z2
  a3_z1
  a3_z2
  a4_z1
  a4_z2
end
