min
obj: 
  +2.37029411872895501 a1_x1
  +4.08711411622905185 a1_x2
  +7.66136637275760890 a1_x3
  +4.89991689432673461 a1_x4
  +9.18560754331382867 a1_x5
  +7.80552329567271030 a1_x6
  +17.43087311454965516 a1_z1
  +23.40237872614093462 a1_z2
  +7.76967499598976019 a2_x1
  +1.80336421538305247 a2_x2
  +9.57158160013941384 a2_x3
  +5.65827493894111466 a2_x4
  +2.44173723344263127 a2_x5
  +7.27299337053102857 a2_x6
  +31.32172731425238510 a2_z1
  +17.35876123031728824 a2_z2
  +2.34937597507828766 a3_x1
  +3.44404861330662637 a3_x2
  +8.97236298110027342 a3_x3
  +1.18282410761081147 a3_x4
  +8.94329086748358293 a3_x5
  +1.71905082189577563 a3_x6
  +16.00176469749968788 a3_z1
  +34.61198408971173990 a3_z2
  +6.56106695092732561 a4_x1
  +3.99053598556514322 a4_x2
  +4.10040873738996048 a4_x3
  +4.88744804784333908 a4_x4
  +2.91326732486744788 a4_x5
  +5.36841797601257653 a4_x6
  +43.70048480327027818 a4_z1
  +7.09598516541455737 a4_z2
  +1000000.00000000000000000 short_1
  +1000000.00000000000000000 surp_1
  +1000000.00000000000000000 short_2
  +1000000.00000000000000000 surp_2
  +1000000.00000000000000000 short_3
  +1000000.00000000000000000 surp_3

s.t.

a1_local_1: 
+0.77241195716615829 a1_x3
+0.55510986696212827 a1_x2
+0.30859812706501172 a1_x1
<= 114.444167

a1_local_2: 
+0.76791484251516662 a1_x6
+0.45663690431334680 a1_x3
+0.44920989778057019 a1_x2
<= 51.838027

a1_local_3: 
+0.57353003939573333 a1_x4
+0.66341421880025586 a1_x3
+0.48056723588315414 a1_x6
<= 52.862757

a1_local_4: 
+0.43063763239582575 a1_x5
+0.81322607193567853 a1_x3
+0.39142634746345883 a1_x6
<= 88.188979

a1_local_5: 
+0.75938868227298340 a1_x3
+0.57498645125237891 a1_x5
+0.30449862087027130 a1_x4
<= 99.342260

a1_local_6: 
+0.74094541606884656 a1_x3
+0.53463991929925525 a1_x1
+0.40639887684176718 a1_x6
<= 83.734928

a1_local_7: 
+0.52339568222869337 a1_x6
+0.61423774093397820 a1_x1
+0.59056664097854683 a1_x4
<= 79.541279

a1_local_8: 
+0.34141239162707671 a1_x3
+0.52004595972523404 a1_x2
+0.55714799710601515 a1_x4
<= 51.752088

a1_act_1: 
+0.00999950003749688 a1_x1
-0.99995000374968757 a1_z1
<= 0.000000

a1_act_2: 
+0.00999950003749688 a1_x2
-0.99995000374968757 a1_z2
<= 0.000000

a2_local_1: 
+0.60791199623513237 a2_x3
+0.71091188389924798 a2_x2
+0.35362027397229145 a2_x1
<= 105.923914

a2_local_2: 
+0.27298831903800402 a2_x6
+0.64549758915640554 a2_x2
+0.71330935789604877 a2_x1
<= 104.229229

a2_local_3: 
+0.46614415501724021 a2_x2
+0.77107279126206030 a2_x3
+0.43376995898586418 a2_x1
<= 93.242355

a2_local_4: 
+0.55747467419237706 a2_x1
+0.53453374855096436 a2_x4
+0.63521308180338765 a2_x5
<= 97.956718

a2_local_5: 
+0.73739244477898214 a2_x1
+1.10959373661701322 a2_x6
+0.99383786257801909 a2_x3
<= 87.915541

a2_local_6: 
+0.45672210821443548 a2_x1
+0.37229940364563713 a2_x6
+0.80795920064893401 a2_x2
<= 79.820062

a2_local_7: 
+0.55712484542162333 a2_x3
+0.50111201771719893 a2_x2
+0.66219230765188575 a2_x4
<= 70.751625

a2_local_8: 
+0.40229894530067339 a2_x4
+0.20721214513683575 a2_x3
+0.35523275272223531 a2_x1
<= 58.318328

a2_act_1: 
+0.00656717356249348 a2_x1
-0.65671735624934802 a2_z1
<= 0.000000

a2_act_2: 
+0.00999950003749688 a2_x2
-0.99995000374968757 a2_z2
<= 0.000000

a3_local_1: 
+0.46731663203920332 a3_x5
+0.31402123127994835 a3_x4
+0.82644166867659874 a3_x2
<= 72.167649

a3_local_2: 
+0.62364322641728220 a3_x4
+0.45102014007742147 a3_x5
+0.63847471319417637 a3_x3
<= 86.233261

a3_local_3: 
+0.61873482797448975 a3_x4
+0.32757898195559443 a3_x3
+0.71404427259961634 a3_x6
<= 70.380977

a3_local_4: 
+0.51561991303265631 a3_x4
+0.54327962890760972 a3_x5
+0.66255818619816775 a3_x2
<= 94.768204

a3_local_5: 
+0.72715879570718145 a3_x4
+0.28550485592540154 a3_x6
+0.62428123715894046 a3_x5
<= 67.364339

a3_local_6: 
+0.56936091402592692 a3_x1
+0.54563177164048948 a3_x5
+0.61490984652713276 a3_x3
<= 57.308230

a3_local_7: 
+0.53565463193328722 a3_x6
+0.41952980869997958 a3_x4
+0.73284981742548938 a3_x1
<= 63.639564

a3_local_8: 
+0.68674676701610349 a3_x4
+0.33557359090746147 a3_x2
+0.64480170834016959 a3_x1
<= 105.444003

a3_act_1: 
+0.00999950003749688 a3_x1
-0.99995000374968745 a3_z1
<= 0.000000

a3_act_2: 
+0.00787136829421554 a3_x2
-0.78713682942155372 a3_z2
<= 0.000000

a4_local_1: 
+0.53699798738911919 a4_x5
+0.67419212866122302 a4_x2
+0.50704845448071745 a4_x1
<= 114.959316

a4_local_2: 
+0.61966013127884112 a4_x4
+0.33982951438988573 a4_x2
+0.70748655312523356 a4_x6
<= 104.060517

a4_local_3: 
+0.69341408287709871 a4_x1
+0.49508363420821427 a4_x3
+0.52351609794437015 a4_x6
<= 84.809918

a4_local_4: 
+0.50648080789037353 a4_x3
+0.66772172345937819 a4_x4
+0.54555008134831418 a4_x1
<= 103.814040

a4_local_5: 
+0.56772055481155237 a4_x6
+0.58650938541563646 a4_x3
+0.31032034814233328 a4_x4
<= 70.056058

a4_local_6: 
+0.38576832624855312 a4_x5
+0.82625073302251495 a4_x4
+0.41047840947258923 a4_x2
<= 90.857915

a4_local_7: 
+0.68481414059526780 a4_x6
+0.49666124622017865 a4_x2
+0.53325153477864828 a4_x4
<= 116.051988

a4_local_8: 
+0.39801599426753947 a4_x6
+0.65454914870586722 a4_x2
+0.64276642743351675 a4_x1
<= 61.266853

a4_act_1: 
+0.00999950003749688 a4_x1
-0.99995000374968768 a4_z1
<= 0.000000

a4_act_2: 
+0.00999950003749687 a4_x2
-0.99995000374968745 a4_z2
<= 0.000000

coupling_1: 
+0.00006327519816861 a1_x1
+0.00221255869126571 a2_x1
+0.04165360702014589 a3_x1
+0.99907461762202643 a4_x1
+0.00741572740531098 short_1
-0.00741572740531098 surp_1
= 21.835117

coupling_2: 
+0.00007407003946633 a1_x2
+0.00232405582665729 a2_x2
+0.04294443592966510 a3_x2
+0.99901514492384169 a4_x2
+0.00771715341373813 short_2
-0.00771715341373813 surp_2
= 82.020879

coupling_3: 
+0.00005107861893416 a1_x3
+0.00118115397848636 a2_x3
+0.05132460219780479 a3_x3
+0.99861011693906832 a4_x3
+0.00843272857476564 short_3
-0.00843272857476564 surp_3
= 58.435157

bounds
  0.000000 <= a1_x1 <= 100.000000
  0.000000 <= a1_x2 <= 100.000000
  0.000000 <= a1_x3 <= 100.000000
  0.000000 <= a1_x4 <= 100.000000
  0.000000 <= a1_x5 <= 100.000000
  0.000000 <= a1_x6 <= 100.000000
  0.000000 <= a2_x1 <= 100.000000
  0.000000 <= a2_x2 <= 100.000000
  0.000000 <= a2_x3 <= 100.000000
  0.000000 <= a2_x4 <= 100.000000
  0.000000 <= a2_x5 <= 100.000000
  0.000000 <= a2_x6 <= 100.000000
  0.000000 <= a3_x1 <= 100.000000
  0.000000 <= a3_x2 <= 100.000000
  0.000000 <= a3_x3 <= 100.000000
  0.000000 <= a3_x4 <= 100.000000
  0.000000 <= a3_x5 <= 100.000000
  0.000000 <= a3_x6 <= 100.000000
  0.000000 <= a4_x1 <= 100.000000
  0.000000 <= a4_x2 <= 100.000000
  0.000000 <= a4_x3 <= 100.000000
  0.000000 <= a4_x4 <= 100.000000
  0.000000 <= a4_x5 <= 100.000000
  0.000000 <= a4_x6 <= 100.000000
  0.000000 <= short_1 <= +inf
  0.000000 <= surp_1 <= +inf
  0.000000 <= short_2 <= +inf
  0.000000 <= surp_2 <= +inf
  0.000000 <= short_3 <= +inf
  0.000000 <= surp_3 <= +inf
 0 <= a1_z1 <= 1
 0 <= a1_z2 <= 1
 0 <= a2_z1 <= 1
 0 <= a2_z2 <= 1
 0 <= a3_z1 <= 1
 0 <= a3_z2 <= 1
 0 <= a4_z1 <= 1
 0 <= a4_z2 <= 1

binary
  a1_z1
  a1_z2
  a2_z1
  a2_z2
  a3_z1
  a3_z2
  a4_z1
  a4_z2
end
