min
obj: 
  +3.04305245350352704 a1_x1
  +8.52421046785006808 a1_x2
  +7.69307565210918742 a1_x3
  +6.91899621560824230 a1_x4
  +9.20970734213053355 a1_x5
  +1.67836132765545631 a1_x6
  +29.95730103851083470 a1_z1
  +31.08072985890714435 a1_z2
  +3.99822752437524187 a2_x1
  +4.07165663414877166 a2_x2
  +8.34795406785622518 a2_x3
  +4.87171054907478673 a2_x4
  +6.00614521080850050 a2_x5
  +2.78826542023549706 a2_x6
  +21.64829021237791906 a2_z1
  +42.54057128991149028 a2_z2
  +2.99288059555848207 a3_x1
  +5.53541108642779456 a3_x2
  +5.21389691922773402 a3_x3
  +2.06500474656608013 a3_x4
  +6.41053556614162368 a3_x5
  +2.65986220405491736 a3_x6
  +31.21797170368752461 a3_z1
  +44.91309333626589506 a3_z2
  +1.34783919856301182 a4_x1
  +6.31764736904795043 a4_x2
  +9.98943596309341864 a4_x3
  +5.70541292643470310 a4_x4
  +4.44152957180650887 a4_x5
  +5.06133401945766614 a4_x6
  +15.23838321132246598 a4_z1
  +39.66649904034947838 a4_z2
  +1000000.00000000000000000 short_1
  +1000000.00000000000000000 surp_1
  +1000000.00000000000000000 short_2
  +1000000.00000000000000000 surp_2
  +1000000.00000000000000000 short_3
  +1000000.00000000000000000 surp_3

s.t.

a1_local_1: 
+0.00000019341549887 a1_x4
+0.00000024062229808 a1_x3
+0.00000051837387155 a1_x1
<= 0.000059

a1_local_2: 
+0.00000001289552679 a1_x5
+0.00000000785027371 a1_x2
+0.00000000970530185 a1_x1
<= 0.000001

a1_local_3: 
+472.38693029913144983 a1_x1
+668.81777972625729944 a1_x5
+672.44404024075527104 a1_x4
<= 104212.471118

a1_local_4: 
+17.15766352706678788 a1_x4
+12.88245959216222047 a1_x1
+13.81342235155167764 a1_x2
<= 1843.987697

a1_local_5: 
+6658.62824261767491407 a1_x4
+13610.06439342830890382 a1_x6
+5517.44945240715424006 a1_x3
<= 1767781.401518

a1_local_6: 
+0.00000007593181149 a1_x5
+0.00000012970895142 a1_x1
+0.00000007309676971 a1_x6
<= 0.000015

a1_local_7: 
+0.12050567091264351 a1_x1
+0.12628206743131359 a1_x2
+0.08450153085595519 a1_x4
<= 18.874266

a1_local_8: 
+0.00138000074676041 a1_x3
+0.00146556839910399 a1_x6
+0.00056424892370144 a1_x5
<= 0.174822

a1_act_1: 
+0.02545274968939533 a1_x1
-2.54527496893953309 a1_z1
<= 0.000000

a1_act_2: 
+0.01961465883163257 a1_x2
-1.96146588316325676 a1_z2
<= 0.000000

a2_local_1: 
+386.18071770273706989 a2_x5
+470.67436459249813652 a2_x3
+558.93941981580564970 a2_x6
<= 92959.134767

a2_local_2: 
+15132.04455245841927535 a2_x4
+23596.46439482174901059 a2_x3
+16072.86765584049680911 a2_x6
<= 2680269.794549

a2_local_3: 
+0.00000277754703575 a2_x3
+0.00000207987587726 a2_x1
+0.00000291760975758 a2_x2
<= 0.000515

a2_local_4: 
+2583.19229230240171091 a2_x4
+2002.10676449591142045 a2_x5
+1874.74186046324166455 a2_x1
<= 202288.112668

a2_local_5: 
+8686.92145314579283877 a2_x1
+9749.33753930728744308 a2_x6
+5184.58745722186267813 a2_x2
<= 1427627.113894

a2_local_6: 
+0.08112111111941994 a2_x1
+0.06420633064048679 a2_x5
+0.09023096095749381 a2_x3
<= 12.878052

a2_local_7: 
+6149.94101916346789949 a2_x3
+11537.13025626118542277 a2_x6
+5836.84877793951636704 a2_x1
<= 1084840.194086

a2_local_8: 
+0.06282278061034140 a2_x4
+0.11017017016068111 a2_x1
+0.11887776296247538 a2_x6
<= 10.491616

a2_act_1: 
+0.00819897311699784 a2_x1
-0.81989731169978364 a2_z1
<= 0.000000

a2_act_2: 
+3178.83384646662261730 a2_x2
-317883.38464666227810085 a2_z2
<= 0.000000

a3_local_1: 
+0.00002605029443918 a3_x4
+0.00001008824456393 a3_x2
+0.00001862558999709 a3_x5
<= 0.002930

a3_local_2: 
+622.21454950448696763 a3_x1
+573.77455097729023237 a3_x6
+598.34591437227720689 a3_x3
<= 57555.558311

a3_local_3: 
+32.64396179518639229 a3_x2
+27.80241827681838274 a3_x6
+24.94742039877389672 a3_x5
<= 5967.986733

a3_local_4: 
+35212.39947846025461331 a3_x1
+50326.92556572899775347 a3_x5
+47202.52573032041254919 a3_x4
<= 4227881.932945

a3_local_5: 
+196613.40524252588511445 a3_x4
+110837.95644378803262953 a3_x2
+170134.60210101708071306 a3_x6
<= 19350158.620792

a3_local_6: 
+2035.19767113512762080 a3_x5
+1759.75284561041735287 a3_x2
+2787.77046381926402319 a3_x1
<= 328325.166282

a3_local_7: 
+0.00004017245794030 a3_x2
+0.00003788617017367 a3_x4
+0.00001972973782923 a3_x5
<= 0.006277

a3_local_8: 
+0.20206555362615908 a3_x3
+0.21945604857243858 a3_x5
+0.34365648751358308 a3_x6
<= 37.854694

a3_act_1: 
+0.00031946936814621 a3_x1
-0.03194693681462097 a3_z1
<= 0.000000

a3_act_2: 
+635.92751236185927155 a3_x2
-63592.75123618592624553 a3_z2
<= 0.000000

a4_local_1: 
+44728.19981018294492969 a4_x6
+70284.56539360298484098 a4_x2
+54589.41080355213489383 a4_x1
<= 5234829.803797

a4_local_2: 
+2779444.60041355993598700 a4_x1
+3327266.44995032530277967 a4_x6
+2439800.90211893804371357 a4_x5
<= 282429949.086292

a4_local_3: 
+212.34028236798090461 a4_x6
+171.40354078848372410 a4_x3
+213.95662471894183909 a4_x2
<= 25668.324570

a4_local_4: 
+0.00040187689135504 a4_x4
+0.00058243117269064 a4_x6
+0.00053881208608314 a4_x2
<= 0.059114

a4_local_5: 
+0.00250272220588784 a4_x5
+0.00108637879694148 a4_x6
+0.00157006491316507 a4_x1
<= 0.188618

a4_local_6: 
+0.05733602779613839 a4_x5
+0.04928757450156210 a4_x1
+0.03877511775883056 a4_x2
<= 9.471787

a4_local_7: 
+1276.81578177174924349 a4_x4
+1063.47888350917673961 a4_x2
+686.19449894926754041 a4_x5
<= 144977.023684

a4_local_8: 
+0.00086332538110625 a4_x3
+0.00043924109266805 a4_x1
+0.00072709268057046 a4_x2
<= 0.129756

a4_act_1: 
+1.63727155863054019 a4_x1
-163.72715586305400848 a4_z1
<= 0.000000

a4_act_2: 
+0.26079473459132091 a4_x2
-26.07947345913209247 a4_z2
<= 0.000000

coupling_1: 
+1166.41540655964240614 a1_x1
+34670.18172688816412119 a2_x1
+456675.73789698531618342 a3_x1
+8812090.88413750194013119 a4_x1
+118937.32247378188185394 short_1
-118937.32247378188185394 surp_1
= 531864351.237057

coupling_2: 
+0.19598479675471001 a1_x2
+5.17131044637761672 a2_x2
+52.98251921914722118 a3_x2
+2453.39300157710658823 a4_x2
+18.31189092601539770 short_2
-18.31189092601539770 surp_2
= 179518.816500

coupling_3: 
+0.24377975601975954 a1_x3
+2.95998834867415717 a2_x3
+120.36981516385685609 a3_x3
+2350.11631493763252365 a4_x3
+20.06692223275803855 short_3
-20.06692223275803855 surp_3
= 60799.764348

bounds
  0.000000 <= a1_x1 <= 100.000000
  0.000000 <= a1_x2 <= 100.000000
  0.000000 <= a1_x3 <= 100.000000
  0.000000 <= a1_x4 <= 100.000000
  0.000000 <= a1_x5 <= 100.000000
  0.000000 <= a1_x6 <= 100.000000
  0.000000 <= a2_x1 <= 100.000000
  0.000000 <= a2_x2 <= 100.000000
  0.000000 <= a2_x3 <= 100.000000
  0.000000 <= a2_x4 <= 100.000000
  0.000000 <= a2_x5 <= 100.000000
  0.000000 <= a2_x6 <= 100.000000
  0.000000 <= a3_x1 <= 100.000000
  0.000000 <= a3_x2 <= 100.000000
  0.000000 <= a3_x3 <= 100.000000
  0.000000 <= a3_x4 <= 100.000000
  0.000000 <= a3_x5 <= 100.000000
  0.000000 <= a3_x6 <= 100.000000
  0.000000 <= a4_x1 <= 100.000000
  0.000000 <= a4_x2 <= 100.000000
  0.000000 <= a4_x3 <= 100.000000
  0.000000 <= a4_x4 <= 100.000000
  0.000000 <= a4_x5 <= 100.000000
  0.000000 <= a4_x6 <= 100.000000
  0.000000 <= short_1 <= +inf
  0.000000 <= surp_1 <= +inf
  0.000000 <= short_2 <= +inf
  0.000000 <= surp_2 <= +inf
  0.000000 <= short_3 <= +inf
  0.000000 <= surp_3 <= +inf
 0 <= a1_z1 <= 1
 0 <= a1_z2 <= 1
 0 <= a2_z1 <= 1
 0 <= a2_z2 <= 1
 0 <= a3_z1 <= 1
 0 <= a3_z2 <= 1
 0 <= a4_z1 <= 1
 0 <= a4_z2 <= 1

binary
  a1_z1
  a1_z2
  a2_z1
  a2_z2
  a3_z1
  a3_z2
  a4_z1
  a4_z2
end
