min
obj: 
  +5.7129162548306427 a1_x1
  +9.0056358908477314 a1_x2
  +9.0172471176233611 a1_x3
  +9.406385688684578 a1_x4
  +5.7753562095118767 a1_x5
  +7.2881596650216451 a1_x6
  +20.355895911925103 a1_z1
  +36.986322019028464 a1_z2
  +9.5705581106952309 a2_x1
  +1.2604999258751248 a2_x2
  +5.3940318901522675 a2_x3
  +5.1816392623674004 a2_x4
  +3.5951202349319828 a2_x5
  +8.3242993176305013 a2_x6
  +8.2240572055779673 a2_z1
  +9.8483018703506104 a2_z2
  +4.4443242856945142 a3_x1
  +6.878356128261002 a3_x2
  +6.0922718983064614 a3_x3
  +7.9699820931728009 a3_x4
  +3.3886243612057902 a3_x5
  +8.8768505579425145 a3_x6
  +46.436857763791892 a3_z1
  +46.775047481358833 a3_z2
  +2.1426688948262615 a4_x1
  +3.7175386403807593 a4_x2
  +7.4752828100284079 a4_x3
  +1.4623010448148774 a4_x4
  +9.334818787187654 a4_x5
  +5.5099843569690403 a4_x6
  +29.024926983261683 a4_z1
  +40.430546823103057 a4_z2
  +1000000 short_1
  +1000000 surp_1
  +1000000 short_2
  +1000000 surp_2
  +1000000 short_3
  +1000000 surp_3

s.t.

a1_local_1: 
+0.69479125208272063 a1_x1
+0.45749835068840972 a1_x3
+0.55494177635740338 a1_x4
<= 59.663310787211685

a1_local_2: 
+0.70495917278386278 a1_x3
+0.31528735967011728 a1_x4
+0.63531602021367117 a1_x5
<= 69.546758313812376

a1_local_3: 
+0.62596231467382157 a1_x2
+0.38556695188663004 a1_x4
+0.67787115753736316 a1_x1
<= 71.02687152423691

a1_local_4: 
+0.56438140470326137 a1_x2
+0.69233475721564841 a1_x3
+0.44960673257450545 a1_x4
<= 55.951589752315293

a1_local_5: 
+0.68580351629667846 a1_x1
+0.35780747295462445 a1_x3
+0.63375653790153308 a1_x2
<= 58.087174475243664

a1_local_6: 
+0.60301586421584163 a1_x2
+0.59136723368593413 a1_x3
+0.53540327084046446 a1_x4
<= 107.99982323166805

a1_local_7: 
+0.42300015015955056 a1_x1
+0.61028157461119636 a1_x2
+0.6697964412081302 a1_x4
<= 112.47732344150536

a1_local_8: 
+0.66879392168088614 a1_x2
+0.63988053821378044 a1_x6
+0.37850705031471144 a1_x5
<= 100.04771328409406

a1_act_1: 
+0.0099995000374968751 a1_x1
-0.99995000374968757 a1_z1
<= 0

a1_act_2: 
+0.0099995000374968751 a1_x2
-0.99995000374968757 a1_z2
<= 0

a2_local_1: 
+0.33820536481278862 a2_x5
+0.48778173978046802 a2_x6
+0.54554938484551596 a2_x2
<= 51.932806094045041

a2_local_2: 
+0.50042309546837249 a2_x4
+0.61519349163932335 a2_x6
+0.61686924455462411 a2_x2
<= 77.758009441021798

a2_local_3: 
+0.6324144696609183 a2_x6
+0.26871087639233177 a2_x1
+0.6744077799471595 a2_x2
<= 77.059194652255357

a2_local_4: 
+0.49578885918991755 a2_x6
+0.62453989901379936 a2_x2
+0.6897397356920163 a2_x5
<= 97.469538724695127

a2_local_5: 
+0.62033792694412293 a2_x2
+0.43079246751818473 a2_x5
+0.26697972952220134 a2_x1
<= 83.199870537150559

a2_local_6: 
+0.41867061427744201 a2_x2
+0.34489115079170474 a2_x4
+0.66193391179116723 a2_x3
<= 59.325626197394854

a2_local_7: 
+0.63196563393785599 a2_x5
+0.56559031981327079 a2_x1
+0.5298367934138265 a2_x6
<= 88.177031625780046

a2_local_8: 
+0.29935784194281662 a2_x3
+0.41502606140354453 a2_x2
+0.61287656635003629 a2_x5
<= 80.296464065811946

a2_act_1: 
+0.0099995000374968751 a2_x1
-0.99995000374968757 a2_z1
<= 0

a2_act_2: 
+0.0099995000374968751 a2_x2
-0.99995000374968757 a2_z2
<= 0

a3_local_1: 
+0.59681975406716736 a3_x6
+0.47404587273329107 a3_x4
+0.64736905370873143 a3_x5
<= 99.289265654578472

a3_local_2: 
+0.71391929117014508 a3_x3
+0.5262428301148252 a3_x6
+0.4619390971198013 a3_x5
<= 56.297317275952267

a3_local_3: 
+0.56584994127175092 a3_x3
+0.46492350293259033 a3_x5
+0.68092582590444128 a3_x2
<= 59.885259882048189

a3_local_4: 
+0.39007143722254972 a3_x1
+0.81479049376990464 a3_x4
+0.42890642933550149 a3_x2
<= 88.919332644725813

a3_local_5: 
+0.420927931480853 a3_x2
+0.68675080476973371 a3_x5
+0.59261539690373655 a3_x3
<= 89.267444731402321

a3_local_6: 
+0.51844749248734745 a3_x5
+0.58289053460030926 a3_x3
+0.62566030895922065 a3_x2
<= 84.242005577066109

a3_local_7: 
+0.53343577926673902 a3_x5
+0.45790889845894633 a3_x6
+0.71117206786417131 a3_x1
<= 77.050840596529369

a3_local_8: 
+0.63608518661876157 a3_x4
+0.71580316063459848 a3_x2
+0.28813446616067029 a3_x1
<= 80.742037538558165

a3_act_1: 
+0.0099995000374968751 a3_x1
-0.99995000374968757 a3_z1
<= 0

a3_act_2: 
+0.0099995000374968751 a3_x2
-0.99995000374968757 a3_z2
<= 0

a4_local_1: 
+0.66069904971540949 a4_x2
+0.69336261653351261 a4_x5
+0.28761962328560969 a4_x4
<= 71.083344955417061

a4_local_2: 
+0.6248901242335827 a4_x2
+0.56750506185175642 a4_x4
+0.53614395213223442 a4_x3
<= 98.441513249438813

a4_local_3: 
+0.44264131437622817 a4_x6
+0.69653321876731578 a4_x4
+0.56472129582735575 a4_x1
<= 64.784194818679225

a4_local_4: 
+0.66120517301568915 a4_x1
+0.42771909264954833 a4_x6
+0.61633115851816211 a4_x3
<= 58.087168187582868

a4_local_5: 
+0.52425265155470113 a4_x1
+0.6430442305293278 a4_x3
+0.55825914674173494 a4_x6
<= 85.567547861153557

a4_local_6: 
+0.63287532907092325 a4_x6
+0.49128380707661323 a4_x2
+0.5984221242214226 a4_x4
<= 111.86894092999501

a4_local_7: 
+0.74216029705005382 a4_x3
+0.46473330202124563 a4_x6
+0.48292965478939637 a4_x4
<= 92.670670360304285

a4_local_8: 
+0.37257535466557795 a4_x4
+0.56933622475909484 a4_x5
+0.73283276964999355 a4_x6
<= 82.630082006648806

a4_act_1: 
+0.0099995000374968751 a4_x1
-0.99995000374968757 a4_z1
<= 0

a4_act_2: 
+0.0099995000374968751 a4_x2
-0.99995000374968757 a4_z2
<= 0

coupling_1: 
+0.037189608727376734 a1_x1
+0.07677358716991374 a2_x1
+0.65166865978976662 a3_x1
+1.6376290478815831 a4_x1
+0.28490577426787828 short_1
-0.28490577426787828 surp_1
= 181.83885491752696

coupling_2: 
+0.0090580483587306866 a1_x2
+0.041923148134081732 a2_x2
+0.18380742088337032 a3_x2
+0.97748742130991673 a4_x2
+0.066684235841583062 short_2
-0.066684235841583062 surp_2
= 93.296019249656339

coupling_3: 
+0.01394024581558144 a1_x3
+0.039511940733419855 a2_x3
+0.17341870014164296 a3_x3
+0.96573513235250374 a4_x3
+0.13327806396281958 short_3
-0.13327806396281958 surp_3
= 33.98917140850871

bounds
  0 <= a1_x1 <= 100
  0 <= a1_x2 <= 100
  0 <= a1_x3 <= 100
  0 <= a1_x4 <= 100
  0 <= a1_x5 <= 100
  0 <= a1_x6 <= 100
  0 <= a2_x1 <= 100
  0 <= a2_x2 <= 100
  0 <= a2_x3 <= 100
  0 <= a2_x4 <= 100
  0 <= a2_x5 <= 100
  0 <= a2_x6 <= 100
  0 <= a3_x1 <= 100
  0 <= a3_x2 <= 100
  0 <= a3_x3 <= 100
  0 <= a3_x4 <= 100
  0 <= a3_x5 <= 100
  0 <= a3_x6 <= 100
  0 <= a4_x1 <= 100
  0 <= a4_x2 <= 100
  0 <= a4_x3 <= 100
  0 <= a4_x4 <= 100
  0 <= a4_x5 <= 100
  0 <= a4_x6 <= 100
  0 <= short_1 <= +inf
  0 <= surp_1 <= +inf
  0 <= short_2 <= +inf
  0 <= surp_2 <= +inf
  0 <= short_3 <= +inf
  0 <= surp_3 <= +inf
 0 <= a1_z1 <= 1
 0 <= a1_z2 <= 1
 0 <= a2_z1 <= 1
 0 <= a2_z2 <= 1
 0 <= a3_z1 <= 1
 0 <= a3_z2 <= 1
 0 <= a4_z1 <= 1
 0 <= a4_z2 <= 1

binary
  a1_z1
  a1_z2
  a2_z1
  a2_z2
  a3_z1
  a3_z2
  a4_z1
  a4_z2
end
