min
obj: 
  +5.7129162548306427 a1_x1
  +9.0056358908477314 a1_x2
  +9.0172471176233611 a1_x3
  +9.406385688684578 a1_x4
  +5.7753562095118767 a1_x5
  +7.2881596650216451 a1_x6
  +20.355895911925103 a1_z1
  +36.986322019028464 a1_z2
  +9.5705581106952309 a2_x1
  +1.2604999258751248 a2_x2
  +5.3940318901522675 a2_x3
  +5.1816392623674004 a2_x4
  +3.5951202349319828 a2_x5
  +8.3242993176305013 a2_x6
  +8.2240572055779673 a2_z1
  +9.8483018703506104 a2_z2
  +4.4443242856945142 a3_x1
  +6.878356128261002 a3_x2
  +6.0922718983064614 a3_x3
  +7.9699820931728009 a3_x4
  +3.3886243612057902 a3_x5
  +8.8768505579425145 a3_x6
  +46.436857763791892 a3_z1
  +46.775047481358833 a3_z2
  +2.1426688948262615 a4_x1
  +3.7175386403807593 a4_x2
  +7.4752828100284079 a4_x3
  +1.4623010448148774 a4_x4
  +9.334818787187654 a4_x5
  +5.5099843569690403 a4_x6
  +29.024926983261683 a4_z1
  +40.430546823103057 a4_z2
  +1000000 short_1
  +1000000 surp_1
  +1000000 short_2
  +1000000 surp_2
  +1000000 short_3
  +1000000 surp_3

s.t.

a1_local_1: 
+1.2323452756278992 a1_x1
+0.81146089474841721 a1_x3
+0.98429546182768979 a1_x4
<= 105.82430184107376

a1_local_2: 
+1.4953012733070599 a1_x3
+0.66876155183655095 a1_x4
+1.3475799601647833 a1_x5
<= 147.51684959336771

a1_local_3: 
+1.224403913108022 a1_x2
+0.75418227837105534 a1_x4
+1.3259394030842011 a1_x1
<= 138.93101452187693

a1_local_4: 
+1.0115753214621128 a1_x2
+1.2409139435733898 a1_x3
+0.8058576544964563 a1_x4
<= 100.28545752632152

a1_local_5: 
+1.384443225138271 a1_x1
+0.72231203262244648 a1_x3
+1.2793751044363268 a1_x2
<= 117.26156728377987

a1_local_6: 
+1.0612650420993099 a1_x2
+1.0407642806710886 a1_x3
+0.94227168551776641 a1_x4
<= 190.07200929567711

a1_local_7: 
+0.79469200336156565 a1_x1
+1.146538333283077 a1_x2
+1.2583491412647625 a1_x4
<= 211.31157864781323

a1_local_8: 
+1.32925766104638 a1_x2
+1.2717910256083258 a1_x6
+0.75229959495799226 a1_x5
<= 198.84927933975644

a1_act_1: 
+0.10000000000000001 a1_x1
-10 a1_z1
<= 0

a1_act_2: 
+0.10000000000000001 a1_x2
-10 a1_z2
<= 0

a2_local_1: 
+0.78735975213671516 a2_x5
+1.1355813647218718 a2_x6
+1.2700674593617816 a2_x2
<= 120.90228478961497

a2_local_2: 
+0.50042309546837249 a2_x4
+0.61519349163932335 a2_x6
+0.61686924455462411 a2_x2
<= 77.758009441021798

a2_local_3: 
+1.4855863130703757 a2_x6
+0.63122085166019215 a2_x1
+1.5842315686655017 a2_x2
<= 181.01749780171249

a2_local_4: 
+0.49578885918991755 a2_x6
+0.62453989901379936 a2_x2
+0.6897397356920163 a2_x5
<= 97.469538724695127

a2_local_5: 
+1.5243160512059695 a2_x2
+1.058558318707707 a2_x5
+0.65603192934224197 a2_x1
<= 204.44163190663789

a2_local_6: 
+0.87624214611492035 a2_x2
+0.72182797607453419 a2_x4
+1.3853716302854169 a2_x3
<= 124.16351242738196

a2_local_7: 
+1.0921333627316958 a2_x5
+0.97742665856242417 a2_x1
+0.91563909145560063 a2_x6
<= 152.38340962482141

a2_local_8: 
+0.69888997605858483 a2_x3
+0.96893253985114847 a2_x2
+1.4308403815426516 a2_x5
<= 187.46258151895705

a2_act_1: 
+0.10000000000000001 a2_x1
-10 a2_z1
<= 0

a2_act_2: 
+0.10000000000000001 a2_x2
-10 a2_z2
<= 0

a3_local_1: 
+1.0773505483208321 a3_x6
+0.85572499475438224 a3_x4
+1.1685997325426132 a3_x5
<= 179.23224569288354

a3_local_2: 
+1.2431748000536704 a3_x3
+0.91636664423984615 a3_x6
+0.8043921095865425 a3_x5
<= 98.032658612400823

a3_local_3: 
+1.0056818710328312 a3_x3
+0.82630588821045059 a3_x5
+1.210205583994715 a3_x2
<= 106.43373059314696

a3_local_4: 
+0.69190918930061074 a3_x1
+1.4452763678580578 a3_x4
+0.7607947454969175 a3_x2
<= 157.72522028641092

a3_local_5: 
+1.5470686367818622 a3_x2
+2.5240677842550991 a3_x5
+2.1780847163037689 a3_x3
<= 328.09147053690543

a3_local_6: 
+0.91029694822628682 a3_x5
+1.0234468918944566 a3_x3
+1.0985426260611986 a3_x2
<= 147.9132249658563

a3_local_7: 
+0.9347710523440631 a3_x5
+0.80242083401035436 a3_x6
+1.2462288584933428 a3_x1
<= 135.02074316690542

a3_local_8: 
+2.6795419567126917 a3_x4
+3.0153580715558017 a3_x2
+1.2137814360315695 a3_x1
<= 340.13003573483371

a3_act_1: 
+0.10000000000000001 a3_x1
-10 a3_z1
<= 0

a3_act_2: 
+0.10000000000000001 a3_x2
-10 a3_z2
<= 0

a4_local_1: 
+1.4794974275516786 a4_x2
+1.5526406583507266 a4_x5
+0.64406403028388926 a4_x4
<= 159.17629372799641

a4_local_2: 
+1.0795956472278041 a4_x2
+0.98045395629565901 a4_x4
+0.9262727230957345 a4_x3
<= 170.07314580456742

a4_local_3: 
+0.79717754452400935 a4_x6
+1.2544257008607722 a4_x4
+1.0170382233354516 a4_x1
<= 116.67348634706046

a4_local_4: 
+1.2433368427075553 a4_x1
+0.80428727409247169 a4_x6
+1.1589552955237972 a4_x3
<= 109.22769398003234

a4_local_5: 
+0.90292129301725321 a4_x1
+1.1075162450298885 a4_x3
+0.96149074138189872 a4_x6
<= 147.37314294164707

a4_local_6: 
+1.1349921509874219 a4_x6
+0.88106336165410393 a4_x2
+1.0732041253142599 a4_x4
<= 200.62461603806796

a4_local_7: 
+1.263708659548394 a4_x3
+0.79132163291289426 a4_x6
+0.82230535523906789 a4_x4
<= 157.79438631513455

a4_local_8: 
+0.71302477651448681 a4_x4
+1.0895804817386134 a4_x5
+1.4024758086084299 a4_x6
<= 158.13524705370918

a4_act_1: 
+0.10000000000000001 a4_x1
-10 a4_z1
<= 0

a4_act_2: 
+0.10000000000000001 a4_x2
-10 a4_z2
<= 0

coupling_1: 
+0.1506964556832221 a1_x1
+0.31109516535666387 a2_x1
+2.6406343242288903 a3_x1
+6.6358561352105898 a4_x1
+1.1544700752457173 short_1
-1.1544700752457173 surp_1
= 736.83138595096102

coupling_2: 
+0.096263517913382876 a1_x2
+0.44553413291294275 a2_x2
+1.9533952847320075 a3_x2
+10.388151416820149 a4_x2
+0.7086801568341391 short_2
-0.7086801568341391 surp_2
= 991.49426726455715

coupling_3: 
+0.12014513799441372 a1_x3
+0.34053686245172021 a2_x3
+1.4946231174805515 a3_x3
+8.3232664816323751 a4_x3
+1.1486677923959818 short_3
-1.1486677923959818 surp_3
= 292.93842757253663

bounds
  0 <= a1_x1 <= 100
  0 <= a1_x2 <= 100
  0 <= a1_x3 <= 100
  0 <= a1_x4 <= 100
  0 <= a1_x5 <= 100
  0 <= a1_x6 <= 100
  0 <= a2_x1 <= 100
  0 <= a2_x2 <= 100
  0 <= a2_x3 <= 100
  0 <= a2_x4 <= 100
  0 <= a2_x5 <= 100
  0 <= a2_x6 <= 100
  0 <= a3_x1 <= 100
  0 <= a3_x2 <= 100
  0 <= a3_x3 <= 100
  0 <= a3_x4 <= 100
  0 <= a3_x5 <= 100
  0 <= a3_x6 <= 100
  0 <= a4_x1 <= 100
  0 <= a4_x2 <= 100
  0 <= a4_x3 <= 100
  0 <= a4_x4 <= 100
  0 <= a4_x5 <= 100
  0 <= a4_x6 <= 100
  0 <= short_1 <= +inf
  0 <= surp_1 <= +inf
  0 <= short_2 <= +inf
  0 <= surp_2 <= +inf
  0 <= short_3 <= +inf
  0 <= surp_3 <= +inf
 0 <= a1_z1 <= 1
 0 <= a1_z2 <= 1
 0 <= a2_z1 <= 1
 0 <= a2_z2 <= 1
 0 <= a3_z1 <= 1
 0 <= a3_z2 <= 1
 0 <= a4_z1 <= 1
 0 <= a4_z2 <= 1

binary
  a1_z1
  a1_z2
  a2_z1
  a2_z2
  a3_z1
  a3_z2
  a4_z1
  a4_z2
end
