min
obj: 
  +4.1029321056614965 a1_x1
  +3.3290118192963942 a1_x2
  +9.1017647242801925 a1_x3
  +1.0276781995025082 a1_x4
  +7.5015228430107515 a1_x5
  +9.6952211771409225 a1_x6
  +46.462393702811802 a1_z1
  +20.976939063031899 a1_z2
  +8.736124438174345 a2_x1
  +2.0422875685559534 a2_x2
  +7.9141637375248139 a2_x3
  +8.8510497644699591 a2_x4
  +5.3589026031734779 a2_x5
  +4.4651025961117679 a2_x6
  +43.599104627831977 a2_z1
  +13.736336737274122 a2_z2
  +8.7712175698219141 a3_x1
  +5.7628145052800139 a3_x2
  +8.5270938060320436 a3_x3
  +1.138926571582954 a3_x4
  +2.911442950069294 a3_x5
  +3.0275728231625529 a3_x6
  +21.64888772902043 a3_z1
  +37.443506250957391 a3_z2
  +3.737467766634015 a4_x1
  +6.3047039607963935 a4_x2
  +7.2324424815448989 a4_x3
  +3.5312943582825165 a4_x4
  +2.1943254476366931 a4_x5
  +2.7966711705726111 a4_x6
  +25.767819676338174 a4_z1
  +25.233732022591987 a4_z2
  +1000000 short_1
  +1000000 surp_1
  +1000000 short_2
  +1000000 surp_2
  +1000000 short_3
  +1000000 surp_3

s.t.

a1_local_1: 
+0.71415339693519386 a1_x6
+0.49741748420529763 a1_x1
+0.49250459089514659 a1_x4
<= 77.016942008229634

a1_local_2: 
+0.4473793755288884 a1_x6
+0.53786898669433558 a1_x5
+0.71452686968636159 a1_x4
<= 75.808377004218002

a1_local_3: 
+0.4878278375296824 a1_x1
+0.6787153564319186 a1_x5
+0.54897127964457981 a1_x6
<= 78.422254764904196

a1_local_4: 
+0.5969696029719459 a1_x4
+0.32650601690610193 a1_x5
+0.73281724464673281 a1_x3
<= 113.62347650379078

a1_local_5: 
+0.34244761139432633 a1_x6
+0.71006424913781585 a1_x2
+0.61525474036911765 a1_x1
<= 64.646293106808926

a1_local_6: 
+0.56540781634392867 a1_x5
+0.4531348652962312 a1_x1
+0.68918995572349739 a1_x6
<= 103.4441459829999

a1_local_7: 
+0.47103547738668566 a1_x5
+0.79789531776988298 a1_x1
+0.37614975863875638 a1_x3
<= 84.476916496315084

a1_local_8: 
+0.3955362886254466 a1_x1
+0.64977978573174167 a1_x3
+0.64910497951781221 a1_x4
<= 95.547126978520097

a1_act_1: 
+0.0099995000374968751 a1_x1
-0.99995000374968757 a1_z1
<= 0

a1_act_2: 
+0.0099995000374968751 a1_x2
-0.99995000374968757 a1_z2
<= 0

a2_local_1: 
+0.36353975853708448 a2_x4
+0.66538706543969173 a2_x5
+0.58187843579534926 a2_x1
<= 48.470070278007604

a2_local_2: 
+0.68075693279386518 a2_x4
+0.60481592760766745 a2_x5
+0.29195593868319891 a2_x2
<= 75.736664863395575

a2_local_3: 
+0.56767769955076086 a2_x6
+0.65302783320504876 a2_x3
+0.48293400883379917 a2_x4
<= 110.54575892203712

a2_local_4: 
+0.45020832245519266 a2_x3
+0.40198168356660757 a2_x2
+0.53025544856673823 a2_x5
<= 61.75764790313783

a2_local_5: 
+0.64121848835429274 a2_x3
+0.65950491884133822 a2_x4
+0.33403504224279174 a2_x5
<= 113.60486732932422

a2_local_6: 
+0.57264794537031583 a2_x1
+0.37460116245623287 a2_x4
+0.64201923981823039 a2_x5
<= 104.79571376242772

a2_local_7: 
+0.57675983587326018 a2_x6
+0.6838858274412688 a2_x2
+0.62477054855402947 a2_x4
<= 85.701474083470288

a2_local_8: 
+0.6865660214053636 a2_x5
+0.5701469983080405 a2_x1
+0.40639793740128471 a2_x3
<= 60.572308939727876

a2_act_1: 
+0.0099995000374968751 a2_x1
-0.99995000374968757 a2_z1
<= 0

a2_act_2: 
+0.0099995000374968751 a2_x2
-0.99995000374968757 a2_z2
<= 0

a3_local_1: 
+0.31073696813617063 a3_x4
+0.82345744714744384 a3_x2
+0.47472135971636575 a3_x6
<= 98.016706940914105

a3_local_2: 
+0.68035295515910243 a3_x1
+0.60231018646962087 a3_x4
+0.41754316624896071 a3_x2
<= 109.36515716015035

a3_local_3: 
+0.51122793403997036 a3_x3
+0.55872705184535776 a3_x6
+0.65304676784547266 a3_x5
<= 92.475398021290118

a3_local_4: 
+0.33481949451612891 a3_x6
+0.57798676603309973 a3_x4
+0.74419567613804549 a3_x1
<= 113.22264181575233

a3_local_5: 
+0.42675409405673337 a3_x6
+0.82453758382377473 a3_x4
+0.37150870254661383 a3_x3
<= 54.369782437400175

a3_local_6: 
+0.49382611132272158 a3_x2
+0.44420104054656451 a3_x6
+0.74754344847187859 a3_x5
<= 85.974552789248989

a3_local_7: 
+0.4867005333076862 a3_x3
+0.40651655200425718 a3_x4
+0.77321852268591185 a3_x5
<= 115.18369486482587

a3_local_8: 
+0.39338963232188406 a3_x5
+0.70881497427790463 a3_x1
+0.58551338961723698 a3_x6
<= 75.48634717131975

a3_act_1: 
+0.0099995000374968751 a3_x1
-0.99995000374968757 a3_z1
<= 0

a3_act_2: 
+0.0099995000374968751 a3_x2
-0.99995000374968757 a3_z2
<= 0

a4_local_1: 
+0.72092581497932895 a4_x5
+0.54493029806463444 a4_x2
+0.42815527504350448 a4_x1
<= 86.879862954514493

a4_local_2: 
+0.60563662410296837 a4_x4
+0.48343156649465174 a4_x6
+0.63205869985444152 a4_x2
<= 120.27268838154914

a4_local_3: 
+0.84876174958217054 a4_x3
+0.36336238643023216 a4_x6
+0.38415005996867863 a4_x4
<= 52.908012581081913

a4_local_4: 
+0.61061676789435204 a4_x6
+0.69934962234254361 a4_x1
+0.37156058522883761 a4_x2
<= 52.580395845799096

a4_local_5: 
+0.59235179150408668 a4_x5
+0.4066473582925329 a4_x6
+0.69552662141402122 a4_x1
<= 114.9108563738682

a4_local_6: 
+0.67759465028893862 a4_x1
+0.4970538041886457 a4_x3
+0.54203598186965984 a4_x6
<= 87.94677087341141

a4_local_7: 
+0.64610659315214292 a4_x1
+0.32822878004391903 a4_x3
+0.68906613487836677 a4_x6
<= 100.54988002712567

a4_local_8: 
+0.58907579279263722 a4_x1
+0.67829366958435333 a4_x3
+0.43921225864895669 a4_x4
<= 107.10259544161146

a4_act_1: 
+0.0099995000374968751 a4_x1
-0.99995000374968757 a4_z1
<= 0

a4_act_2: 
+0.0099995000374968751 a4_x2
-0.99995000374968757 a4_z2
<= 0

coupling_1: 
+0.0082967857874805106 a1_x1
+0.065548529731411342 a2_x1
+0.12240101372285378 a3_x1
+0.97848097466511175 a4_x1
+0.10776717416188805 short_1
-0.10776717416188805 surp_1
= 48.574065041234419

coupling_2: 
+0.0086804543692472289 a1_x2
+0.067494551313339021 a2_x2
+0.20508981217789959 a3_x2
+0.95792677244751434 a4_x2
+0.133573206190606 short_2
-0.133573206190606 surp_2
= 58.657104347147389

coupling_3: 
+0.011064960398936464 a1_x3
+0.064221055736775778 a2_x3
+0.14192819832706427 a3_x3
+0.97220361334871774 a4_x3
+0.12334857794631103 short_3
-0.12334857794631103 surp_3
= 45.898964065717486

bounds
  0 <= a1_x1 <= 100
  0 <= a1_x2 <= 100
  0 <= a1_x3 <= 100
  0 <= a1_x4 <= 100
  0 <= a1_x5 <= 100
  0 <= a1_x6 <= 100
  0 <= a2_x1 <= 100
  0 <= a2_x2 <= 100
  0 <= a2_x3 <= 100
  0 <= a2_x4 <= 100
  0 <= a2_x5 <= 100
  0 <= a2_x6 <= 100
  0 <= a3_x1 <= 100
  0 <= a3_x2 <= 100
  0 <= a3_x3 <= 100
  0 <= a3_x4 <= 100
  0 <= a3_x5 <= 100
  0 <= a3_x6 <= 100
  0 <= a4_x1 <= 100
  0 <= a4_x2 <= 100
  0 <= a4_x3 <= 100
  0 <= a4_x4 <= 100
  0 <= a4_x5 <= 100
  0 <= a4_x6 <= 100
  0 <= short_1 <= +inf
  0 <= surp_1 <= +inf
  0 <= short_2 <= +inf
  0 <= surp_2 <= +inf
  0 <= short_3 <= +inf
  0 <= surp_3 <= +inf
 0 <= a1_z1 <= 1
 0 <= a1_z2 <= 1
 0 <= a2_z1 <= 1
 0 <= a2_z2 <= 1
 0 <= a3_z1 <= 1
 0 <= a3_z2 <= 1
 0 <= a4_z1 <= 1
 0 <= a4_z2 <= 1

binary
  a1_z1
  a1_z2
  a2_z1
  a2_z2
  a3_z1
  a3_z2
  a4_z1
  a4_z2
end
