min
obj: 
  +8.5242104678500681 a1_x1
  +7.6930756521091874 a1_x2
  +6.9189962156082423 a1_x3
  +9.2097073421305335 a1_x4
  +1.6783613276554563 a1_x5
  +5.9914602077021666 a1_x6
  +31.080729858907144 a1_z1
  +20.883867024027893 a1_z2
  +6.9077742042221582 a2_x1
  +5.0875445936298673 a2_x2
  +7.5917023578038236 a2_x3
  +8.2794490372741638 a2_x4
  +1.0351287904006585 a2_x5
  +5.7857723772906011 a2_x6
  +23.934213589769115 a2_z1
  +21.521505149496146 a2_z2
  +3.338751629164217 a3_x1
  +6.1106898664601106 a3_x2
  +6.5508211726549801 a3_x3
  +5.1951326468311683 a3_x4
  +3.9370151452755238 a3_x5
  +3.370609165759376 a3_x6
  +38.539597563502319 a3_z1
  +26.755532445572879 a3_z2
  +8.5438219758017482 a4_x1
  +7.1495610706401269 a4_x2
  +5.5659057933768521 a4_x3
  +2.526471255000704 a4_x4
  +2.3501129539553487 a4_x5
  +8.7808046110821252 a4_x6
  +7.4539102618189466 a4_z1
  +36.014449453139093 a4_z2
  +1000000 short_1
  +1000000 surp_1
  +1000000 short_2
  +1000000 surp_2
  +1000000 short_3
  +1000000 surp_3

s.t.

a1_local_1: 
+0.3176743525885522 a1_x6
+0.68436751439391019 a1_x2
+0.65629574960511927 a1_x4
<= 58.49237271602054

a1_local_2: 
+0.71851210683700539 a1_x5
+0.43740103016539983 a1_x2
+0.54075936528080093 a1_x1
<= 66.230322801693333

a1_local_3: 
+0.6556846654754902 a1_x4
+0.43558837821792012 a1_x2
+0.61671742655917905 a1_x1
<= 72.037781467725509

a1_local_4: 
+0.3862288217550679 a1_x4
+0.72437241943248842 a1_x2
+0.57106207649537988 a1_x6
<= 66.841978687296148

a1_local_5: 
+0.62525545523963921 a1_x5
+0.66502426339881271 a1_x2
+0.40840953072123315 a1_x1
<= 64.124917319382988

a1_local_6: 
+0.77489866536947227 a1_x2
+0.54073199048895915 a1_x5
+0.32732395706770168 a1_x6
<= 55.124801442517693

a1_local_7: 
+0.68611686944046657 a1_x3
+0.52140972845607847 a1_x4
+0.50732192594108561 a1_x6
<= 93.409479198848018

a1_local_8: 
+0.49376987604709494 a1_x6
+0.55164255586726163 a1_x2
+0.67222154091093489 a1_x5
<= 110.27803090240639

a1_act_1: 
+0.0099995000374968751 a1_x1
-0.99995000374968757 a1_z1
<= 0

a1_act_2: 
+0.0099995000374968751 a1_x2
-0.99995000374968757 a1_z2
<= 0

a2_local_1: 
+0.2945042390359015 a2_x6
+0.33278404550840773 a2_x3
+0.27614423878376343 a2_x2
<= 28.907963221720554

a2_local_2: 
+0.40380059267734619 a2_x5
+0.61929698947330036 a2_x3
+0.49365684382564706 a2_x2
<= 103.09595432854144

a2_local_3: 
+0.47796984006598681 a2_x3
+0.64586124938231404 a2_x5
+0.59572075724092799 a2_x4
<= 77.589973317090369

a2_local_4: 
+0.60129482230625231 a2_x3
+0.40957543212242459 a2_x5
+0.45149667699269963 a2_x4
<= 97.135738519487177

a2_local_5: 
+0.51949070718464119 a2_x3
+0.38900374194358983 a2_x1
+0.54568694490034408 a2_x2
<= 96.365424536090032

a2_local_6: 
+0.38103395351105929 a2_x3
+0.47180071158067677 a2_x6
+0.365669795068852 a2_x5
<= 48.140416068967824

a2_local_7: 
+0.66515308649609706 a2_x4
+0.63256764105431829 a2_x5
+0.41289164239238374 a2_x2
<= 85.417059847685081

a2_local_8: 
+0.3411979747605165 a2_x4
+0.47486991345575968 a2_x2
+0.38887283525947608 a2_x1
<= 58.321169003882297

a2_act_1: 
+0.0099995000374968751 a2_x1
-0.99995000374968757 a2_z1
<= 0

a2_act_2: 
+0.0099995000374968751 a2_x2
-0.99995000374968757 a2_z2
<= 0

a3_local_1: 
+0.59340913264010042 a3_x6
+0.52646250251847337 a3_x1
+0.60885370553303708 a3_x5
<= 77.845883741935651

a3_local_2: 
+0.45436703455959238 a3_x4
+0.67724410283979541 a3_x2
+0.57869769575681118 a3_x6
<= 105.48197366833502

a3_local_3: 
+0.5499976119364951 a3_x3
+0.6454788456844972 a3_x2
+0.52996196716175936 a3_x6
<= 53.928377270883921

a3_local_4: 
+0.59332144269544351 a3_x2
+0.53291441018323282 a3_x3
+0.60330083462303818 a3_x5
<= 99.822852471290545

a3_local_5: 
+0.56496609094671757 a3_x6
+0.28733954843320081 a3_x1
+0.77346577169684072 a3_x5
<= 102.5612311540512

a3_local_6: 
+0.72897904951470371 a3_x6
+0.29319082280762343 a3_x2
+0.61856987219717385 a3_x1
<= 108.05043380607596

a3_local_7: 
+0.54362729812664112 a3_x2
+0.48780284547848007 a3_x1
+0.68302104262945396 a3_x6
<= 89.730204428759578

a3_local_8: 
+0.45456016235262348 a3_x1
+0.64967499502156922 a3_x5
+0.60934182496007983 a3_x4
<= 54.578123794802011

a3_act_1: 
+0.0099995000374968751 a3_x1
-0.99995000374968757 a3_z1
<= 0

a3_act_2: 
+0.0099995000374968751 a3_x2
-0.99995000374968757 a3_z2
<= 0

a4_local_1: 
+0.44300546256322276 a4_x3
+0.76618582054556195 a4_x5
+0.46551632466978971 a4_x6
<= 70.123975792984623

a4_local_2: 
+0.64504074541122014 a4_x4
+0.44552629876231048 a4_x3
+0.62082908587669605 a4_x2
<= 53.103031692876726

a4_local_3: 
+0.48971566141876238 a4_x5
+0.79548122065657356 a4_x6
+0.35691483374036426 a4_x4
<= 90.496105987709768

a4_local_4: 
+0.53313371780735663 a4_x1
+0.42144154845345611 a4_x3
+0.73359079886136713 a4_x6
<= 53.254805647591496

a4_local_5: 
+0.60919649902902562 a4_x6
+0.39663202287619453 a4_x5
+0.68670420415191602 a4_x1
<= 105.75764102848257

a4_local_6: 
+0.2873140190364436 a4_x4
+0.52803727872746342 a4_x1
+0.79914159367362514 a4_x3
<= 73.192751393232811

a4_local_7: 
+0.54054569515441209 a4_x6
+0.57517152458615095 a4_x2
+0.61399354129768824 a4_x1
<= 91.958965189700663

a4_local_8: 
+0.30893686338341497 a4_x3
+0.73265373068489492 a4_x2
+0.60644581403149489 a4_x6
<= 111.07385028186064

a4_act_1: 
+0.0099995000374968751 a4_x1
-0.99995000374968757 a4_z1
<= 0

a4_act_2: 
+0.0099995000374968751 a4_x2
-0.99995000374968757 a4_z2
<= 0

coupling_1: 
+0.0095287309412733119 a1_x1
+0.042757898823551521 a2_x1
+0.45691836774237321 a3_x1
+0.85526895928107249 a4_x1
+0.17003172922246065 short_1
-0.17003172922246065 surp_1
= 98.454060091853378

coupling_2: 
+0.0059374213006582362 a1_x2
+0.033485842778894541 a2_x2
+0.22525761284617357 a3_x2
+0.96725027479473191 a4_x2
+0.079149728761522195 short_2
-0.079149728761522195 surp_2
= 40.920999205326211

coupling_3: 
+0.0050481656661918641 a1_x3
+0.027420551226393482 a2_x3
+0.18560176883823354 a3_x3
+0.97372987483741702 a4_x3
+0.091172209710730229 short_3
-0.091172209710730229 surp_3
= 27.729583273517704

bounds
  0 <= a1_x1 <= 100
  0 <= a1_x2 <= 100
  0 <= a1_x3 <= 100
  0 <= a1_x4 <= 100
  0 <= a1_x5 <= 100
  0 <= a1_x6 <= 100
  0 <= a2_x1 <= 100
  0 <= a2_x2 <= 100
  0 <= a2_x3 <= 100
  0 <= a2_x4 <= 100
  0 <= a2_x5 <= 100
  0 <= a2_x6 <= 100
  0 <= a3_x1 <= 100
  0 <= a3_x2 <= 100
  0 <= a3_x3 <= 100
  0 <= a3_x4 <= 100
  0 <= a3_x5 <= 100
  0 <= a3_x6 <= 100
  0 <= a4_x1 <= 100
  0 <= a4_x2 <= 100
  0 <= a4_x3 <= 100
  0 <= a4_x4 <= 100
  0 <= a4_x5 <= 100
  0 <= a4_x6 <= 100
  0 <= short_1 <= +inf
  0 <= surp_1 <= +inf
  0 <= short_2 <= +inf
  0 <= surp_2 <= +inf
  0 <= short_3 <= +inf
  0 <= surp_3 <= +inf
 0 <= a1_z1 <= 1
 0 <= a1_z2 <= 1
 0 <= a2_z1 <= 1
 0 <= a2_z2 <= 1
 0 <= a3_z1 <= 1
 0 <= a3_z2 <= 1
 0 <= a4_z1 <= 1
 0 <= a4_z2 <= 1

binary
  a1_z1
  a1_z2
  a2_z1
  a2_z2
  a3_z1
  a3_z2
  a4_z1
  a4_z2
end
