min
obj: 
  +1.8591431952918778 a1_x1
  +3.3231109040519993 a1_x2
  +9.2087059181463786 a1_x3
  +9.6203246603591985 a1_x4
  +2.6522167369866532 a1_x5
  +9.1942431803836406 a1_x6
  +15.231591264695247 a1_z1
  +37.870536168888826 a1_z2
  +9.5099240901526567 a2_x1
  +7.5753998333245365 a2_x2
  +7.2545869758953661 a2_x3
  +4.0776176539598987 a2_x4
  +7.0823179577413251 a2_x5
  +8.348071264940085 a2_x6
  +13.295788449057502 a2_z1
  +34.639218331961018 a2_z2
  +8.7650426689296079 a3_x1
  +7.7797720123238729 a3_x2
  +6.0483854765360672 a3_x3
  +6.4868155236610479 a3_x4
  +7.5914186799784584 a3_x5
  +2.6670787193002194 a3_x6
  +17.076428731733131 a3_z1
  +32.166931894716356 a3_z2
  +3.9578684115063361 a4_x1
  +4.7726522238702849 a4_x2
  +6.6226528859876028 a4_x3
  +9.5073045520096944 a4_x4
  +5.1085987408368467 a4_x5
  +6.1990863498809015 a4_x6
  +14.100841079092167 a4_z1
  +36.135322859790648 a4_z2
  +1000000 short_1
  +1000000 surp_1
  +1000000 short_2
  +1000000 surp_2
  +1000000 short_3
  +1000000 surp_3

s.t.

a1_local_1: 
+0.64217508433350901 a1_x5
+0.45606040268985232 a1_x4
+0.61613315943846136 a1_x3
<= 61.201218878626875

a1_local_2: 
+0.69617846452001109 a1_x2
+0.47322524293868901 a1_x4
+0.53980868368726553 a1_x3
<= 115.09745279685555

a1_local_3: 
+0.60081817168806728 a1_x1
+0.35679507331936439 a1_x6
+0.71534243563795219 a1_x3
<= 69.397213100709166

a1_local_4: 
+0.56570818785161292 a1_x3
+0.56531348531914016 a1_x6
+0.60032900106022757 a1_x5
<= 103.1345150558237

a1_local_5: 
+0.59849190138408193 a1_x2
+0.58422942869783401 a1_x3
+0.54816367867733506 a1_x5
<= 57.525146708585758

a1_local_6: 
+0.55633618212553693 a1_x4
+0.61227312293390856 a1_x3
+0.5617932674843481 a1_x2
<= 113.05533271663204

a1_local_7: 
+0.61042867510448784 a1_x6
+0.616172971271014 a1_x4
+0.4977024232261984 a1_x5
<= 115.15975688111658

a1_local_8: 
+0.54283426556040604 a1_x3
+0.75383860267237279 a1_x4
+0.37021388582069609 a1_x2
<= 114.43508715881073

a1_act_1: 
+0.0099995000374968751 a1_x1
-0.99995000374968757 a1_z1
<= 0

a1_act_2: 
+0.0099995000374968751 a1_x2
-0.99995000374968757 a1_z2
<= 0

a2_local_1: 
+0.51140652514905904 a2_x5
+0.62428331511328938 a2_x1
+0.26245015307816461 a2_x3
<= 89.962024314269996

a2_local_2: 
+0.51995823675303232 a2_x3
+0.47969357296189841 a2_x1
+0.60003905109844158 a2_x2
<= 95.76219958019729

a2_local_3: 
+0.37318171882349138 a2_x4
+0.50512066611548001 a2_x6
+0.51616734720599278 a2_x2
<= 45.903104859639768

a2_local_4: 
+0.66876191396897688 a2_x5
+0.54579570241004216 a2_x2
+0.4149875981751342 a2_x3
<= 88.612445318301411

a2_local_5: 
+0.63772816619695083 a2_x2
+0.56737692429587161 a2_x1
+0.51827546427339344 a2_x5
<= 57.279198642332446

a2_local_6: 
+0.24483118808278814 a2_x4
+0.68910359429491985 a2_x3
+0.47008426278471183 a2_x2
<= 98.065069824894692

a2_local_7: 
+0.48717608762904308 a2_x1
+0.52877324142735838 a2_x4
+0.25739550338611256 a2_x6
<= 63.895698127216548

a2_local_8: 
+0.34788775042305126 a2_x4
+0.34647969473880214 a2_x5
+0.43833459420870002 a2_x1
<= 70.264062211883299

a2_act_1: 
+0.0099995000374968751 a2_x1
-0.99995000374968757 a2_z1
<= 0

a2_act_2: 
+0.0099995000374968751 a2_x2
-0.99995000374968757 a2_z2
<= 0

a3_local_1: 
+0.7769557140214689 a3_x3
+0.47583175159447932 a3_x2
+0.41221834338602525 a3_x1
<= 96.493872676141379

a3_local_2: 
+0.77979534648255455 a3_x3
+0.30241108023066765 a3_x5
+0.54814848002879046 a3_x1
<= 95.866071971202715

a3_local_3: 
+0.63630279733364237 a3_x1
+0.5629136170202117 a3_x6
+0.527491241518382 a3_x5
<= 98.309013205715758

a3_local_4: 
+0.57773816832688907 a3_x4
+0.41282279688239421 a3_x5
+0.70412779183361951 a3_x3
<= 57.563283397923726

a3_local_5: 
+0.5434459229589802 a3_x5
+0.65962931481753495 a3_x2
+0.51918753437713772 a3_x3
<= 59.644155392226317

a3_local_6: 
+0.42660488367981059 a3_x1
+0.54746771533748928 a3_x4
+0.71992178317070332 a3_x6
<= 84.273384808586584

a3_local_7: 
+0.54867801238597669 a3_x2
+0.6118516092718308 a3_x6
+0.56972804648853737 a3_x3
<= 103.27595107167619

a3_local_8: 
+0.71747981080351408 a3_x4
+0.627654598160032 a3_x3
+0.30211326766284546 a3_x1
<= 71.929204771733978

a3_act_1: 
+0.0099995000374968751 a3_x1
-0.99995000374968757 a3_z1
<= 0

a3_act_2: 
+0.0099995000374968751 a3_x2
-0.99995000374968757 a3_z2
<= 0

a4_local_1: 
+0.39877525037721623 a4_x4
+0.8007892052641874 a4_x1
+0.44689478450630798 a4_x2
<= 57.786610640649599

a4_local_2: 
+0.67577792912305956 a4_x5
+0.62138450550508595 a4_x4
+0.3964914713185505 a4_x1
<= 54.97721133264573

a4_local_3: 
+0.80611437834912802 a4_x1
+0.36328521510830486 a4_x2
+0.46712253371306284 a4_x4
<= 64.923633682182356

a4_local_4: 
+0.63025010675943838 a4_x6
+0.31107417644316254 a4_x3
+0.71134918266623792 a4_x4
<= 71.425081188681119

a4_local_5: 
+0.26310618070075403 a4_x6
+0.72166925237012958 a4_x3
+0.64028792574950244 a4_x5
<= 50.748351878976251

a4_local_6: 
+0.47891534164462463 a4_x4
+0.49226515065902809 a4_x1
+0.72685288537919202 a4_x5
<= 84.692241084951021

a4_local_7: 
+0.37713455303123272 a4_x1
+0.38279576408675509 a4_x2
+0.84334864196675496 a4_x3
<= 82.104108191080684

a4_local_8: 
+0.51651382982070904 a4_x2
+0.70082942250654712 a4_x3
+0.49198738210759368 a4_x4
<= 112.30831402729417

a4_act_1: 
+0.0099995000374968751 a4_x1
-0.99995000374968757 a4_z1
<= 0

a4_act_2: 
+0.0099995000374968751 a4_x2
-0.99995000374968757 a4_z2
<= 0

coupling_1: 
+0.0055385138968102876 a1_x1
+0.033459254378412046 a2_x1
+0.18338765289715006 a3_x1
+0.97488785761806318 a4_x1
+0.086059389359886301 short_1
-0.086059389359886301 surp_1
= 92.665580342234719

coupling_2: 
+0.0091376645251948652 a1_x2
+0.039354801136512518 a2_x2
+0.21620983454489098 a3_x2
+0.96585140995110663 a4_x2
+0.096829912878358057 short_2
-0.096829912878358057 surp_2
= 54.509269457333396

coupling_3: 
+0.0091199243888040703 a1_x3
+0.044595414521783838 a2_x3
+0.12912136556998702 a3_x3
+0.98618617114421725 a4_x3
+0.065926416480888192 short_3
-0.065926416480888192 surp_3
= 81.788169515395893

bounds
  0 <= a1_x1 <= 100
  0 <= a1_x2 <= 100
  0 <= a1_x3 <= 100
  0 <= a1_x4 <= 100
  0 <= a1_x5 <= 100
  0 <= a1_x6 <= 100
  0 <= a2_x1 <= 100
  0 <= a2_x2 <= 100
  0 <= a2_x3 <= 100
  0 <= a2_x4 <= 100
  0 <= a2_x5 <= 100
  0 <= a2_x6 <= 100
  0 <= a3_x1 <= 100
  0 <= a3_x2 <= 100
  0 <= a3_x3 <= 100
  0 <= a3_x4 <= 100
  0 <= a3_x5 <= 100
  0 <= a3_x6 <= 100
  0 <= a4_x1 <= 100
  0 <= a4_x2 <= 100
  0 <= a4_x3 <= 100
  0 <= a4_x4 <= 100
  0 <= a4_x5 <= 100
  0 <= a4_x6 <= 100
  0 <= short_1 <= +inf
  0 <= surp_1 <= +inf
  0 <= short_2 <= +inf
  0 <= surp_2 <= +inf
  0 <= short_3 <= +inf
  0 <= surp_3 <= +inf
 0 <= a1_z1 <= 1
 0 <= a1_z2 <= 1
 0 <= a2_z1 <= 1
 0 <= a2_z2 <= 1
 0 <= a3_z1 <= 1
 0 <= a3_z2 <= 1
 0 <= a4_z1 <= 1
 0 <= a4_z2 <= 1

binary
  a1_z1
  a1_z2
  a2_z1
  a2_z2
  a3_z1
  a3_z2
  a4_z1
  a4_z2
end
