min
obj: 
  +8.5242104678500681 a1_x1
  +7.6930756521091874 a1_x2
  +6.9189962156082423 a1_x3
  +9.2097073421305335 a1_x4
  +1.6783613276554563 a1_x5
  +5.9914602077021666 a1_x6
  +31.080729858907144 a1_z1
  +20.883867024027893 a1_z2
  +6.9077742042221582 a2_x1
  +5.0875445936298673 a2_x2
  +7.5917023578038236 a2_x3
  +8.2794490372741638 a2_x4
  +1.0351287904006585 a2_x5
  +5.7857723772906011 a2_x6
  +23.934213589769115 a2_z1
  +21.521505149496146 a2_z2
  +3.338751629164217 a3_x1
  +6.1106898664601106 a3_x2
  +6.5508211726549801 a3_x3
  +5.1951326468311683 a3_x4
  +3.9370151452755238 a3_x5
  +3.370609165759376 a3_x6
  +38.539597563502319 a3_z1
  +26.755532445572879 a3_z2
  +8.5438219758017482 a4_x1
  +7.1495610706401269 a4_x2
  +5.5659057933768521 a4_x3
  +2.526471255000704 a4_x4
  +2.3501129539553487 a4_x5
  +8.7808046110821252 a4_x6
  +7.4539102618189466 a4_z1
  +36.014449453139093 a4_z2
  +1000000 short_1
  +1000000 surp_1
  +1000000 short_2
  +1000000 surp_2
  +1000000 short_3
  +1000000 surp_3

s.t.

a1_local_1: 
+0.063070814300599062 a1_x6
+0.13587378415029253 a1_x2
+0.13030043820764078 a1_x4
<= 11.613029341250327

a1_local_2: 
+0.11527811145222584 a1_x5
+0.070176638952812759 a1_x2
+0.086759454414894632 a1_x1
<= 10.625995666322821

a1_local_3: 
+0.085063838979128073 a1_x4
+0.056510120820102885 a1_x2
+0.080008508099558784 a1_x1
<= 9.3456665464952504

a1_local_4: 
+0.066990276680099339 a1_x4
+0.12564030974360768 a1_x2
+0.099049072340328476 a1_x6
<= 11.593548678629958

a1_local_5: 
+0.11289596560646827 a1_x5
+0.12007661146972991 a1_x2
+0.073742320754301344 a1_x1
<= 11.578378724312049

a1_local_6: 
+0.14644029138318368 a1_x2
+0.10218749081166199 a1_x5
+0.061857656738686276 a1_x6
<= 10.417480822261405

a1_local_7: 
+0.11557767113027038 a1_x3
+0.087832444884740138 a1_x4
+0.08545932817744524 a1_x6
<= 15.735001642065074

a1_local_8: 
+0.073252222234778952 a1_x6
+0.081837805538173353 a1_x2
+0.099726054776814219 a1_x5
<= 16.360072210047939

a1_act_1: 
+1 a1_x1
-100 a1_z1
<= 0

a1_act_2: 
+1 a1_x2
-100 a1_z2
<= 0

a2_local_1: 
+0.2945042390359015 a2_x6
+0.33278404550840773 a2_x3
+0.27614423878376343 a2_x2
<= 28.907963221720554

a2_local_2: 
+0.40380059267734619 a2_x5
+0.61929698947330036 a2_x3
+0.49365684382564706 a2_x2
<= 103.09595432854144

a2_local_3: 
+0.47796984006598681 a2_x3
+0.64586124938231404 a2_x5
+0.59572075724092799 a2_x4
<= 77.589973317090369

a2_local_4: 
+0.60129482230625231 a2_x3
+0.40957543212242459 a2_x5
+0.45149667699269963 a2_x4
<= 97.135738519487177

a2_local_5: 
+0.51949070718464119 a2_x3
+0.38900374194358983 a2_x1
+0.54568694490034408 a2_x2
<= 96.365424536090032

a2_local_6: 
+0.38103395351105929 a2_x3
+0.47180071158067677 a2_x6
+0.365669795068852 a2_x5
<= 48.140416068967824

a2_local_7: 
+0.66515308649609706 a2_x4
+0.63256764105431829 a2_x5
+0.41289164239238374 a2_x2
<= 85.417059847685081

a2_local_8: 
+0.3411979747605165 a2_x4
+0.47486991345575968 a2_x2
+0.38887283525947608 a2_x1
<= 58.321169003882297

a2_act_1: 
+1 a2_x1
-100 a2_z1
<= 0

a2_act_2: 
+1 a2_x2
-100 a2_z2
<= 0

a3_local_1: 
+2.9768105506377127 a3_x6
+2.6409757548551429 a3_x1
+3.0542875644026339 a3_x5
<= 390.51041735020851

a3_local_2: 
+1.397479758986512 a3_x4
+2.0829744537452011 a3_x2
+1.7798789412091718 a3_x6
<= 324.42697627112528

a3_local_3: 
+2.4652169759932088 a3_x3
+2.893186031159813 a3_x2
+2.3754125649345088 a3_x6
<= 241.71950614087342

a3_local_4: 
+2.9881096310188671 a3_x2
+2.6838852719412869 a3_x3
+3.0383682513631585 a3_x5
<= 502.73191798050198

a3_local_5: 
+2.3426966681583719 a3_x6
+1.1914863803889355 a3_x1
+3.2072644983920346 a3_x5
<= 425.2819033867936

a3_local_6: 
+2.9564023398282466 a3_x6
+1.1890465647012307 a3_x2
+2.508633710020082 a3_x1
<= 438.20265553090746

a3_local_7: 
+2.5673142675332143 a3_x2
+2.3036797623221292 a3_x1
+3.2256100343208192 a3_x6
<= 423.7565605194489

a3_local_8: 
+1.4286734887697272 a3_x1
+2.0419155011298442 a3_x5
+1.9151491552040214 a3_x4
<= 171.53795028772791

a3_act_1: 
+1 a3_x1
-100 a3_z1
<= 0

a3_act_2: 
+1 a3_x2
-100 a3_z2
<= 0

a4_local_1: 
+6.398123295929528 a4_x3
+11.065667947026361 a4_x5
+6.7232372808048924 a4_x6
<= 1012.7681959683808

a4_local_2: 
+14.629530018541871 a4_x4
+10.104540539742004 a4_x3
+14.080409358368339 a4_x2
<= 1204.3772455509863

a4_local_3: 
+7.2032831130866697 a4_x5
+11.70082334498427 a4_x6
+5.2499007020599269 a4_x4
<= 1331.1174696207015

a4_local_4: 
+8.9652566412003267 a4_x1
+7.0870243523321186 a4_x3
+12.336173012024361 a4_x6
<= 895.54080723219658

a4_local_5: 
+13.014117074196287 a4_x6
+8.4731537185675077 a4_x5
+14.669895382557048 a4_x1
<= 2259.2748382979789

a4_local_6: 
+5.2733861341418899 a4_x4
+9.6916414774672841 a4_x1
+14.667513313229627 a4_x3
<= 1343.3860332022662

a4_local_7: 
+12.24832470688753 a4_x6
+13.032917768911807 a4_x2
+13.912593013246681 a4_x1
<= 2083.7151705205424

a4_local_8: 
+5.7615560200627964 a4_x3
+13.663715836365405 a4_x2
+11.309985776409675 a4_x6
<= 2071.4854282985625

a4_act_1: 
+1 a4_x1
-100 a4_z1
<= 0

a4_act_2: 
+1 a4_x2
-100 a4_z2
<= 0

coupling_1: 
+0.001289852534929696 a1_x1
+0.0057879044466393114 a2_x1
+0.061850556860165058 a3_x1
+0.11577311207277714 a4_x1
+0.023016271349011734 short_1
-0.023016271349011734 surp_1
= 13.327191182777591

coupling_2: 
+0.0017265668740457725 a1_x2
+0.0097374843326571061 a2_x2
+0.065503576851404149 a3_x2
+0.28127063902086791 a4_x2
+0.023016271349011734 short_2
-0.023016271349011734 surp_2
= 11.899583691818682

coupling_3: 
+0.0012744009513039358 a1_x3
+0.0069222721437656601 a2_x3
+0.046854855092259215 a3_x3
+0.24581647292529707 a4_x3
+0.023016271349011734 short_3
-0.023016271349011734 surp_3
= 7.0002867654877718

bounds
  0 <= a1_x1 <= 100
  0 <= a1_x2 <= 100
  0 <= a1_x3 <= 100
  0 <= a1_x4 <= 100
  0 <= a1_x5 <= 100
  0 <= a1_x6 <= 100
  0 <= a2_x1 <= 100
  0 <= a2_x2 <= 100
  0 <= a2_x3 <= 100
  0 <= a2_x4 <= 100
  0 <= a2_x5 <= 100
  0 <= a2_x6 <= 100
  0 <= a3_x1 <= 100
  0 <= a3_x2 <= 100
  0 <= a3_x3 <= 100
  0 <= a3_x4 <= 100
  0 <= a3_x5 <= 100
  0 <= a3_x6 <= 100
  0 <= a4_x1 <= 100
  0 <= a4_x2 <= 100
  0 <= a4_x3 <= 100
  0 <= a4_x4 <= 100
  0 <= a4_x5 <= 100
  0 <= a4_x6 <= 100
  0 <= short_1 <= +inf
  0 <= surp_1 <= +inf
  0 <= short_2 <= +inf
  0 <= surp_2 <= +inf
  0 <= short_3 <= +inf
  0 <= surp_3 <= +inf
 0 <= a1_z1 <= 1
 0 <= a1_z2 <= 1
 0 <= a2_z1 <= 1
 0 <= a2_z2 <= 1
 0 <= a3_z1 <= 1
 0 <= a3_z2 <= 1
 0 <= a4_z1 <= 1
 0 <= a4_z2 <= 1

binary
  a1_z1
  a1_z2
  a2_z1
  a2_z2
  a3_z1
  a3_z2
  a4_z1
  a4_z2
end
