min
obj: 
  +4.1029321056614965 a1_x1
  +3.3290118192963942 a1_x2
  +9.1017647242801925 a1_x3
  +1.0276781995025082 a1_x4
  +7.5015228430107515 a1_x5
  +9.6952211771409225 a1_x6
  +46.462393702811802 a1_z1
  +20.976939063031899 a1_z2
  +8.736124438174345 a2_x1
  +2.0422875685559534 a2_x2
  +7.9141637375248139 a2_x3
  +8.8510497644699591 a2_x4
  +5.3589026031734779 a2_x5
  +4.4651025961117679 a2_x6
  +43.599104627831977 a2_z1
  +13.736336737274122 a2_z2
  +8.7712175698219141 a3_x1
  +5.7628145052800139 a3_x2
  +8.5270938060320436 a3_x3
  +1.138926571582954 a3_x4
  +2.911442950069294 a3_x5
  +3.0275728231625529 a3_x6
  +21.64888772902043 a3_z1
  +37.443506250957391 a3_z2
  +3.737467766634015 a4_x1
  +6.3047039607963935 a4_x2
  +7.2324424815448989 a4_x3
  +3.5312943582825165 a4_x4
  +2.1943254476366931 a4_x5
  +2.7966711705726111 a4_x6
  +25.767819676338174 a4_z1
  +25.233732022591987 a4_z2
  +1000000 short_1
  +1000000 surp_1
  +1000000 short_2
  +1000000 surp_2
  +1000000 short_3
  +1000000 surp_3

s.t.

a1_local_1: 
+1.2041777867072399 a1_x6
+0.83872608849912589 a1_x1
+0.83044215815876044 a1_x4
<= 129.86298344926269

a1_local_2: 
+0.7912772818185142 a1_x6
+0.95132572721491093 a1_x5
+1.2637794904231283 a1_x4
<= 134.08183250302153

a1_local_3: 
+0.84779226898492177 a1_x1
+1.1795342285880002 a1_x5
+0.95405298954288509 a1_x6
<= 136.28943695122018

a1_local_4: 
+1.2204185021412697 a1_x4
+0.66749459622215124 a1_x5
+1.4981394690829626 a1_x3
<= 232.28685734164037

a1_local_5: 
+0.69446161690028996 a1_x6
+1.4399643920760832 a1_x2
+1.2476968376640414 a1_x1
<= 131.0985030813049

a1_local_6: 
+1.0117625467347757 a1_x5
+0.81085699927352517 a1_x1
+1.2332630795515542 a1_x6
<= 185.10694327030723

a1_local_7: 
+0.85980559423271752 a1_x5
+1.4564398877909843 a1_x1
+0.6866057489792613 a1_x3
<= 154.20011628430882

a1_local_8: 
+0.78020740659331989 a1_x1
+1.2817104676900943 a1_x3
+1.280379391828629 a1_x4
<= 188.46962539496786

a1_act_1: 
+0.10000000000000001 a1_x1
-10 a1_z1
<= 0

a1_act_2: 
+0.10000000000000001 a1_x2
-10 a1_z2
<= 0

a2_local_1: 
+0.73916055019772731 a2_x4
+1.3528860539601273 a2_x5
+1.1830936634866278 a2_x1
<= 98.550881914501531

a2_local_2: 
+1.526994172307057 a2_x4
+1.3566522091594304 a2_x5
+0.65488134672390486 a2_x2
<= 169.88361088258887

a2_local_3: 
+0.56767769955076086 a2_x6
+0.65302783320504876 a2_x3
+0.48293400883379917 a2_x4
<= 110.54575892203712

a2_local_4: 
+0.97514189800707007 a2_x3
+0.87068399744261094 a2_x2
+1.148522314567878 a2_x5
<= 133.76578572403415

a2_local_5: 
+1.3661582270586314 a2_x3
+1.4051186717543707 a2_x4
+0.7116836606771747 a2_x5
<= 242.04265309659422

a2_local_6: 
+1.1676942050733039 a2_x1
+0.76385431948245108 a2_x4
+1.3091501540209254 a2_x5
<= 213.69036362782131

a2_local_7: 
+0.57675983587326018 a2_x6
+0.6838858274412688 a2_x2
+0.62477054855402947 a2_x4
<= 85.701474083470288

a2_local_8: 
+0.6865660214053636 a2_x5
+0.5701469983080405 a2_x1
+0.40639793740128471 a2_x3
<= 60.572308939727876

a2_act_1: 
+0.10000000000000001 a2_x1
-10 a2_z1
<= 0

a2_act_2: 
+0.10000000000000001 a2_x2
-10 a2_z2
<= 0

a3_local_1: 
+1.1581055774321589 a3_x4
+3.0689964829083189 a3_x2
+1.76926954559452 a3_x6
<= 365.30476457523474

a3_local_2: 
+1.2764871512342224 a3_x1
+1.1300622834895515 a3_x4
+0.78339997314748544 a3_x2
<= 205.19234442804287

a3_local_3: 
+1.5201124465753453 a3_x3
+1.6613488606474933 a3_x6
+1.9418041423379817 a3_x5
<= 274.97128809706527

a3_local_4: 
+1.1672567539753518 a3_x6
+2.0149930556926021 a3_x4
+2.5944350418029249 a3_x1
<= 394.71982822673601

a3_local_5: 
+1.5355926626115477 a3_x6
+2.9669401685901997 a3_x4
+1.3368027294216769 a3_x3
<= 195.6392220751809

a3_local_6: 
+0.85697083930190254 a3_x2
+0.77085299826763698 a3_x6
+1.2972642024449961 a3_x5
<= 149.19762842240462

a3_local_7: 
+1.4345584942930032 a3_x3
+1.1982147806272001 a3_x4
+2.2790753733621285 a3_x5
<= 339.50599303725852

a3_local_8: 
+0.74498068518282512 a3_x5
+1.3423166800016977 a3_x1
+1.1088145958657545 a3_x6
<= 142.95209130377998

a3_act_1: 
+0.10000000000000001 a3_x1
-10 a3_z1
<= 0

a3_act_2: 
+0.10000000000000001 a3_x2
-10 a3_z2
<= 0

a4_local_1: 
+1.2976113601752113 a4_x5
+0.98083288263523827 a4_x2
+0.77064676735334225 a4_x1
<= 156.37711231560766

a4_local_2: 
+1.0956350590866084 a4_x4
+0.87455836031251577 a4_x6
+1.1434342696611566 a4_x2
<= 217.58092030283146

a4_local_3: 
+1.5283503300854906 a4_x3
+0.65430024799619313 a4_x6
+0.69173224552651802 a4_x4
<= 95.270526189794325

a4_local_4: 
+1.1978618530193392 a4_x6
+1.3719312645416186 a4_x1
+0.72889949070015103 a4_x2
<= 103.14824897051743

a4_local_5: 
+1.1138170199062043 a4_x5
+0.76463134789555998 a4_x6
+1.3078197784490895 a4_x1
<= 216.07036466661674

a4_local_6: 
+1.1675709563473498 a4_x1
+0.85647899561360985 a4_x3
+0.93398829146063678 a4_x6
<= 151.54206918921784

a4_local_7: 
+1.3585805422730297 a4_x1
+0.69017285802046835 a4_x3
+1.4489123824257129 a4_x6
<= 211.42813272696813

a4_local_8: 
+1.0792574816586562 a4_x1
+1.2427153290244111 a4_x3
+0.8046895187050167 a4_x4
<= 196.22479628204513

a4_act_1: 
+0.10000000000000001 a4_x1
-10 a4_z1
<= 0

a4_act_2: 
+0.10000000000000001 a4_x2
-10 a4_z2
<= 0

coupling_1: 
+0.0082967857874805106 a1_x1
+0.065548529731411342 a2_x1
+0.12240101372285378 a3_x1
+0.97848097466511175 a4_x1
+0.10776717416188805 short_1
-0.10776717416188805 surp_1
= 48.574065041234419

coupling_2: 
+0.0086804543692472289 a1_x2
+0.067494551313339021 a2_x2
+0.20508981217789959 a3_x2
+0.95792677244751434 a4_x2
+0.133573206190606 short_2
-0.133573206190606 surp_2
= 58.657104347147389

coupling_3: 
+0.011064960398936464 a1_x3
+0.064221055736775778 a2_x3
+0.14192819832706427 a3_x3
+0.97220361334871774 a4_x3
+0.12334857794631103 short_3
-0.12334857794631103 surp_3
= 45.898964065717486

bounds
  0 <= a1_x1 <= 100
  0 <= a1_x2 <= 100
  0 <= a1_x3 <= 100
  0 <= a1_x4 <= 100
  0 <= a1_x5 <= 100
  0 <= a1_x6 <= 100
  0 <= a2_x1 <= 100
  0 <= a2_x2 <= 100
  0 <= a2_x3 <= 100
  0 <= a2_x4 <= 100
  0 <= a2_x5 <= 100
  0 <= a2_x6 <= 100
  0 <= a3_x1 <= 100
  0 <= a3_x2 <= 100
  0 <= a3_x3 <= 100
  0 <= a3_x4 <= 100
  0 <= a3_x5 <= 100
  0 <= a3_x6 <= 100
  0 <= a4_x1 <= 100
  0 <= a4_x2 <= 100
  0 <= a4_x3 <= 100
  0 <= a4_x4 <= 100
  0 <= a4_x5 <= 100
  0 <= a4_x6 <= 100
  0 <= short_1 <= +inf
  0 <= surp_1 <= +inf
  0 <= short_2 <= +inf
  0 <= surp_2 <= +inf
  0 <= short_3 <= +inf
  0 <= surp_3 <= +inf
 0 <= a1_z1 <= 1
 0 <= a1_z2 <= 1
 0 <= a2_z1 <= 1
 0 <= a2_z2 <= 1
 0 <= a3_z1 <= 1
 0 <= a3_z2 <= 1
 0 <= a4_z1 <= 1
 0 <= a4_z2 <= 1

binary
  a1_z1
  a1_z2
  a2_z1
  a2_z2
  a3_z1
  a3_z2
  a4_z1
  a4_z2
end
