min
obj: 
  +2.6204029212029933 a1_x1
  +1.0229393332967094 a1_x2
  +7.1910932224071349 a1_x3
  +4.2632745770435907 a1_x4
  +6.0246265469097295 a1_x5
  +8.5542054222394626 a1_x6
  +28.114118371176183 a1_z1
  +36.337199795344134 a1_z2
  +2.3925011221889392 a2_x1
  +1.8354708126815493 a2_x2
  +3.2680190161516656 a2_x3
  +8.5745129304172316 a2_x4
  +5.2855415708546367 a2_x5
  +8.0750857020565832 a2_x6
  +37.679921062184903 a2_z1
  +30.786063311884963 a2_z2
  +6.9098336189226917 a3_x1
  +7.224692972136415 a3_x2
  +2.7635056217757095 a3_x3
  +4.5804152664090756 a3_x4
  +5.5391766018428115 a3_x5
  +2.5280261257879362 a3_x6
  +24.719908715545547 a3_z1
  +39.060952627342751 a3_z2
  +7.8772143187643042 a4_x1
  +7.8222341244321543 a4_x2
  +1.2624357252124174 a4_x3
  +2.9341291076023293 a4_x4
  +4.8680356039416175 a4_x5
  +9.5043443020751539 a4_x6
  +34.587285029007681 a4_z1
  +29.505942671624879 a4_z2
  +1000000 short_1
  +1000000 surp_1
  +1000000 short_2
  +1000000 surp_2
  +1000000 short_3
  +1000000 surp_3

s.t.

a1_local_1: 
+0.13625371621266164 a1_x3
+0.063307816455164687 a1_x5
+0.099966759186929544 a1_x4
<= 19.599123627352149

a1_local_2: 
+0.13833621076180008 a1_x6
+0.096983152520084159 a1_x5
+0.14112807870089153 a1_x4
<= 19.946548826272

a1_local_3: 
+0.14490156228902407 a1_x4
+0.10648424990039343 a1_x3
+0.14049519571401553 a1_x1
<= 27.351140850984599

a1_local_4: 
+0.055163413817395868 a1_x4
+0.086355839508214002 a1_x2
+0.11944012359281815 a1_x5
<= 10.910744030543844

a1_local_5: 
+0.057194387692118501 a1_x2
+0.09778447375524886 a1_x4
+0.084170843634640183 a1_x3
<= 7.7689438991941717

a1_local_6: 
+0.1289646087718935 a1_x6
+0.089569905112334688 a1_x1
+0.066757840725946455 a1_x4
<= 17.564974374887225

a1_local_7: 
+0.14698989791395142 a1_x2
+0.078620916609128941 a1_x5
+0.13987701313116349 a1_x1
<= 19.227249881300843

a1_local_8: 
+0.11997749428466223 a1_x3
+0.12215878816147048 a1_x4
+0.054827081577141994 a1_x5
<= 9.0333493272463841

a1_act_1: 
+1 a1_x1
-100 a1_z1
<= 0

a1_act_2: 
+1 a1_x2
-100 a1_z2
<= 0

a2_local_1: 
+0.42604651335373184 a2_x1
+0.34181990557675468 a2_x5
+0.69280054148141812 a2_x6
<= 68.629976675307802

a2_local_2: 
+0.50707755247316377 a2_x5
+0.25260518017109557 a2_x2
+0.59978817413885155 a2_x4
<= 78.623615314576469

a2_local_3: 
+0.40082642051304895 a2_x4
+0.61416864583252806 a2_x5
+0.27440151894110087 a2_x1
<= 43.545887282916659

a2_local_4: 
+0.33131833870032146 a2_x6
+0.49775957163541323 a2_x1
+0.41043821269162012 a2_x3
<= 66.903779814784656

a2_local_5: 
+0.49939095828780122 a2_x4
+0.33780380892741874 a2_x5
+0.66545087256867985 a2_x3
<= 46.549742803741189

a2_local_6: 
+0.25905216950999327 a2_x5
+0.23632118273139391 a2_x3
+0.23336864366367233 a2_x1
<= 49.435856433286531

a2_local_7: 
+0.5749411295992285 a2_x3
+0.57722434682487278 a2_x1
+0.54644542738999002 a2_x4
<= 66.794388794179227

a2_local_8: 
+0.26698945401167828 a2_x6
+0.23562293686075322 a2_x1
+0.29857379264275663 a2_x3
<= 49.945500680762983

a2_act_1: 
+1 a2_x1
-100 a2_z1
<= 0

a2_act_2: 
+1 a2_x2
-100 a2_z2
<= 0

a3_local_1: 
+3.1892093999966367 a3_x2
+1.9166594179642413 a3_x1
+2.4785460036148677 a3_x3
<= 405.0322311118075

a3_local_2: 
+1.5254807944214481 a3_x6
+1.3522290600030547 a3_x5
+2.6256081330148522 a3_x2
<= 211.16154668167115

a3_local_3: 
+2.4696708120643129 a3_x3
+1.2405416626936259 a3_x6
+2.0342420139159381 a3_x4
<= 304.34288088022288

a3_local_4: 
+2.3048115885360496 a3_x1
+1.704453516172981 a3_x4
+2.7888439840078356 a3_x3
<= 328.72699124517504

a3_local_5: 
+3.0584487420254445 a3_x1
+2.8016571924310685 a3_x2
+2.3893774081849326 a3_x3
<= 393.80782516665181

a3_local_6: 
+1.102545377291037 a3_x5
+3.1559455143568962 a3_x1
+2.27513708257522 a3_x2
<= 409.36686344059927

a3_local_7: 
+2.8483863980792616 a3_x5
+1.3407037243423456 a3_x6
+2.3173387941212455 a3_x3
<= 296.15256112131783

a3_local_8: 
+2.5035530880514627 a3_x2
+1.1520010184749956 a3_x6
+2.7478118099189968 a3_x4
<= 271.59819387706983

a3_act_1: 
+1 a3_x1
-100 a3_z1
<= 0

a3_act_2: 
+1 a3_x2
-100 a3_z2
<= 0

a4_local_1: 
+13.074359603982781 a4_x5
+9.8401070193230904 a4_x4
+11.276050402093226 a4_x6
<= 1113.6964639783523

a4_local_2: 
+8.0952130996422866 a4_x6
+13.644171156052758 a4_x4
+7.008391871167909 a4_x2
<= 1102.3701728086774

a4_local_3: 
+5.7234232897860506 a4_x1
+8.6073719826550423 a4_x6
+13.682131242885891 a4_x5
<= 1784.4394860364041

a4_local_4: 
+10.754849126130321 a4_x3
+7.4865572510366132 a4_x5
+7.1587907857141584 a4_x4
<= 1450.5758425526931

a4_local_5: 
+13.673089241876855 a4_x2
+5.7820455843654708 a4_x1
+13.516439990407969 a4_x5
<= 1070.5261716256457

a4_local_6: 
+14.194314221294366 a4_x6
+9.185165971158769 a4_x5
+7.5761965385007493 a4_x4
<= 2134.9901234570652

a4_local_7: 
+13.69267338436963 a4_x6
+10.619080401981865 a4_x1
+9.2241033128097776 a4_x4
<= 1296.0373218575232

a4_local_8: 
+14.307669664222932 a4_x6
+13.143295814786622 a4_x1
+5.6054617785610548 a4_x2
<= 1305.0111133076457

a4_act_1: 
+1 a4_x1
-100 a4_z1
<= 0

a4_act_2: 
+1 a4_x2
-100 a4_z2
<= 0

coupling_1: 
+2.4573530669464185 a1_x1
+20.434731896521324 a2_x1
+98.185957223042138 a3_x1
+414.53555591571518 a4_x1
+33.218788942728928 short_1
-33.218788942728928 surp_1
= 30276.429972455302

coupling_2: 
+1.6704306669342057 a1_x2
+17.373757272600983 a2_x2
+48.98296141676672 a3_x2
+392.65668827951254 a4_x2
+33.218788942728928 short_2
-33.218788942728928 surp_2
= 32238.875797298759

coupling_3: 
+3.9822059348117862 a1_x3
+18.952775565664759 a2_x3
+89.195941545308543 a3_x3
+431.06150529418051 a4_x3
+33.218788942728928 short_3
-33.218788942728928 surp_3
= 19312.857475215726

bounds
  0 <= a1_x1 <= 100
  0 <= a1_x2 <= 100
  0 <= a1_x3 <= 100
  0 <= a1_x4 <= 100
  0 <= a1_x5 <= 100
  0 <= a1_x6 <= 100
  0 <= a2_x1 <= 100
  0 <= a2_x2 <= 100
  0 <= a2_x3 <= 100
  0 <= a2_x4 <= 100
  0 <= a2_x5 <= 100
  0 <= a2_x6 <= 100
  0 <= a3_x1 <= 100
  0 <= a3_x2 <= 100
  0 <= a3_x3 <= 100
  0 <= a3_x4 <= 100
  0 <= a3_x5 <= 100
  0 <= a3_x6 <= 100
  0 <= a4_x1 <= 100
  0 <= a4_x2 <= 100
  0 <= a4_x3 <= 100
  0 <= a4_x4 <= 100
  0 <= a4_x5 <= 100
  0 <= a4_x6 <= 100
  0 <= short_1 <= +inf
  0 <= surp_1 <= +inf
  0 <= short_2 <= +inf
  0 <= surp_2 <= +inf
  0 <= short_3 <= +inf
  0 <= surp_3 <= +inf
 0 <= a1_z1 <= 1
 0 <= a1_z2 <= 1
 0 <= a2_z1 <= 1
 0 <= a2_z2 <= 1
 0 <= a3_z1 <= 1
 0 <= a3_z2 <= 1
 0 <= a4_z1 <= 1
 0 <= a4_z2 <= 1

binary
  a1_z1
  a1_z2
  a2_z1
  a2_z2
  a3_z1
  a3_z2
  a4_z1
  a4_z2
end
