min
obj: 
  +4.0871141162290519 a1_x1
  +7.6613663727576089 a1_x2
  +4.8999168943267346 a1_x3
  +9.1856075433138287 a1_x4
  +7.8055232956727103 a1_x5
  +3.4861746229099309 a1_x6
  +23.402378726140935 a1_z1
  +18.267560866392444 a1_z2
  +9.867310978744726 a2_x1
  +9.2615292817302226 a2_x2
  +3.5007890513184758 a2_x3
  +7.1637373168446201 a2_x4
  +7.9245284991421201 a2_x5
  +2.4582106797035337 a2_x6
  +33.658905491272137 a2_z1
  +35.254409520378104 a2_z2
  +2.6732854397558619 a3_x1
  +9.8971817318039896 a3_x2
  +5.2211213282041085 a3_x3
  +8.0114291145185241 a3_x4
  +2.5829750625381869 a3_x5
  +9.9025128730968675 a3_x6
  +27.0926152551414 a3_z1
  +47.996135855740022 a3_z2
  +8.2046274155609638 a4_x1
  +7.1214056561276049 a4_x2
  +6.2664722965402984 a4_x3
  +7.507966634456313 a4_x4
  +5.5736057519875928 a4_x5
  +1.8081083701963157 a4_x6
  +27.561079601884479 a4_z1
  +34.985951557117836 a4_z2
  +1000000 short_1
  +1000000 surp_1
  +1000000 short_2
  +1000000 surp_2
  +1000000 short_3
  +1000000 surp_3

s.t.

a1_local_1: 
+0.094617666374969475 a1_x6
+0.052600100211459166 a1_x4
+0.14987129748420233 a1_x2
<= 20.591128460916963

a1_local_2: 
+0.13536689756057896 a1_x6
+0.080495281021142479 a1_x3
+0.079186059247005114 a1_x2
<= 9.1379310738096606

a1_local_3: 
+0.098919809361693645 a1_x6
+0.12946813061984647 a1_x4
+0.14975850057512069 a1_x1
<= 20.190417515810957

a1_local_4: 
+0.14474765578933677 a1_x4
+0.057702725861034004 a1_x5
+0.074904898324300404 a1_x2
<= 18.466552360293722

a1_local_5: 
+0.10746080283071419 a1_x5
+0.11548177741338389 a1_x1
+0.08371339331382642 a1_x4
<= 20.751407491139322

a1_local_6: 
+0.09243102718792183 a1_x2
+0.11549181048212116 a1_x6
+0.064879091030806343 a1_x1
<= 13.394618648771287

a1_local_7: 
+0.12579723798032078 a1_x2
+0.12472186077572289 a1_x1
+0.073086106951688087 a1_x3
<= 14.419186127311779

a1_local_8: 
+0.10805879833041243 a1_x2
+0.1252387394653014 a1_x4
+0.14900163456101853 a1_x3
<= 21.896594249650775

a1_act_1: 
+1 a1_x1
-100 a1_z1
<= 0

a1_act_2: 
+1 a1_x2
-100 a1_z2
<= 0

a2_local_1: 
+0.63676979229140496 a2_x6
+0.67530625543603739 a2_x2
+0.6719208674291417 a2_x4
<= 95.334311173774282

a2_local_2: 
+0.50357863186560414 a2_x2
+0.35955563751158837 a2_x3
+0.38548869849063416 a2_x6
<= 86.185752577715434

a2_local_3: 
+0.31125431327357905 a2_x4
+0.61889551639039064 a2_x6
+0.51668688046025457 a2_x2
<= 43.941669931216111

a2_local_4: 
+0.57897019630146507 a2_x6
+0.6397930308376103 a2_x2
+0.62515195144137559 a2_x4
<= 100.4399969242987

a2_local_5: 
+0.35863055138360755 a2_x2
+0.59322906296440114 a2_x3
+0.33372328686389263 a2_x1
<= 71.736515119508994

a2_local_6: 
+0.46658843108408976 a2_x4
+0.53671075354728992 a2_x6
+0.51462429463162274 a2_x2
<= 95.17698831477135

a2_local_7: 
+0.64497908506506463 a2_x5
+0.62322398699758264 a2_x2
+0.44325598011732043 a2_x3
<= 115.48845990234904

a2_local_8: 
+0.23590559571345707 a2_x5
+0.47902267806306648 a2_x4
+0.53949925980088242 a2_x6
<= 54.766305545068718

a2_act_1: 
+1 a2_x1
-100 a2_z1
<= 0

a2_act_2: 
+1 a2_x2
-100 a2_z2
<= 0

a3_local_1: 
+1.3643683667583864 a3_x3
+1.8676084454259916 a3_x5
+3.0619943706050523 a3_x6
<= 394.37923885927773

a3_local_2: 
+2.7172563539139465 a3_x4
+2.1776599902127582 a3_x1
+1.7625750661112858 a3_x2
<= 433.27704216490901

a3_local_3: 
+1.9549667562380943 a3_x3
+2.3001750719807785 a3_x5
+1.9048686822924927 a3_x2
<= 245.14862056002693

a3_local_4: 
+2.4949303619836569 a3_x2
+1.981785058129478 a3_x6
+1.5675181516875174 a3_x4
<= 411.1942745131272

a3_local_5: 
+1.8790189247990881 a3_x2
+2.5252166840888854 a3_x3
+2.5875047757276972 a3_x1
<= 394.82235353889581

a3_local_6: 
+2.6811309724105477 a3_x1
+2.1725552992840935 a3_x5
+3.1551656038480762 a3_x4
<= 357.49358475782168

a3_local_7: 
+1.4281326172775348 a3_x2
+3.1129894530838906 a3_x1
+1.7445015293639901 a3_x3
<= 242.33393473412769

a3_local_8: 
+1.7815377844963955 a3_x4
+1.8771059107346533 a3_x5
+2.2892297471542311 a3_x2
<= 327.43719126819741

a3_act_1: 
+1 a3_x1
-100 a3_z1
<= 0

a3_act_2: 
+1 a3_x2
-100 a3_z2
<= 0

a4_local_1: 
+14.180083872888765 a4_x3
+6.6140910047170927 a4_x2
+7.2884301421422997 a4_x6
<= 1781.8415850361937

a4_local_2: 
+11.86378350859548 a4_x6
+10.739476495699037 a4_x1
+6.6428148799993503 a4_x5
<= 1313.0374305726195

a4_local_3: 
+5.0120137467573924 a4_x4
+10.036271652007171 a4_x5
+10.94624206380141 a4_x6
<= 1308.4235982064997

a4_local_4: 
+10.246754041028119 a4_x6
+12.983287565988826 a4_x2
+8.2467085275985959 a4_x4
<= 1722.2772369105003

a4_local_5: 
+5.429091819898435 a4_x3
+5.9012186490742922 a4_x6
+7.4805862973737192 a4_x1
<= 1306.5770805821824

a4_local_6: 
+8.2682086774620505 a4_x5
+14.741064643450255 a4_x6
+10.811702067915913 a4_x2
<= 1981.965045176586

a4_local_7: 
+11.392564358033276 a4_x4
+5.1199038198756526 a4_x3
+8.0696261578263826 a4_x2
<= 1565.1859912257478

a4_local_8: 
+13.106179207900944 a4_x3
+6.1395194443455203 a4_x6
+10.908214583770121 a4_x2
<= 2007.8860931460201

a4_act_1: 
+1 a4_x1
-100 a4_z1
<= 0

a4_act_2: 
+1 a4_x2
-100 a4_z2
<= 0

coupling_1: 
+0.00063012756282464027 a1_x1
+0.0040426678825968157 a2_x1
+0.021938420597106448 a3_x1
+0.1055866482314496 a4_x1
+0.0081946311923734045 short_1
-0.0081946311923734045 surp_1
= 7.8280804543568898

coupling_2: 
+0.0011564989498936223 a1_x2
+0.004288476129927549 a2_x2
+0.026242316929130424 a3_x2
+0.099519448817229295 a4_x2
+0.0081946311923734045 short_2
-0.0081946311923734045 surp_2
= 8.6004081674966137

coupling_3: 
+0.00094938969768820292 a1_x3
+0.004117816319779412 a2_x3
+0.01422224332983547 a3_x3
+0.083051984357092212 a4_x3
+0.0081946311923734045 short_3
-0.0081946311923734045 surp_3
= 6.8214860922235347

bounds
  0 <= a1_x1 <= 100
  0 <= a1_x2 <= 100
  0 <= a1_x3 <= 100
  0 <= a1_x4 <= 100
  0 <= a1_x5 <= 100
  0 <= a1_x6 <= 100
  0 <= a2_x1 <= 100
  0 <= a2_x2 <= 100
  0 <= a2_x3 <= 100
  0 <= a2_x4 <= 100
  0 <= a2_x5 <= 100
  0 <= a2_x6 <= 100
  0 <= a3_x1 <= 100
  0 <= a3_x2 <= 100
  0 <= a3_x3 <= 100
  0 <= a3_x4 <= 100
  0 <= a3_x5 <= 100
  0 <= a3_x6 <= 100
  0 <= a4_x1 <= 100
  0 <= a4_x2 <= 100
  0 <= a4_x3 <= 100
  0 <= a4_x4 <= 100
  0 <= a4_x5 <= 100
  0 <= a4_x6 <= 100
  0 <= short_1 <= +inf
  0 <= surp_1 <= +inf
  0 <= short_2 <= +inf
  0 <= surp_2 <= +inf
  0 <= short_3 <= +inf
  0 <= surp_3 <= +inf
 0 <= a1_z1 <= 1
 0 <= a1_z2 <= 1
 0 <= a2_z1 <= 1
 0 <= a2_z2 <= 1
 0 <= a3_z1 <= 1
 0 <= a3_z2 <= 1
 0 <= a4_z1 <= 1
 0 <= a4_z2 <= 1

binary
  a1_z1
  a1_z2
  a2_z1
  a2_z2
  a3_z1
  a3_z2
  a4_z1
  a4_z2
end
