min
obj: 
  +5.7129162548306427 a1_x1
  +9.0056358908477314 a1_x2
  +9.0172471176233611 a1_x3
  +9.406385688684578 a1_x4
  +5.7753562095118767 a1_x5
  +7.2881596650216451 a1_x6
  +20.355895911925103 a1_z1
  +36.986322019028464 a1_z2
  +9.5705581106952309 a2_x1
  +1.2604999258751248 a2_x2
  +5.3940318901522675 a2_x3
  +5.1816392623674004 a2_x4
  +3.5951202349319828 a2_x5
  +8.3242993176305013 a2_x6
  +8.2240572055779673 a2_z1
  +9.8483018703506104 a2_z2
  +4.4443242856945142 a3_x1
  +6.878356128261002 a3_x2
  +6.0922718983064614 a3_x3
  +7.9699820931728009 a3_x4
  +3.3886243612057902 a3_x5
  +8.8768505579425145 a3_x6
  +46.436857763791892 a3_z1
  +46.775047481358833 a3_z2
  +2.1426688948262615 a4_x1
  +3.7175386403807593 a4_x2
  +7.4752828100284079 a4_x3
  +1.4623010448148774 a4_x4
  +9.334818787187654 a4_x5
  +5.5099843569690403 a4_x6
  +29.024926983261683 a4_z1
  +40.430546823103057 a4_z2
  +1000000 short_1
  +1000000 surp_1
  +1000000 short_2
  +1000000 surp_2
  +1000000 short_3
  +1000000 surp_3

s.t.

a1_local_1: 
+0.10601880956378679 a1_x1
+0.069810076583414316 a1_x3
+0.084679054795612774 a1_x4
<= 9.104077181935109

a1_local_2: 
+0.11880899091204906 a1_x3
+0.05313637228352748 a1_x4
+0.10707181094441542 a1_x5
<= 11.720934339840895

a1_local_3: 
+0.09890263386845205 a1_x2
+0.060919940674206891 a1_x4
+0.10710427981409186 a1_x1
<= 11.222312437201049

a1_local_4: 
+0.082321047218287091 a1_x2
+0.10098440835338417 a1_x3
+0.065579937172780767 a1_x4
<= 8.1611361103583828

a1_local_5: 
+0.11708067214223417 a1_x1
+0.061085046132833012 a1_x3
+0.10819518953873022 a1_x2
<= 9.916667483901751

a1_local_6: 
+0.085112779134138269 a1_x2
+0.083468631150077396 a1_x3
+0.075569587871453736 a1_x4
<= 15.243653851787757

a1_local_7: 
+0.086652807460299297 a1_x1
+0.12501795037520813 a1_x2
+0.13720974339065811 a1_x4
<= 23.041305891145239

a1_local_8: 
+0.12314793063897081 a1_x2
+0.11782398371553562 a1_x6
+0.069696147748122814 a1_x5
<= 18.42222014388468

a1_act_1: 
+1 a1_x1
-100 a1_z1
<= 0

a1_act_2: 
+1 a1_x2
-100 a1_z2
<= 0

a2_local_1: 
+0.33820536481278862 a2_x5
+0.48778173978046802 a2_x6
+0.54554938484551596 a2_x2
<= 51.932806094045041

a2_local_2: 
+0.50042309546837249 a2_x4
+0.61519349163932335 a2_x6
+0.61686924455462411 a2_x2
<= 77.758009441021798

a2_local_3: 
+0.6324144696609183 a2_x6
+0.26871087639233177 a2_x1
+0.6744077799471595 a2_x2
<= 77.059194652255357

a2_local_4: 
+0.49578885918991755 a2_x6
+0.62453989901379936 a2_x2
+0.6897397356920163 a2_x5
<= 97.469538724695127

a2_local_5: 
+0.62033792694412293 a2_x2
+0.43079246751818473 a2_x5
+0.26697972952220134 a2_x1
<= 83.199870537150559

a2_local_6: 
+0.41867061427744201 a2_x2
+0.34489115079170474 a2_x4
+0.66193391179116723 a2_x3
<= 59.325626197394854

a2_local_7: 
+0.30659693631178969 a2_x5
+0.27439507775419025 a2_x1
+0.25704932180207113 a2_x6
<= 42.778920716107173

a2_local_8: 
+0.29935784194281662 a2_x3
+0.41502606140354453 a2_x2
+0.61287656635003629 a2_x5
<= 80.296464065811946

a2_act_1: 
+1 a2_x1
-100 a2_z1
<= 0

a2_act_2: 
+1 a2_x2
-100 a2_z2
<= 0

a3_local_1: 
+2.8969968412721587 a3_x6
+2.3010454774120843 a3_x4
+3.1423660007079404 a3_x5
<= 481.95571110599388

a3_local_2: 
+3.2077612455052988 a3_x3
+2.3644988684933255 a3_x6
+2.0755712191162221 a3_x5
<= 252.95345680843474

a3_local_3: 
+2.080595401812972 a3_x3
+1.7094951008076016 a3_x5
+2.5037223458367244 a3_x2
<= 220.19441420623258

a3_local_4: 
+1.5080631964914084 a3_x1
+3.1500782658034159 a3_x4
+1.6582039572673966 a3_x2
<= 343.77285856380581

a3_local_5: 
+1.5470686367818622 a3_x2
+2.5240677842550991 a3_x5
+2.1780847163037689 a3_x3
<= 328.09147053690543

a3_local_6: 
+1.9495150529372376 a3_x5
+2.1918398446987744 a3_x3
+2.3526667753555208 a3_x2
<= 316.7747174823516

a3_local_7: 
+2.3681113776681495 a3_x5
+2.0328206590617306 a3_x6
+3.1571460536523097 a3_x1
<= 342.05611878219446

a3_local_8: 
+2.6795419567126917 a3_x4
+3.0153580715558017 a3_x2
+1.2137814360315695 a3_x1
<= 340.13003573483371

a3_act_1: 
+1 a3_x1
-100 a3_z1
<= 0

a3_act_2: 
+1 a3_x2
-100 a3_z2
<= 0

a4_local_1: 
+13.906669355693829 a4_x2
+14.594185742939478 a4_x5
+6.0539378752929709 a4_x4
<= 1496.1919128194811

a4_local_2: 
+10.303358935906308 a4_x2
+9.3571783637545245 a4_x4
+8.8400878264942619 a4_x3
<= 1623.1305406638326

a4_local_3: 
+9.1022565302329284 a4_x6
+14.323163774225067 a4_x4
+11.612648742356537 a4_x1
<= 1332.1900626813108

a4_local_4: 
+11.219372786962161 a4_x1
+7.2575656458492723 a4_x6
+10.457947562777846 a4_x3
<= 985.62688350291808

a4_local_5: 
+9.9668313682538479 a4_x1
+12.225237943971806 a4_x3
+10.613345986633679 a4_x6
<= 1626.7677761819039

a4_local_6: 
+8.2441671436308344 a4_x6
+6.3997214529514315 a4_x2
+7.7953615631857716 a4_x4
<= 1457.2637055733446

a4_local_7: 
+11.257466778863412 a4_x3
+7.0493122972634907 a4_x6
+7.325323878047528 a4_x4
<= 1405.6761013797109

a4_local_8: 
+6.0893881289209881 a4_x4
+9.3052565205892552 a4_x5
+11.977451305109764 a4_x6
<= 1350.5097268569878

a4_act_1: 
+1 a4_x1
-100 a4_z1
<= 0

a4_act_2: 
+1 a4_x2
-100 a4_z2
<= 0

coupling_1: 
+0.037189608727376734 a1_x1
+0.07677358716991374 a2_x1
+0.65166865978976662 a3_x1
+1.6376290478815831 a4_x1
+0.28490577426787828 short_1
-0.28490577426787828 surp_1
= 181.83885491752696

coupling_2: 
+0.038700155268042817 a1_x2
+0.17911500114153461 a2_x2
+0.7853099747197344 a3_x2
+4.1762765530822987 a4_x2
+0.28490577426787828 short_2
-0.28490577426787828 surp_2
= 398.60357196834008

coupling_3: 
+0.029799776568488787 a1_x3
+0.084463862489943614 a2_x3
+0.37071358607195171 a3_x3
+2.064432116130817 a4_x3
+0.28490577426787828 short_3
-0.28490577426787828 surp_3
= 72.657952171080893

bounds
  0 <= a1_x1 <= 100
  0 <= a1_x2 <= 100
  0 <= a1_x3 <= 100
  0 <= a1_x4 <= 100
  0 <= a1_x5 <= 100
  0 <= a1_x6 <= 100
  0 <= a2_x1 <= 100
  0 <= a2_x2 <= 100
  0 <= a2_x3 <= 100
  0 <= a2_x4 <= 100
  0 <= a2_x5 <= 100
  0 <= a2_x6 <= 100
  0 <= a3_x1 <= 100
  0 <= a3_x2 <= 100
  0 <= a3_x3 <= 100
  0 <= a3_x4 <= 100
  0 <= a3_x5 <= 100
  0 <= a3_x6 <= 100
  0 <= a4_x1 <= 100
  0 <= a4_x2 <= 100
  0 <= a4_x3 <= 100
  0 <= a4_x4 <= 100
  0 <= a4_x5 <= 100
  0 <= a4_x6 <= 100
  0 <= short_1 <= +inf
  0 <= surp_1 <= +inf
  0 <= short_2 <= +inf
  0 <= surp_2 <= +inf
  0 <= short_3 <= +inf
  0 <= surp_3 <= +inf
 0 <= a1_z1 <= 1
 0 <= a1_z2 <= 1
 0 <= a2_z1 <= 1
 0 <= a2_z2 <= 1
 0 <= a3_z1 <= 1
 0 <= a3_z2 <= 1
 0 <= a4_z1 <= 1
 0 <= a4_z2 <= 1

binary
  a1_z1
  a1_z2
  a2_z1
  a2_z2
  a3_z1
  a3_z2
  a4_z1
  a4_z2
end
