min
obj: 
  +8.0556013187453051 a1_x1
  +1.9742345173811016 a1_x2
  +4.4385591714508195 a1_x3
  +2.091774352732247 a1_x4
  +8.3606733491801819 a1_x5
  +3.1332851203907777 a1_x6
  +12.324732571684713 a1_z1
  +43.380471023797909 a1_z2
  +7.6338140335244935 a2_x1
  +9.9611693691396663 a2_x2
  +9.9407775368738864 a2_x3
  +8.2998138303753102 a2_x4
  +5.1593396215897407 a2_x5
  +2.2373011621221504 a2_x6
  +36.513419228591097 a2_z1
  +11.462176186336659 a2_z2
  +8.7735643157403977 a3_x1
  +3.6647749932252576 a3_x2
  +8.9894067496513301 a3_x3
  +1.8313374509796332 a3_x4
  +5.9661400049633215 a3_x5
  +2.3543550386909118 a3_x6
  +18.836022336426041 a3_z1
  +16.870832212175223 a3_z2
  +7.8515457332568142 a4_x1
  +9.0641405667365316 a4_x2
  +3.8803458463891136 a4_x3
  +5.5605295549433134 a4_x4
  +7.2488159045117166 a4_x5
  +9.9817052164747704 a4_x6
  +15.565550238545768 a4_z1
  +24.431792631400658 a4_z2
  +1000000 short_1
  +1000000 surp_1
  +1000000 short_2
  +1000000 surp_2
  +1000000 short_3
  +1000000 surp_3

s.t.

a1_local_1: 
+0.8268425223086262 a1_x2
+0.34805731688325592 a1_x5
+0.44180034796991469 a1_x3
<= 77.689574437771114

a1_local_2: 
+0.35342997224112588 a1_x6
+0.70503338605983579 a1_x4
+0.61482939036991358 a1_x2
<= 71.614084310955604

a1_local_3: 
+0.56329307536713569 a1_x5
+0.7549694128313279 a1_x3
+0.3357411159398776 a1_x4
<= 76.060673423937558

a1_local_4: 
+0.25704487800282005 a1_x6
+0.62208374941506384 a1_x1
+0.7395537434197812 a1_x4
<= 50.619997754562057

a1_local_5: 
+0.66132755977059876 a1_x3
+0.59953350854442056 a1_x4
+0.45078313058529856 a1_x1
<= 54.058610598331917

a1_local_6: 
+0.52003746285469832 a1_x3
+0.7322089550755031 a1_x5
+0.43980800735649178 a1_x1
<= 70.254114956486276

a1_local_7: 
+0.43960012288379802 a1_x3
+0.83274332654840522 a1_x6
+0.33658622082557976 a1_x5
<= 95.961197806857143

a1_local_8: 
+0.54480491510754225 a1_x5
+0.74178972751619243 a1_x6
+0.39106982065369977 a1_x2
<= 111.64247009816977

a1_act_1: 
+0.0099995000374968751 a1_x1
-0.99995000374968757 a1_z1
<= 0

a1_act_2: 
+0.0099995000374968751 a1_x2
-0.99995000374968757 a1_z2
<= 0

a2_local_1: 
+0.26797659064423018 a2_x1
+0.34218035095632082 a2_x6
+0.39626499414060323 a2_x5
<= 31.068054140181623

a2_local_2: 
+0.66975995717254755 a2_x2
+0.28384346900607854 a2_x4
+0.64537967061717549 a2_x3
<= 107.45692563018655

a2_local_3: 
+0.61303451322557734 a2_x6
+0.67357377337805568 a2_x3
+0.59055562606995238 a2_x1
<= 113.39383570188438

a2_local_4: 
+0.60820612403187646 a2_x4
+0.6321795638927119 a2_x3
+0.58803222179024772 a2_x1
<= 72.934086996551571

a2_local_5: 
+0.34356407514661369 a2_x3
+0.27228723824384471 a2_x5
+0.28582416220671775 a2_x2
<= 41.29638714733219

a2_local_6: 
+0.3581645312550133 a2_x6
+0.28479957911726389 a2_x4
+0.60851777979769506 a2_x1
<= 56.992657844192344

a2_local_7: 
+0.43239067335974063 a2_x2
+0.61975983238952714 a2_x1
+0.44948412996090192 a2_x6
<= 85.403454640382606

a2_local_8: 
+0.65595381900059357 a2_x3
+0.54071318072203889 a2_x4
+0.39678324138785931 a2_x6
<= 83.763553619009585

a2_act_1: 
+0.0099995000374968751 a2_x1
-0.99995000374968757 a2_z1
<= 0

a2_act_2: 
+0.0099995000374968751 a2_x2
-0.99995000374968757 a2_z2
<= 0

a3_local_1: 
+0.68816001460848686 a3_x5
+0.46912941007957143 a3_x6
+0.55349199713495467 a3_x2
<= 95.934759765066886

a3_local_2: 
+0.58576699140919652 a3_x4
+0.48317253284092349 a3_x6
+0.65070833349781632 a3_x1
<= 78.767795750965107

a3_local_3: 
+0.40239967522825537 a3_x4
+0.37747303691564876 a3_x5
+0.83401954879839124 a3_x3
<= 49.767477141566943

a3_local_4: 
+0.54277401064600561 a3_x2
+0.36359553955544238 a3_x3
+0.75709620061299776 a3_x6
<= 72.586474023451302

a3_local_5: 
+0.56358144281403866 a3_x5
+0.64724271114423693 a3_x3
+0.51327656305962788 a3_x2
<= 59.938134340855761

a3_local_6: 
+0.60480419389621753 a3_x1
+0.57771969318054495 a3_x5
+0.54813487679304207 a3_x3
<= 119.05899698818959

a3_local_7: 
+0.55812865310006632 a3_x5
+0.63063249943685717 a3_x6
+0.53925416757103339 a3_x3
<= 87.99108505751542

a3_local_8: 
+0.47692833798501405 a3_x5
+0.65190577343271527 a3_x6
+0.58954068815642013 a3_x3
<= 71.208722030346934

a3_act_1: 
+0.0099995000374968751 a3_x1
-0.99995000374968757 a3_z1
<= 0

a3_act_2: 
+0.0099995000374968751 a3_x2
-0.99995000374968757 a3_z2
<= 0

a4_local_1: 
+0.71088459366334744 a4_x2
+0.39333668136554473 a4_x5
+0.58303460410548302 a4_x4
<= 105.20047308551527

a4_local_2: 
+0.47967704984781373 a4_x4
+0.60652055161723284 a4_x1
+0.63406840980703771 a4_x3
<= 71.246545205126878

a4_local_3: 
+0.67272192480994686 a4_x3
+0.45027288505169372 a4_x1
+0.58711118271348262 a4_x6
<= 59.457525471388955

a4_local_4: 
+0.64096503476504862 a4_x2
+0.36961512573331817 a4_x3
+0.6727172385466148 a4_x5
<= 61.211556315667032

a4_local_5: 
+0.76398797020930276 a4_x4
+0.39035070705866637 a4_x5
+0.51375938616658745 a4_x6
<= 96.798126816065206

a4_local_6: 
+0.31762419475138542 a4_x2
+0.88975648050018097 a4_x4
+0.32779303884686956 a4_x3
<= 87.540794216602606

a4_local_7: 
+0.66311961361760718 a4_x2
+0.48492521873993283 a4_x6
+0.5701928711108758 a4_x1
<= 71.316461218295487

a4_local_8: 
+0.59403263685526286 a4_x5
+0.63456311659147191 a4_x4
+0.49442378321891162 a4_x2
<= 60.664486764967997

a4_act_1: 
+0.0099995000374968751 a4_x1
-0.99995000374968757 a4_z1
<= 0

a4_act_2: 
+0.0099995000374968751 a4_x2
-0.99995000374968757 a4_z2
<= 0

coupling_1: 
+0.0091163692243749605 a1_x1
+0.076018984872641568 a2_x1
+0.30721018136140166 a3_x1
+0.93385233378561916 a4_x1
+0.11764295325718636 short_1
-0.11764295325718636 surp_1
= 90.786253538960707

coupling_2: 
+0.015529790224010704 a1_x2
+0.037323347651459067 a2_x2
+0.32987191162299584 a3_x2
+0.92874781202205503 a4_x2
+0.11614176019443283 short_2
-0.11614176019443283 surp_2
= 102.87589416570057

coupling_3: 
+0.0067930234207371019 a1_x3
+0.022744867151100131 a2_x3
+0.14991183908767325 a3_x3
+0.98383008447397047 a4_x3
+0.067235895310375257 short_3
-0.067235895310375257 surp_3
= 71.33818894631105

bounds
  0 <= a1_x1 <= 100
  0 <= a1_x2 <= 100
  0 <= a1_x3 <= 100
  0 <= a1_x4 <= 100
  0 <= a1_x5 <= 100
  0 <= a1_x6 <= 100
  0 <= a2_x1 <= 100
  0 <= a2_x2 <= 100
  0 <= a2_x3 <= 100
  0 <= a2_x4 <= 100
  0 <= a2_x5 <= 100
  0 <= a2_x6 <= 100
  0 <= a3_x1 <= 100
  0 <= a3_x2 <= 100
  0 <= a3_x3 <= 100
  0 <= a3_x4 <= 100
  0 <= a3_x5 <= 100
  0 <= a3_x6 <= 100
  0 <= a4_x1 <= 100
  0 <= a4_x2 <= 100
  0 <= a4_x3 <= 100
  0 <= a4_x4 <= 100
  0 <= a4_x5 <= 100
  0 <= a4_x6 <= 100
  0 <= short_1 <= +inf
  0 <= surp_1 <= +inf
  0 <= short_2 <= +inf
  0 <= surp_2 <= +inf
  0 <= short_3 <= +inf
  0 <= surp_3 <= +inf
 0 <= a1_z1 <= 1
 0 <= a1_z2 <= 1
 0 <= a2_z1 <= 1
 0 <= a2_z2 <= 1
 0 <= a3_z1 <= 1
 0 <= a3_z2 <= 1
 0 <= a4_z1 <= 1
 0 <= a4_z2 <= 1

binary
  a1_z1
  a1_z2
  a2_z1
  a2_z2
  a3_z1
  a3_z2
  a4_z1
  a4_z2
end
