min
obj: 
  +1.9679731558453351 a1_x1
  +5.1245063990813229 a1_x2
  +5.3289660462088069 a1_x3
  +7.7326436197250805 a1_x4
  +5.1395422066191525 a1_x5
  +1.4920260738512641 a1_x6
  +49.872667351617643 a1_z1
  +13.869581796168557 a1_z2
  +7.5341317217871078 a2_x1
  +3.4571921689270946 a2_x2
  +4.7657113746642423 a2_x3
  +9.3861788498988687 a2_x4
  +1.7288685547688603 a2_x5
  +5.9081608215551888 a2_x6
  +23.537170412908246 a2_z1
  +38.77106799595807 a2_z2
  +4.9087522557742478 a3_x1
  +9.9244206014586318 a3_x2
  +6.7861238771840311 a3_x3
  +8.6736711514090779 a3_x4
  +9.6443958243312533 a3_x5
  +8.9768883116585663 a3_x6
  +12.682768889922908 a3_z1
  +43.15224448184653 a3_z2
  +4.1276908151999692 a4_x1
  +7.0223714932865171 a4_x2
  +1.0610858298808366 a4_x3
  +7.0927412879620659 a4_x4
  +7.9355051703127861 a4_x5
  +7.5971307832819344 a4_x6
  +17.373101516361629 a4_z1
  +10.310923678881169 a4_z2
  +1000000 short_1
  +1000000 surp_1
  +1000000 short_2
  +1000000 surp_2
  +1000000 short_3
  +1000000 surp_3

s.t.

a1_local_1: 
+0.44685866575831845 a1_x3
+0.71098463243539267 a1_x6
+0.54297162474424476 a1_x2
<= 116.58434904728946

a1_local_2: 
+0.82850689794525334 a1_x4
+0.45899830670512554 a1_x6
+0.32077542689389565 a1_x2
<= 91.172631314095725

a1_local_3: 
+0.35334778835277675 a1_x4
+0.4761538197660557 a1_x5
+0.80524709275376838 a1_x2
<= 55.685556022616623

a1_local_4: 
+0.41453565163171713 a1_x2
+0.51903022836685786 a1_x1
+0.74750773612566379 a1_x4
<= 112.75825779237692

a1_local_5: 
+0.57162015603718541 a1_x5
+0.54879687047281289 a1_x2
+0.60997737021242893 a1_x4
<= 97.243587016014601

a1_local_6: 
+0.63753845244283325 a1_x4
+0.30159698133509755 a1_x6
+0.70893157815571617 a1_x1
<= 107.85664575150467

a1_local_7: 
+0.7864877538686309 a1_x5
+0.47309606050022557 a1_x4
+0.39701023986018652 a1_x3
<= 67.804782577415608

a1_local_8: 
+0.56785673666480863 a1_x6
+0.69294484902990783 a1_x3
+0.44425911676330587 a1_x2
<= 75.407172416870452

a1_act_1: 
+0.0099995000374968751 a1_x1
-0.99995000374968757 a1_z1
<= 0

a1_act_2: 
+0.0099995000374968751 a1_x2
-0.99995000374968757 a1_z2
<= 0

a2_local_1: 
+0.58282630080425946 a2_x3
+0.58178625970216458 a2_x6
+0.52718870159965348 a2_x4
<= 99.750356855760216

a2_local_2: 
+0.56406978040085598 a2_x6
+0.33078981155633108 a2_x4
+0.2423369083300107 a2_x3
<= 75.936956188833463

a2_local_3: 
+0.55541336608486103 a2_x2
+0.55357487177182529 a2_x3
+0.35093799580041857 a2_x4
<= 89.058272322378812

a2_local_4: 
+0.44844911292136991 a2_x6
+0.286526236930849 a2_x5
+0.62931870616811691 a2_x2
<= 78.515622331324337

a2_local_5: 
+0.45250348597243334 a2_x4
+0.33447925302892162 a2_x5
+0.65371329797565914 a2_x3
<= 92.040376104766295

a2_local_6: 
+0.47158739250967924 a2_x2
+0.6135710773661317 a2_x5
+0.41529343549107611 a2_x1
<= 91.154174636098048

a2_local_7: 
+0.4572835142609406 a2_x4
+0.4582985738516272 a2_x3
+0.52429964240780547 a2_x5
<= 55.420125999514354

a2_local_8: 
+0.4127429718910357 a2_x6
+0.29283455442810263 a2_x4
+0.33526549234856434 a2_x3
<= 64.607493120754839

a2_act_1: 
+0.0099995000374968751 a2_x1
-0.99995000374968757 a2_z1
<= 0

a2_act_2: 
+0.0099995000374968751 a2_x2
-0.99995000374968757 a2_z2
<= 0

a3_local_1: 
+0.68123898476413824 a3_x1
+0.59980736569607018 a3_x3
+0.41969580614329111 a3_x4
<= 101.43706094717477

a3_local_2: 
+0.5862548866856927 a3_x1
+0.59996883553872804 a3_x6
+0.54437358883348508 a3_x5
<= 120.16042001306705

a3_local_3: 
+0.39009675296958451 a3_x6
+0.77452877572080103 a3_x2
+0.49792539491677279 a3_x3
<= 116.17340931891077

a3_local_4: 
+0.43632330244810213 a3_x1
+0.8384167102742538 a3_x6
+0.32661811902232252 a3_x2
<= 109.50420815912513

a3_local_5: 
+0.42946333906640533 a3_x4
+0.57346627027974162 a3_x6
+0.69763721033885251 a3_x3
<= 86.799348636584782

a3_local_6: 
+0.69637425408187792 a3_x6
+0.53485746922481825 a3_x3
+0.47852939916616483 a3_x1
<= 79.918457592841676

a3_local_7: 
+0.34044432783976447 a3_x6
+0.6869787224172641 a3_x5
+0.64199524498836791 a3_x1
<= 83.963073637636867

a3_local_8: 
+0.43162885350286873 a3_x4
+0.65674618696769393 a3_x6
+0.61836961336016016 a3_x5
<= 109.59483677186165

a3_act_1: 
+0.0099995000374968751 a3_x1
-0.99995000374968757 a3_z1
<= 0

a3_act_2: 
+0.0099995000374968751 a3_x2
-0.99995000374968757 a3_z2
<= 0

a4_local_1: 
+0.61427456718237727 a4_x4
+0.59559124871372615 a4_x1
+0.51762710571272008 a4_x5
<= 80.723597552860923

a4_local_2: 
+0.62017120756328614 a4_x4
+0.63591609040485697 a4_x1
+0.45934562071897106 a4_x6
<= 75.435452180379258

a4_local_3: 
+0.42196097359866247 a4_x3
+0.4417971101292269 a4_x5
+0.79168443854930792 a4_x1
<= 69.891749701328976

a4_local_4: 
+0.42309620134642051 a4_x3
+0.82483933706823143 a4_x5
+0.37500622985634474 a4_x6
<= 111.13637774120559

a4_local_5: 
+0.79116673665540427 a4_x4
+0.42842426796750249 a4_x5
+0.43647203968472958 a4_x6
<= 86.916588116065483

a4_local_6: 
+0.42870156750027266 a4_x5
+0.54544631784578268 a4_x2
+0.7202105805743807 a4_x1
<= 81.850410744477102

a4_local_7: 
+0.6535369855596852 a4_x2
+0.68987617818661706 a4_x3
+0.31138443647071834 a4_x1
<= 78.365528297613025

a4_local_8: 
+0.7923401426897333 a4_x1
+0.54240304102168113 a4_x2
+0.27927771012532615 a4_x4
<= 54.941989524827001

a4_act_1: 
+0.0099995000374968751 a4_x1
-0.99995000374968757 a4_z1
<= 0

a4_act_2: 
+0.0099995000374968751 a4_x2
-0.99995000374968757 a4_z2
<= 0

coupling_1: 
+0.01423742639718519 a1_x1
+0.057847428554808081 a2_x1
+0.26664576278433688 a3_x1
+1.4237276478941969 a4_x1
+0.10143334915417133 short_1
-0.10143334915417133 surp_1
= 75.557488752484403

coupling_2: 
+0.0063889596430518883 a1_x2
+0.038164074213075577 a2_x2
+0.18046690492171119 a3_x2
+0.69418434052830835 a4_x2
+0.10143334915417133 short_2
-0.10143334915417133 surp_2
= 22.644958736887258

coupling_3: 
+0.014448541242843269 a1_x3
+0.042454265890140515 a2_x3
+0.18376848592218148 a3_x3
+0.73922231795292725 a4_x3
+0.10143334915417133 short_3
-0.10143334915417133 surp_3
= 52.405150970195322

bounds
  0 <= a1_x1 <= 100
  0 <= a1_x2 <= 100
  0 <= a1_x3 <= 100
  0 <= a1_x4 <= 100
  0 <= a1_x5 <= 100
  0 <= a1_x6 <= 100
  0 <= a2_x1 <= 100
  0 <= a2_x2 <= 100
  0 <= a2_x3 <= 100
  0 <= a2_x4 <= 100
  0 <= a2_x5 <= 100
  0 <= a2_x6 <= 100
  0 <= a3_x1 <= 100
  0 <= a3_x2 <= 100
  0 <= a3_x3 <= 100
  0 <= a3_x4 <= 100
  0 <= a3_x5 <= 100
  0 <= a3_x6 <= 100
  0 <= a4_x1 <= 100
  0 <= a4_x2 <= 100
  0 <= a4_x3 <= 100
  0 <= a4_x4 <= 100
  0 <= a4_x5 <= 100
  0 <= a4_x6 <= 100
  0 <= short_1 <= +inf
  0 <= surp_1 <= +inf
  0 <= short_2 <= +inf
  0 <= surp_2 <= +inf
  0 <= short_3 <= +inf
  0 <= surp_3 <= +inf
 0 <= a1_z1 <= 1
 0 <= a1_z2 <= 1
 0 <= a2_z1 <= 1
 0 <= a2_z2 <= 1
 0 <= a3_z1 <= 1
 0 <= a3_z2 <= 1
 0 <= a4_z1 <= 1
 0 <= a4_z2 <= 1

binary
  a1_z1
  a1_z2
  a2_z1
  a2_z2
  a3_z1
  a3_z2
  a4_z1
  a4_z2
end
