min
obj: 
  +1.9679731558453351 a1_x1
  +5.1245063990813229 a1_x2
  +5.3289660462088069 a1_x3
  +7.7326436197250805 a1_x4
  +5.1395422066191525 a1_x5
  +1.4920260738512641 a1_x6
  +49.872667351617643 a1_z1
  +13.869581796168557 a1_z2
  +7.5341317217871078 a2_x1
  +3.4571921689270946 a2_x2
  +4.7657113746642423 a2_x3
  +9.3861788498988687 a2_x4
  +1.7288685547688603 a2_x5
  +5.9081608215551888 a2_x6
  +23.537170412908246 a2_z1
  +38.77106799595807 a2_z2
  +4.9087522557742478 a3_x1
  +9.9244206014586318 a3_x2
  +6.7861238771840311 a3_x3
  +8.6736711514090779 a3_x4
  +9.6443958243312533 a3_x5
  +8.9768883116585663 a3_x6
  +12.682768889922908 a3_z1
  +43.15224448184653 a3_z2
  +4.1276908151999692 a4_x1
  +7.0223714932865171 a4_x2
  +1.0610858298808366 a4_x3
  +7.0927412879620659 a4_x4
  +7.9355051703127861 a4_x5
  +7.5971307832819344 a4_x6
  +17.373101516361629 a4_z1
  +10.310923678881169 a4_z2
  +1000000 short_1
  +1000000 surp_1
  +1000000 short_2
  +1000000 surp_2
  +1000000 short_3
  +1000000 surp_3

s.t.

a1_local_1: 
+0.057198717635448017 a1_x3
+0.091007319204165577 a1_x6
+0.069501350264971007 a1_x2
<= 14.923007592461101

a1_local_2: 
+0.13716565153331864 a1_x4
+0.075990679073451473 a1_x6
+0.053106824499470899 a1_x2
<= 15.094326199600758

a1_local_3: 
+0.050509108310422803 a1_x4
+0.068063549985981533 a1_x5
+0.1151056097284712 a1_x2
<= 7.9599416585689156

a1_local_4: 
+0.067027707669014863 a1_x2
+0.083923798306408337 a1_x1
+0.1208671191974373 a1_x4
<= 18.232273896889073

a1_local_5: 
+0.13946943376067589 a1_x5
+0.13390078702804706 a1_x2
+0.14882819916661474 a1_x4
<= 23.72643419714943

a1_local_6: 
+0.13401998514857136 a1_x4
+0.063400133442159876 a1_x6
+0.14902787308237189 a1_x1
<= 22.673057611513283

a1_local_7: 
+0.14426630003982435 a1_x5
+0.086780522488827866 a1_x4
+0.07282401804837145 a1_x3
<= 12.437504664671993

a1_local_8: 
+0.082977239447813836 a1_x6
+0.10125555787149859 a1_x3
+0.064916717066795387 a1_x2
<= 11.018763356523559

a1_act_1: 
+1 a1_x1
-100 a1_z1
<= 0

a1_act_2: 
+1 a1_x2
-100 a1_z2
<= 0

a2_local_1: 
+0.58282630080425946 a2_x3
+0.58178625970216458 a2_x6
+0.52718870159965348 a2_x4
<= 99.750356855760216

a2_local_2: 
+0.56406978040085598 a2_x6
+0.33078981155633108 a2_x4
+0.2423369083300107 a2_x3
<= 75.936956188833463

a2_local_3: 
+0.55541336608486103 a2_x2
+0.55357487177182529 a2_x3
+0.35093799580041857 a2_x4
<= 89.058272322378812

a2_local_4: 
+0.44844911292136991 a2_x6
+0.286526236930849 a2_x5
+0.62931870616811691 a2_x2
<= 78.515622331324337

a2_local_5: 
+0.45250348597243334 a2_x4
+0.33447925302892162 a2_x5
+0.65371329797565914 a2_x3
<= 92.040376104766295

a2_local_6: 
+0.47158739250967924 a2_x2
+0.6135710773661317 a2_x5
+0.41529343549107611 a2_x1
<= 91.154174636098048

a2_local_7: 
+0.4572835142609406 a2_x4
+0.4582985738516272 a2_x3
+0.52429964240780547 a2_x5
<= 55.420125999514354

a2_local_8: 
+0.4127429718910357 a2_x6
+0.29283455442810263 a2_x4
+0.33526549234856434 a2_x3
<= 64.607493120754839

a2_act_1: 
+1 a2_x1
-100 a2_z1
<= 0

a2_act_2: 
+1 a2_x2
-100 a2_z2
<= 0

a3_local_1: 
+2.3404659314449887 a3_x1
+2.0606993085216021 a3_x3
+1.4419076973241691 a3_x4
<= 348.49735649666133

a3_local_2: 
+3.0379505690532382 a3_x1
+3.1090157314394786 a3_x6
+2.8209232733626259 a3_x5
<= 622.66673531726462

a3_local_3: 
+1.0997098889836723 a3_x6
+2.1834505093381087 a3_x2
+1.4036863331922405 a3_x3
<= 327.50092404618186

a3_local_4: 
+1.6526542171008964 a3_x1
+3.1756564550833626 a3_x6
+1.2371257935461928 a3_x2
<= 414.76719301737973

a3_local_5: 
+1.89395152309679 a3_x4
+2.5290105516387564 a3_x6
+3.0766096588420604 a3_x3
<= 382.7888054692599

a3_local_6: 
+2.3178100548140197 a3_x6
+1.7802180548678113 a3_x3
+1.5927358692687086 a3_x1
<= 266.0003632933516

a3_local_7: 
+1.1938067986470524 a3_x6
+2.408969109726506 a3_x5
+2.2512294242920112 a3_x1
<= 294.42607776708655

a3_local_8: 
+1.938298522462653 a3_x4
+2.9492239768071991 a3_x6
+2.7768878243072188 a3_x5
<= 492.15317386798193

a3_act_1: 
+1 a3_x1
-100 a3_z1
<= 0

a3_act_2: 
+1 a3_x2
-100 a3_z2
<= 0

a4_local_1: 
+13.987653336921429 a4_x4
+13.562215274067032 a4_x1
+11.786892864073028 a4_x5
<= 1838.1579817927566

a4_local_2: 
+9.9768668171715724 a4_x4
+10.230159129434057 a4_x1
+7.3896208419132714 a4_x6
<= 1213.5511138187719

a4_local_3: 
+7.4629685314550356 a4_x3
+7.813798281066072 a4_x5
+14.002043841513359 a4_x1
<= 1236.1331053460328

a4_local_4: 
+7.6243721813661018 a4_x3
+14.863953104817178 a4_x5
+6.7577705913144479 a4_x6
<= 2002.7244491709771

a4_local_5: 
+13.319813380499694 a4_x4
+7.2128048774247544 a4_x5
+7.3482944176643841 a4_x6
<= 1463.2980378698555

a4_local_6: 
+7.2033024760355175 a4_x5
+9.1649182315632274 a4_x2
+12.101412851295709 a4_x1
<= 1375.3000013927897

a4_local_7: 
+12.167445157202357 a4_x2
+12.844002327056403 a4_x3
+5.7973047238009965 a4_x1
<= 1458.9966426457365

a4_local_8: 
+14.796501181840434 a4_x1
+10.12906806698782 a4_x2
+5.2153522777517889 a4_x4
<= 1026.0103825827543

a4_act_1: 
+1 a4_x1
-100 a4_z1
<= 0

a4_act_2: 
+1 a4_x2
-100 a4_z2
<= 0

coupling_1: 
+0.01423742639718519 a1_x1
+0.057847428554808081 a2_x1
+0.26664576278433688 a3_x1
+1.4237276478941969 a4_x1
+0.10143334915417133 short_1
-0.10143334915417133 surp_1
= 75.557488752484403

coupling_2: 
+0.0063889596430518883 a1_x2
+0.038164074213075577 a2_x2
+0.18046690492171119 a3_x2
+0.69418434052830835 a4_x2
+0.10143334915417133 short_2
-0.10143334915417133 surp_2
= 22.644958736887258

coupling_3: 
+0.014448541242843269 a1_x3
+0.042454265890140515 a2_x3
+0.18376848592218148 a3_x3
+0.73922231795292725 a4_x3
+0.10143334915417133 short_3
-0.10143334915417133 surp_3
= 52.405150970195322

bounds
  0 <= a1_x1 <= 100
  0 <= a1_x2 <= 100
  0 <= a1_x3 <= 100
  0 <= a1_x4 <= 100
  0 <= a1_x5 <= 100
  0 <= a1_x6 <= 100
  0 <= a2_x1 <= 100
  0 <= a2_x2 <= 100
  0 <= a2_x3 <= 100
  0 <= a2_x4 <= 100
  0 <= a2_x5 <= 100
  0 <= a2_x6 <= 100
  0 <= a3_x1 <= 100
  0 <= a3_x2 <= 100
  0 <= a3_x3 <= 100
  0 <= a3_x4 <= 100
  0 <= a3_x5 <= 100
  0 <= a3_x6 <= 100
  0 <= a4_x1 <= 100
  0 <= a4_x2 <= 100
  0 <= a4_x3 <= 100
  0 <= a4_x4 <= 100
  0 <= a4_x5 <= 100
  0 <= a4_x6 <= 100
  0 <= short_1 <= +inf
  0 <= surp_1 <= +inf
  0 <= short_2 <= +inf
  0 <= surp_2 <= +inf
  0 <= short_3 <= +inf
  0 <= surp_3 <= +inf
 0 <= a1_z1 <= 1
 0 <= a1_z2 <= 1
 0 <= a2_z1 <= 1
 0 <= a2_z2 <= 1
 0 <= a3_z1 <= 1
 0 <= a3_z2 <= 1
 0 <= a4_z1 <= 1
 0 <= a4_z2 <= 1

binary
  a1_z1
  a1_z2
  a2_z1
  a2_z2
  a3_z1
  a3_z2
  a4_z1
  a4_z2
end
