min
obj: 
  +4.6121734767481746 a1_x1
  +8.3726653944305163 a1_x2
  +3.8874111784256438 a1_x3
  +3.5735214707131471 a1_x4
  +7.9063268225890937 a1_x5
  +6.5043346512565909 a1_x6
  +46.9551209495583 a1_z1
  +19.806653497637782 a1_z2
  +7.6567171580139357 a2_x1
  +8.2043744709301158 a2_x2
  +3.6188691473828523 a2_x3
  +5.2859257046209569 a2_x4
  +3.3947769180807601 a2_x5
  +2.5210962766084055 a2_x6
  +31.130882329794158 a2_z1
  +23.010561281727053 a2_z2
  +6.9874663911383514 a3_x1
  +2.0892016241128126 a3_x2
  +9.3610808006140438 a3_x3
  +4.8509819599704116 a3_x4
  +1.7243146015797635 a3_x5
  +7.0038934437638574 a3_x6
  +33.012677472845496 a3_z1
  +8.0010596287278375 a3_z2
  +6.4216192335644386 a4_x1
  +2.3877334915960096 a4_x2
  +7.475862409648836 a4_x3
  +7.4106096914751971 a4_x4
  +8.5860247699785965 a4_x5
  +3.4325757317506875 a4_x6
  +23.317265071624306 a4_z1
  +25.042487194398138 a4_z2
  +1000000 short_1
  +1000000 surp_1
  +1000000 short_2
  +1000000 surp_2
  +1000000 short_3
  +1000000 surp_3

s.t.

a1_local_1: 
+1.0608830015474711 a1_x1
+0.9426110122806538 a1_x6
+1.0303917029438197 a1_x2
<= 184.66561121495263

a1_local_2: 
+1.2031196616718665 a1_x4
+0.9036189190278342 a1_x6
+0.83117251912448209 a1_x2
<= 110.08493802765285

a1_local_3: 
+1.4856416621863735 a1_x2
+1.4304571139048103 a1_x1
+0.67310982550686593 a1_x5
<= 137.92802654115758

a1_local_4: 
+1.5849332011471089 a1_x1
+0.81508054679657105 a1_x2
+0.63094141713748031 a1_x4
<= 95.685986134596575

a1_local_5: 
+1.2403037122488925 a1_x2
+0.80625413769569476 a1_x6
+0.89499736356293791 a1_x3
<= 103.12629362714354

a1_local_6: 
+1.1664345205282403 a1_x4
+0.99612321803208148 a1_x6
+0.85731344743392246 a1_x1
<= 165.31480926347069

a1_local_7: 
+1.2156290969779882 a1_x1
+0.61907774092834422 a1_x5
+1.6153060171416276 a1_x6
<= 191.29078091769472

a1_local_8: 
+1.3056394610068982 a1_x2
+0.7659082234147615 a1_x1
+0.96152091107570303 a1_x4
<= 160.94905840738593

a1_act_1: 
+0.10000000000000001 a1_x1
-10 a1_z1
<= 0

a1_act_2: 
+0.10000000000000001 a1_x2
-10 a1_z2
<= 0

a2_local_1: 
+0.53762771409426813 a2_x4
+0.63805236758035289 a2_x2
+0.5092492268681158 a2_x6
<= 62.93585453876652

a2_local_2: 
+0.70713748685113864 a2_x2
+1.4141521537105453 a2_x6
+0.93100780847491982 a2_x5
<= 148.40871452869064

a2_local_3: 
+1.1327054563394117 a2_x2
+0.83777274532878165 a2_x1
+1.1936411223398686 a2_x3
<= 105.68036397963223

a2_local_4: 
+0.43374738377742261 a2_x3
+0.50261180441065423 a2_x2
+0.63896641404520371 a2_x4
<= 95.839153584984913

a2_local_5: 
+0.73450215460200574 a2_x2
+1.0235462810180607 a2_x5
+1.3614663942570138 a2_x6
<= 190.73097966050116

a2_local_6: 
+0.6659469865753288 a2_x6
+0.60656319352996069 a2_x5
+0.53408383509445312 a2_x1
<= 83.096031780394924

a2_local_7: 
+0.9714627769276023 a2_x5
+1.0733473310082404 a2_x4
+0.93166486850128727 a2_x3
<= 154.04179614066828

a2_local_8: 
+1.1076399934028216 a2_x6
+0.90282041634111021 a2_x4
+1.0566937206270386 a2_x3
<= 92.067064441382939

a2_act_1: 
+0.10000000000000001 a2_x1
-10 a2_z1
<= 0

a2_act_2: 
+0.10000000000000001 a2_x2
-10 a2_z2
<= 0

a3_local_1: 
+2.4039093192320662 a3_x2
+2.1205400935321292 a3_x1
+1.2500892663329879 a3_x6
<= 345.69644230103933

a3_local_2: 
+2.9878810027129661 a3_x3
+1.1884563004313804 a3_x5
+1.4725659693546218 a3_x6
<= 322.94531818630111

a3_local_3: 
+1.4874688841039212 a3_x4
+1.5630070320813967 a3_x5
+1.1528635236397975 a3_x3
<= 265.98394692450188

a3_local_4: 
+2.2133635211261615 a3_x1
+1.1391071383338554 a3_x5
+2.2540137394826685 a3_x6
<= 259.41312597123317

a3_local_5: 
+2.2201744845555105 a3_x3
+1.9213909201098502 a3_x5
+1.4911299125606046 a3_x1
<= 201.76438042198748

a3_local_6: 
+2.4507895485694067 a3_x3
+2.5664736680905693 a3_x4
+1.3008989973524463 a3_x6
<= 194.55283228249496

a3_local_7: 
+0.82643913357730203 a3_x2
+1.2100104646199741 a3_x3
+1.0096186846568385 a3_x1
<= 162.5908323300005

a3_local_8: 
+2.1873076653858194 a3_x1
+2.2020125125634804 a3_x3
+1.5494328783146119 a3_x5
<= 217.84195233638476

a3_act_1: 
+0.10000000000000001 a3_x1
-10 a3_z1
<= 0

a3_act_2: 
+0.10000000000000001 a3_x2
-10 a3_z2
<= 0

a4_local_1: 
+1.6538306071121125 a4_x4
+1.4661469933998517 a4_x2
+0.60465684677718057 a4_x6
<= 260.29736187238035

a4_local_2: 
+0.99326715993971038 a4_x5
+0.91980714783717077 a4_x6
+1.0871844194203037 a4_x2
<= 142.81105825812605

a4_local_3: 
+1.1659792719815509 a4_x1
+1.1900960889356822 a4_x3
+0.84026828530653586 a4_x6
<= 163.66644008108895

a4_local_4: 
+1.3446263946138821 a4_x5
+1.2671816117128203 a4_x1
+0.74370100423854635 a4_x6
<= 166.01148219123789

a4_local_5: 
+0.67700288248403773 a4_x5
+1.2404519646036938 a4_x1
+1.47709858535732 a4_x6
<= 224.36160686947508

a4_local_6: 
+1.0342083322037443 a4_x6
+0.85289201202615761 a4_x1
+1.1724813761877872 a4_x5
<= 145.10179746699859

a4_local_7: 
+1.2863153382853791 a4_x2
+1.590167425912703 a4_x6
+0.62886459859786981 a4_x1
<= 185.09675619603888

a4_local_8: 
+0.94029390323611639 a4_x2
+1.0634972709685759 a4_x3
+1.0046397869084445 a4_x6
<= 109.04736113004829

a4_act_1: 
+0.10000000000000001 a4_x1
-10 a4_z1
<= 0

a4_act_2: 
+0.10000000000000001 a4_x2
-10 a4_z2
<= 0

coupling_1: 
+0.097861046602457508 a1_x1
+0.48454745825214002 a2_x1
+2.0637381183166781 a3_x1
+10.218570460035195 a4_x1
+0.88316945168704142 short_1
-0.88316945168704142 surp_1
= 525.24847409422478

coupling_2: 
+0.075588476638976235 a1_x2
+0.40412349063321618 a2_x2
+1.9383788730852345 a3_x2
+13.229529744013425 a4_x2
+1.0968136816194713 short_2
-1.0968136816194713 surp_2
= 623.37737704480833

coupling_3: 
+0.086743562344820349 a1_x3
+0.62101238950049675 a2_x3
+2.2649517729797628 a3_x3
+11.52823302350474 a4_x3
+1.4443652068359021 short_3
-1.4443652068359021 surp_3
= 341.62569406136328

bounds
  0 <= a1_x1 <= 100
  0 <= a1_x2 <= 100
  0 <= a1_x3 <= 100
  0 <= a1_x4 <= 100
  0 <= a1_x5 <= 100
  0 <= a1_x6 <= 100
  0 <= a2_x1 <= 100
  0 <= a2_x2 <= 100
  0 <= a2_x3 <= 100
  0 <= a2_x4 <= 100
  0 <= a2_x5 <= 100
  0 <= a2_x6 <= 100
  0 <= a3_x1 <= 100
  0 <= a3_x2 <= 100
  0 <= a3_x3 <= 100
  0 <= a3_x4 <= 100
  0 <= a3_x5 <= 100
  0 <= a3_x6 <= 100
  0 <= a4_x1 <= 100
  0 <= a4_x2 <= 100
  0 <= a4_x3 <= 100
  0 <= a4_x4 <= 100
  0 <= a4_x5 <= 100
  0 <= a4_x6 <= 100
  0 <= short_1 <= +inf
  0 <= surp_1 <= +inf
  0 <= short_2 <= +inf
  0 <= surp_2 <= +inf
  0 <= short_3 <= +inf
  0 <= surp_3 <= +inf
 0 <= a1_z1 <= 1
 0 <= a1_z2 <= 1
 0 <= a2_z1 <= 1
 0 <= a2_z2 <= 1
 0 <= a3_z1 <= 1
 0 <= a3_z2 <= 1
 0 <= a4_z1 <= 1
 0 <= a4_z2 <= 1

binary
  a1_z1
  a1_z2
  a2_z1
  a2_z2
  a3_z1
  a3_z2
  a4_z1
  a4_z2
end
