min
obj: 
  +4.68205187695116365 a1_x1
  +5.71291625483064269 a1_x2
  +9.00563589084773142 a1_x3
  +9.01724711762336106 a1_x4
  +9.40638568868457803 a1_x5
  +5.77535620951187667 a1_x6
  +36.44079832510822570 a1_z1
  +20.35589591192510284 a1_z2
  +9.85237733259970305 a2_x1
  +8.66656609951932211 a2_x2
  +1.31834896047554095 a2_x3
  +8.26919439786070853 a2_x4
  +6.06353184831551140 a2_x5
  +3.26315819103542193 a2_x6
  +31.01579944565894920 a2_z1
  +42.14273897613190911 a2_z2
  +3.40700085697226296 a3_x1
  +9.41882509326676143 a3_x2
  +9.74900107951637906 a3_x3
  +7.04508203399397814 a3_x4
  +9.97637618984075480 a3_x5
  +5.84735535483849578 a3_x6
  +49.07354774414897491 a3_z1
  +13.99914181947612590 a3_z2
  +1.91431389506638183 a4_x1
  +6.10422017205319989 a4_x2
  +2.25748963263893865 a4_x3
  +5.65946667698913863 a4_x4
  +4.35204976180165826 a4_x5
  +6.78234121926408484 a4_x6
  +29.95675458969477134 a4_z1
  +32.97214499302464219 a4_z2
  +1000000.00000000000000000 short_1
  +1000000.00000000000000000 surp_1
  +1000000.00000000000000000 short_2
  +1000000.00000000000000000 surp_2
  +1000000.00000000000000000 short_3
  +1000000.00000000000000000 surp_3

s.t.

a1_local_1: 
+1.36239454542144522 a1_x4
+1.11471004010267349 a1_x2
+0.73400176429116470 a1_x6
<= 140.876444

a1_local_2: 
+1.49530127330705986 a1_x3
+0.66876155183655084 a1_x4
+1.34757996016478332 a1_x5
<= 147.516850

a1_local_3: 
+0.61170000277962022 a1_x1
+1.07543913429528559 a1_x3
+0.80435441831657661 a1_x6
<= 129.733566

a1_local_4: 
+0.81799788854876532 a1_x2
+0.71068903451150744 a1_x1
+1.40708516867345601 a1_x5
<= 140.440268

a1_local_5: 
+0.77395509511110949 a1_x2
+1.26015014184626351 a1_x3
+1.29206462534682198 a1_x5
<= 141.653909

a1_local_6: 
+1.19230963765816722 a1_x6
+0.83870830899607174 a1_x1
+1.05908132036306624 a1_x3
<= 161.215047

a1_local_7: 
+1.83398652531543593 a1_x4
+1.48477012074650783 a1_x2
+1.36795091226201104 a1_x5
<= 246.792290

a1_local_8: 
+1.11961694160423453 a1_x6
+1.09288009297621502 a1_x2
+0.89316261914289863 a1_x4
<= 194.266594

a1_act_1: 
+0.09999999999999999 a1_x1
-10.00000000000000000 a1_z1
<= 0.000000

a1_act_2: 
+0.07273068583572291 a1_x2
-7.27306858357229125 a1_z2
<= 0.000000

a2_local_1: 
+0.83322734713048552 a2_x2
+1.14513098429086124 a2_x6
+1.20015263954532392 a2_x5
<= 105.389257

a2_local_2: 
+1.29951513681978037 a2_x1
+1.52472296445749689 a2_x4
+1.92067713623539782 a2_x5
<= 329.486765

a2_local_3: 
+1.52431605120596969 a2_x2
+1.05855831870770722 a2_x5
+0.65603192934224197 a2_x1
<= 204.441632

a2_local_4: 
+0.72182797607453419 a2_x6
+1.38537163028541643 a2_x4
+0.76786776819486402 a2_x5
<= 107.216599

a2_local_5: 
+0.73462857105759261 a2_x5
+1.36123211020825252 a2_x3
+0.95584220545224485 a2_x6
<= 157.714823

a2_local_6: 
+1.19591252181658270 a2_x6
+0.83618156157526213 a2_x4
+1.09237610674333219 a2_x1
<= 164.448113

a2_local_7: 
+0.98123234262351178 a2_x3
+0.89617254994848883 a2_x6
+1.11585653907551507 a2_x1
<= 139.908988

a2_local_8: 
+1.30729867365965768 a2_x5
+1.31018213924545224 a2_x3
+1.41406109110820477 a2_x6
<= 280.419683

a2_act_1: 
+0.09999999999999999 a2_x1
-10.00000000000000000 a2_z1
<= 0.000000

a2_act_2: 
+0.09999999999999999 a2_x2
-10.00000000000000000 a2_z2
<= 0.000000

a3_local_1: 
+1.21619835899852791 a3_x5
+0.82223429476047372 a3_x2
+0.98414990542296288 a3_x3
<= 117.044752

a3_local_2: 
+1.23350544512000382 a3_x2
+0.81069767787098268 a3_x3
+1.10747539294270991 a3_x4
<= 159.772695

a3_local_3: 
+0.70141346562245221 a3_x6
+1.42569261785211743 a3_x4
+1.22383492363242885 a3_x1
<= 229.930499

a3_local_4: 
+1.40062176360039858 a3_x4
+1.57615600289032032 a3_x2
+0.63445496395421641 a3_x1
<= 177.789166

a3_local_5: 
+0.66190003401050868 a3_x3
+1.29458188561954946 a3_x5
+1.51080215835753107 a3_x2
<= 171.505359

a3_local_6: 
+1.10784933803536689 a3_x1
+1.00365164757835279 a3_x6
+0.90264981497698571 a3_x2
<= 136.787274

a3_local_7: 
+0.99801149312313930 a3_x1
+1.33146329326840407 a3_x4
+0.75105337492650959 a3_x6
<= 105.145413

a3_local_8: 
+1.44858762107791184 a3_x4
+0.69032758905939573 a3_x3
+1.11090800299880499 a3_x5
<= 206.575136

a3_act_1: 
+0.10000000000000001 a3_x1
-10.00000000000000000 a3_z1
<= 0.000000

a3_act_2: 
+0.09999999999999999 a3_x2
-10.00000000000000000 a3_z2
<= 0.000000

a4_local_1: 
+1.14537784401327092 a4_x3
+0.87307433544909174 a4_x5
+0.99980797331340965 a4_x2
<= 192.848527

a4_local_2: 
+1.45956568385984253 a4_x3
+0.68513531871719902 a4_x2
+1.02094672515616280 a4_x6
<= 108.763908

a4_local_3: 
+0.73632386902872871 a4_x5
+1.14133217823223032 a4_x6
+1.35809803547327834 a4_x3
<= 189.504627

a4_local_4: 
+0.98904665465250396 a4_x3
+0.93424173670005251 a4_x6
+1.07038677541020610 a4_x1
<= 203.488854

a4_local_5: 
+1.59904084269523095 a4_x3
+1.64760294830835630 a4_x6
+0.60694234677519243 a4_x5
<= 199.145638

a4_local_6: 
+0.84295729347153847 a4_x3
+0.87648915554291329 a4_x4
+1.18629971855598382 a4_x6
<= 170.331096

a4_local_7: 
+0.82683901637165713 a4_x6
+0.73967074842631331 a4_x3
+1.09230548621226542 a4_x1
<= 179.896956

a4_local_8: 
+0.66328798980764103 a4_x1
+1.50764074635213641 a4_x6
+1.15017900346028545 a4_x3
<= 175.869160

a4_act_1: 
+0.09999999999999999 a4_x1
-10.00000000000000000 a4_z1
<= 0.000000

a4_act_2: 
+0.10000000000000001 a4_x2
-10.00000000000000178 a4_z2
<= 0.000000

coupling_1: 
+0.00000598857471694 a1_x1
+0.00039740158266979 a2_x1
+0.03825590867916737 a3_x1
+7.97964789626193216 a4_x1
+0.00667620695561526 short_1
-0.00667620695561526 surp_1
= 404.626403

coupling_2: 
+0.00000087155648479 a1_x2
+0.00004136692533884 a2_x2
+0.00428045569089927 a3_x2
+0.99999027743483948 a4_x2
+0.00072112614188312 short_2
-0.00072112614188312 surp_2
= 23.899949

coupling_3: 
+0.00000062168717273 a1_x3
+0.00010411908003342 a2_x3
+0.00511230323806828 a3_x3
+0.99998622289180328 a4_x3
+0.00080804316712783 short_3
-0.00080804316712783 surp_3
= 60.443441

bounds
  0.000000 <= a1_x1 <= 100.000000
  0.000000 <= a1_x2 <= 100.000000
  0.000000 <= a1_x3 <= 100.000000
  0.000000 <= a1_x4 <= 100.000000
  0.000000 <= a1_x5 <= 100.000000
  0.000000 <= a1_x6 <= 100.000000
  0.000000 <= a2_x1 <= 100.000000
  0.000000 <= a2_x2 <= 100.000000
  0.000000 <= a2_x3 <= 100.000000
  0.000000 <= a2_x4 <= 100.000000
  0.000000 <= a2_x5 <= 100.000000
  0.000000 <= a2_x6 <= 100.000000
  0.000000 <= a3_x1 <= 100.000000
  0.000000 <= a3_x2 <= 100.000000
  0.000000 <= a3_x3 <= 100.000000
  0.000000 <= a3_x4 <= 100.000000
  0.000000 <= a3_x5 <= 100.000000
  0.000000 <= a3_x6 <= 100.000000
  0.000000 <= a4_x1 <= 100.000000
  0.000000 <= a4_x2 <= 100.000000
  0.000000 <= a4_x3 <= 100.000000
  0.000000 <= a4_x4 <= 100.000000
  0.000000 <= a4_x5 <= 100.000000
  0.000000 <= a4_x6 <= 100.000000
  0.000000 <= short_1 <= +inf
  0.000000 <= surp_1 <= +inf
  0.000000 <= short_2 <= +inf
  0.000000 <= surp_2 <= +inf
  0.000000 <= short_3 <= +inf
  0.000000 <= surp_3 <= +inf
 0 <= a1_z1 <= 1
 0 <= a1_z2 <= 1
 0 <= a2_z1 <= 1
 0 <= a2_z2 <= 1
 0 <= a3_z1 <= 1
 0 <= a3_z2 <= 1
 0 <= a4_z1 <= 1
 0 <= a4_z2 <= 1

binary
  a1_z1
  a1_z2
  a2_z1
  a2_z2
  a3_z1
  a3_z2
  a4_z1
  a4_z2
end
