min
obj: 
  +3.05711040055168581 a1_x1
  +8.05560131874530505 a1_x2
  +1.97423451738110156 a1_x3
  +4.43855917145081946 a1_x4
  +2.09177435273224699 a1_x5
  +8.36067334918018190 a1_x6
  +15.66642560195388789 a1_z1
  +12.32473257168471292 a1_z2
  +3.90447270498543908 a2_x1
  +3.19064241710492480 a2_x2
  +7.25662050376060552 a2_x3
  +4.24034203150857802 a2_x4
  +1.72165381936256479 a2_x5
  +9.86521199550605488 a2_x6
  +47.43293385770623871 a2_z1
  +10.01849972745584338 a2_z2
  +7.66342890098139051 a3_x1
  +6.60319515439368221 a3_x2
  +5.66277254283255616 a3_x3
  +4.15025934339557701 a3_x4
  +2.04336446202724131 a3_x5
  +3.95648142420414572 a3_x6
  +26.64691344464440093 a3_z1
  +25.19269856348255487 a3_z2
  +2.43191733608034033 a4_x1
  +1.25980278183489802 a4_x2
  +6.71866199762658312 a4_x3
  +9.23282830324045278 a4_x4
  +5.85378359150520033 a4_x5
  +9.83498899970064500 a4_x6
  +10.08347259986509314 a4_z1
  +40.29173016694412013 a4_z2
  +1000000.00000000000000000 short_1
  +1000000.00000000000000000 surp_1
  +1000000.00000000000000000 short_2
  +1000000.00000000000000000 surp_2
  +1000000.00000000000000000 short_3
  +1000000.00000000000000000 surp_3

s.t.

a1_local_1: 
+0.93641113939327525 a1_x5
+1.54129588028449582 a1_x1
+0.64880469272091867 a1_x6
<= 122.313907

a1_local_2: 
+0.70802215372229937 a1_x6
+1.41238518419611503 a1_x4
+1.23168056851863295 a1_x2
<= 143.463662

a1_local_3: 
+1.49955504952828744 a1_x4
+0.66686448111029228 a1_x5
+1.16192163241985247 a1_x1
<= 220.012639

a1_local_4: 
+1.67706542360140420 a1_x3
+0.59627965965248741 a1_x1
+0.73880309504739583 a1_x4
<= 132.806995

a1_local_5: 
+0.81615077982693962 a1_x4
+0.96543436792201842 a1_x5
+1.09067189567587786 a1_x1
<= 88.717876

a1_local_6: 
+0.77335712854699368 a1_x2
+1.00606067808461486 a1_x5
+1.29306366113005189 a1_x6
<= 116.535754

a1_local_7: 
+0.99601807677116272 a1_x1
+1.11355596878309249 a1_x3
+0.89802401319155256 a1_x5
<= 176.340803

a1_local_8: 
+1.24586162794425892 a1_x3
+1.09375631192611578 a1_x4
+0.80265735581731934 a1_x1
<= 111.547996

a1_act_1: 
+0.10000000000000001 a1_x1
-10.00000000000000000 a1_z1
<= 0.000000

a1_act_2: 
+0.09999999999999999 a1_x2
-9.99999999999999822 a1_z2
<= 0.000000

a2_local_1: 
+1.08873892644764414 a2_x2
+0.62430772309619087 a2_x6
+1.60177419404745081 a2_x4
<= 225.563044

a2_local_2: 
+0.94191347088911304 a2_x2
+1.02140817187054789 a2_x5
+1.06166864675590289 a2_x3
<= 183.541530

a2_local_3: 
+1.12328569765905950 a2_x3
+0.89024546656653047 a2_x5
+0.93450455585374570 a2_x2
<= 135.018893

a2_local_4: 
+0.68412117906789016 a2_x1
+1.46172934064472670 a2_x5
+0.99064824886922087 a2_x6
<= 201.312132

a2_local_5: 
+1.10098328476262974 a2_x2
+1.33229956104542979 a2_x6
+0.75058194811332024 a2_x1
<= 190.630765

a2_local_6: 
+1.02134654625279708 a2_x1
+1.30883250831049769 a2_x5
+0.76403970229227169 a2_x4
<= 202.697550

a2_local_7: 
+0.75688787408582603 a2_x6
+0.51285051404013871 a2_x3
+0.84703687477931122 a2_x4
<= 67.228628

a2_local_8: 
+1.15118168381627783 a2_x3
+1.29380254617019941 a2_x1
+0.77291546763461882 a2_x4
<= 171.624171

a2_act_1: 
+0.09999999999999999 a2_x1
-10.00000000000000000 a2_z1
<= 0.000000

a2_act_2: 
+0.05512928408057442 a2_x2
-5.51292840805744166 a2_z2
<= 0.000000

a3_local_1: 
+1.37492175588010568 a3_x5
+1.26736518439232348 a3_x6
+0.72731411494749876 a3_x2
<= 155.943411

a3_local_2: 
+1.00894563716203511 a3_x3
+0.76209475168910823 a3_x1
+1.31217279450304303 a3_x5
<= 198.954538

a3_local_3: 
+0.68780525395679815 a3_x6
+1.28674497716398695 a3_x2
+1.45389991461567258 a3_x3
<= 167.411039

a3_local_4: 
+0.85533087746584680 a3_x5
+1.16913819709487776 a3_x6
+1.05729165986042672 a3_x3
<= 127.706856

a3_local_5: 
+1.31840605555877599 a3_x5
+0.93516527465587163 a3_x6
+0.75849166179396310 a3_x4
<= 113.920439

a3_local_6: 
+1.07094240469991275 a3_x3
+0.87131420685475469 a3_x6
+1.14769160439810980 a3_x2
<= 99.327997

a3_local_7: 
+0.97317980787677394 a3_x4
+0.96966289223176561 a3_x6
+1.03128624185917950 a3_x3
<= 103.557891

a3_local_8: 
+1.45753776014904379 a3_x6
+0.88145789929059404 a3_x3
+0.68608857165919490 a3_x5
<= 158.190012

a3_act_1: 
+0.09999999999999999 a3_x1
-10.00000000000000000 a3_z1
<= 0.000000

a3_act_2: 
+0.09999999999999999 a3_x2
-10.00000000000000000 a3_z2
<= 0.000000

a4_local_1: 
+0.80122318811874016 a4_x4
+1.59520917183487887 a4_x1
+0.62687703760489089 a4_x6
<= 194.368938

a4_local_2: 
+1.38793494132996797 a4_x2
+1.52875323777758720 a4_x6
+0.65412780512160473 a4_x1
<= 189.792673

a4_local_3: 
+0.82956532274063610 a4_x4
+1.20545058066831734 a4_x3
+0.90459990011063196 a4_x5
<= 120.966830

a4_local_4: 
+0.72468781612325672 a4_x1
+1.37990452958011023 a4_x6
+0.83701808176015458 a4_x4
<= 202.859381

a4_local_5: 
+0.98245720732962505 a4_x3
+0.96256213363684118 a4_x6
+1.03889397375492809 a4_x4
<= 184.731062

a4_local_6: 
+1.29540597635479737 a4_x3
+0.77195876679058240 a4_x1
+0.97896409116652716 a4_x5
<= 130.882620

a4_local_7: 
+0.78345285809448650 a4_x5
+1.32376420039460552 a4_x4
+0.75542154690533736 a4_x3
<= 164.764433

a4_local_8: 
+0.87550150605245369 a4_x1
+1.14220248975800986 a4_x4
+0.89837829552338466 a4_x6
<= 115.464660

a4_act_1: 
+0.10000000000000001 a4_x1
-10.00000000000000000 a4_z1
<= 0.000000

a4_act_2: 
+0.09999999999999999 a4_x2
-9.99999999999999822 a4_z2
<= 0.000000

coupling_1: 
+0.00000139569788016 a1_x1
+0.00007739688501188 a2_x1
+0.00972790602206839 a3_x1
+0.99995140036980501 a4_x1
+0.00105827764388197 short_1
-0.00105827764388197 surp_1
= 31.913776

coupling_2: 
+0.00000121347051813 a1_x2
+0.00010205242449005 a2_x2
+0.00875377317253417 a3_x2
+0.99996073434675425 a4_x2
+0.00090972235003109 short_2
-0.00090972235003109 surp_2
= 44.262651

coupling_3: 
+0.00000037184398323 a1_x3
+0.00005680437719075 a2_x3
+0.00594424180216437 a3_x3
+0.99998181018435206 a4_x3
+0.00067535594272081 short_3
-0.00067535594272081 surp_3
= 69.156592

bounds
  0.000000 <= a1_x1 <= 100.000000
  0.000000 <= a1_x2 <= 100.000000
  0.000000 <= a1_x3 <= 100.000000
  0.000000 <= a1_x4 <= 100.000000
  0.000000 <= a1_x5 <= 100.000000
  0.000000 <= a1_x6 <= 100.000000
  0.000000 <= a2_x1 <= 100.000000
  0.000000 <= a2_x2 <= 100.000000
  0.000000 <= a2_x3 <= 100.000000
  0.000000 <= a2_x4 <= 100.000000
  0.000000 <= a2_x5 <= 100.000000
  0.000000 <= a2_x6 <= 100.000000
  0.000000 <= a3_x1 <= 100.000000
  0.000000 <= a3_x2 <= 100.000000
  0.000000 <= a3_x3 <= 100.000000
  0.000000 <= a3_x4 <= 100.000000
  0.000000 <= a3_x5 <= 100.000000
  0.000000 <= a3_x6 <= 100.000000
  0.000000 <= a4_x1 <= 100.000000
  0.000000 <= a4_x2 <= 100.000000
  0.000000 <= a4_x3 <= 100.000000
  0.000000 <= a4_x4 <= 100.000000
  0.000000 <= a4_x5 <= 100.000000
  0.000000 <= a4_x6 <= 100.000000
  0.000000 <= short_1 <= +inf
  0.000000 <= surp_1 <= +inf
  0.000000 <= short_2 <= +inf
  0.000000 <= surp_2 <= +inf
  0.000000 <= short_3 <= +inf
  0.000000 <= surp_3 <= +inf
 0 <= a1_z1 <= 1
 0 <= a1_z2 <= 1
 0 <= a2_z1 <= 1
 0 <= a2_z2 <= 1
 0 <= a3_z1 <= 1
 0 <= a3_z2 <= 1
 0 <= a4_z1 <= 1
 0 <= a4_z2 <= 1

binary
  a1_z1
  a1_z2
  a2_z1
  a2_z2
  a3_z1
  a3_z2
  a4_z1
  a4_z2
end
