min
obj: 
  +2.86702301288668870 a1_x1
  +4.61217347674817457 a1_x2
  +8.37266539443051627 a1_x3
  +3.88741117842564377 a1_x4
  +3.57352147071314707 a1_x5
  +7.90632682258909369 a1_x6
  +32.52167325628295202 a1_z1
  +46.95512094955829951 a1_z2
  +1.34162249297538905 a2_x1
  +5.04177078463243156 a2_x2
  +1.10989142532268992 a2_x3
  +7.53499127677043390 a2_x4
  +4.74514201764349153 a2_x5
  +4.92271964690250208 a2_x6
  +7.37175972020868908 a2_z1
  +32.23919956008293042 a2_z2
  +7.19883337190115391 a3_x1
  +9.69659328832065093 a3_x2
  +2.68145044350852224 a3_x3
  +4.74181989860472974 a3_x4
  +5.40392510460596665 a3_x5
  +9.85025370993833427 a3_x6
  +17.99205279831755888 a3_z1
  +28.73085531973273987 a3_z2
  +5.38171902546503311 a4_x1
  +3.72975403904797487 a4_x2
  +6.65779047476273789 a4_x3
  +5.43042814174023825 a4_x4
  +9.71759449267787367 a4_x5
  +8.04794548671517163 a4_x6
  +7.84716545501873153 a4_z1
  +24.37447779336789466 a4_z2
  +1000000.00000000000000000 short_1
  +1000000.00000000000000000 surp_1
  +1000000.00000000000000000 short_2
  +1000000.00000000000000000 surp_2
  +1000000.00000000000000000 short_3
  +1000000.00000000000000000 surp_3

s.t.

a1_local_1: 
+0.39177291867941216 a1_x3
+0.68779036958806883 a1_x1
+0.61111241821069417 a1_x2
<= 101.678160

a1_local_2: 
+0.69990565180277420 a1_x4
+0.52567338781966111 a1_x6
+0.48352824934302863 a1_x2
<= 64.041070

a1_local_3: 
+0.82400514536899061 a1_x3
+0.38774036231119741 a1_x4
+0.41312580631111628 a1_x1
<= 106.038534

a1_local_4: 
+0.35648094899768945 a1_x3
+0.32432080677983682 a1_x6
+0.87620622417977756 a1_x1
<= 85.315957

a1_local_5: 
+0.45020744170615412 a1_x5
+0.65088451194159835 a1_x1
+0.61127948726171633 a1_x3
<= 87.333350

a1_local_6: 
+0.67266321542671093 a1_x6
+0.54251822390678717 a1_x3
+0.50318801192081608 a1_x1
<= 78.514809

a1_local_7: 
+0.47534886136480364 a1_x4
+0.64944927450574919 a1_x3
+0.59351419514881065 a1_x6
<= 59.497141

a1_local_8: 
+0.53750857770776106 a1_x6
+0.66337929965646747 a1_x3
+0.52058854547317357 a1_x2
<= 63.282210

a1_act_1: 
+0.00999950003749688 a1_x1
-0.99995000374968757 a1_z1
<= 0.000000

a1_act_2: 
+0.00999950003749688 a1_x2
-0.99995000374968768 a1_z2
<= 0.000000

a2_local_1: 
+0.44305386190229851 a2_x3
+0.68979331370255892 a2_x1
+0.57261545545392178 a2_x4
<= 77.099358

a2_local_2: 
+0.72215275482148866 a2_x3
+0.45193598290534320 a2_x4
+0.52368813816919346 a2_x1
<= 110.464929

a2_local_3: 
+0.39597494269970190 a2_x2
+0.55180053242489546 a2_x5
+0.73397548812584312 a2_x6
<= 102.824326

a2_local_4: 
+0.62853123172490022 a2_x3
+0.55342687175379035 a2_x4
+0.43282394898127574 a2_x2
<= 97.174015

a2_local_5: 
+0.38161231068386586 a2_x3
+0.58430848675053237 a2_x5
+0.71620921290208450 a2_x6
<= 105.250265

a2_local_6: 
+0.35439116549475280 a2_x2
+0.82522019450083384 a2_x5
+0.43979373848120729 a2_x1
<= 108.759828

a2_local_7: 
+0.46293115892475639 a2_x6
+0.73408645613147783 a2_x2
+0.49680158717631906 a2_x5
<= 82.501523

a2_local_8: 
+0.52248322477444353 a2_x2
+0.70087229114775906 a2_x4
+0.48558141575907676 a2_x6
<= 111.891040

a2_act_1: 
+0.00999950003749688 a2_x1
-0.99995000374968757 a2_z1
<= 0.000000

a2_act_2: 
+0.00999950003749688 a2_x2
-0.99995000374968745 a2_z2
<= 0.000000

a3_local_1: 
+0.41998925080838451 a3_x6
+0.57591080814200102 a3_x2
+0.42273053004043171 a3_x1
<= 72.663037

a3_local_2: 
+0.68894482039042559 a3_x3
+0.47270409627566018 a3_x1
+0.54945961800792564 a3_x4
<= 98.645513

a3_local_3: 
+0.57222014825871048 a3_x4
+0.46253952721860947 a3_x1
+0.67721583537832641 a3_x6
<= 99.771505

a3_local_4: 
+0.63053091360848323 a3_x1
+0.63476985121754992 a3_x3
+0.44665199313257425 a3_x5
<= 62.796875

a3_local_5: 
+0.27427507782991190 a3_x5
+0.58225944812390884 a3_x4
+0.76534117669954027 a3_x6
<= 69.977790

a3_local_6: 
+0.38877618047460100 a3_x2
+0.64256106274845282 a3_x3
+0.66027900325177646 a3_x6
<= 90.443703

a3_local_7: 
+0.60103170143918061 a3_x4
+0.34838572651871608 a3_x1
+0.71929707313678815 a3_x2
<= 89.617493

a3_local_8: 
+0.75283736148377711 a3_x2
+0.35442509053749000 a3_x1
+0.55463389938917085 a3_x5
<= 54.388548

a3_act_1: 
+0.00999950003749688 a3_x1
-0.99995000374968757 a3_z1
<= 0.000000

a3_act_2: 
+0.00999950003749687 a3_x2
-0.99995000374968745 a3_z2
<= 0.000000

a4_local_1: 
+0.40835286714628016 a4_x1
+0.72992350926589189 a4_x4
+0.54814195835967339 a4_x3
<= 67.581942

a4_local_2: 
+0.69402579243393325 a4_x1
+0.50114580983945267 a4_x6
+0.51689561491350489 a4_x3
<= 80.323080

a4_local_3: 
+0.55341762310459852 a4_x2
+0.34902494474436030 a4_x5
+0.75624765942345407 a4_x1
<= 94.531553

a4_local_4: 
+0.47799834974959438 a4_x5
+0.49395149325235715 a4_x4
+0.72631226063617493 a4_x3
<= 73.408486

a4_local_5: 
+0.33950806613546908 a4_x1
+0.61535113133073871 a4_x4
+0.71139107261683687 a4_x2
<= 67.470942

a4_local_6: 
+0.59398797369782308 a4_x4
+0.70551761356461107 a4_x2
+0.38655295116251542 a4_x6
<= 85.923719

a4_local_7: 
+0.51319099488252184 a4_x2
+0.54773087930478404 a4_x1
+0.66077672978661683 a4_x3
<= 82.883960

a4_local_8: 
+0.61016323740756162 a4_x1
+0.38072125722768341 a4_x2
+0.69480367587635528 a4_x5
<= 109.849436

a4_act_1: 
+0.00999950003749688 a4_x1
-0.99995000374968757 a4_z1
<= 0.000000

a4_act_2: 
+0.00999950003749688 a4_x2
-0.99995000374968757 a4_z2
<= 0.000000

coupling_1: 
+0.00000120827316080 a1_x1
+0.00010056821644712 a2_x1
+0.00987848635027568 a3_x1
+0.99995053080961416 a4_x1
+0.00081894003817275 short_1
-0.00081894003817275 surp_1
= 25.281738

coupling_2: 
+0.00000088071006316 a1_x2
+0.00010475926679340 a2_x2
+0.01476506082584144 a3_x2
+0.99988926084539620 a4_x2
+0.00131302124443811 short_2
-0.00131302124443811 surp_2
= 23.026067

coupling_3: 
+0.00000225988330371 a1_x3
+0.00021907399341258 a2_x3
+0.01643950121219015 a3_x3
+0.99986247307560439 a4_x3
+0.00153781281514506 short_3
-0.00153781281514506 surp_3
= 20.929893

bounds
  0.000000 <= a1_x1 <= 100.000000
  0.000000 <= a1_x2 <= 100.000000
  0.000000 <= a1_x3 <= 100.000000
  0.000000 <= a1_x4 <= 100.000000
  0.000000 <= a1_x5 <= 100.000000
  0.000000 <= a1_x6 <= 100.000000
  0.000000 <= a2_x1 <= 100.000000
  0.000000 <= a2_x2 <= 100.000000
  0.000000 <= a2_x3 <= 100.000000
  0.000000 <= a2_x4 <= 100.000000
  0.000000 <= a2_x5 <= 100.000000
  0.000000 <= a2_x6 <= 100.000000
  0.000000 <= a3_x1 <= 100.000000
  0.000000 <= a3_x2 <= 100.000000
  0.000000 <= a3_x3 <= 100.000000
  0.000000 <= a3_x4 <= 100.000000
  0.000000 <= a3_x5 <= 100.000000
  0.000000 <= a3_x6 <= 100.000000
  0.000000 <= a4_x1 <= 100.000000
  0.000000 <= a4_x2 <= 100.000000
  0.000000 <= a4_x3 <= 100.000000
  0.000000 <= a4_x4 <= 100.000000
  0.000000 <= a4_x5 <= 100.000000
  0.000000 <= a4_x6 <= 100.000000
  0.000000 <= short_1 <= +inf
  0.000000 <= surp_1 <= +inf
  0.000000 <= short_2 <= +inf
  0.000000 <= surp_2 <= +inf
  0.000000 <= short_3 <= +inf
  0.000000 <= surp_3 <= +inf
 0 <= a1_z1 <= 1
 0 <= a1_z2 <= 1
 0 <= a2_z1 <= 1
 0 <= a2_z2 <= 1
 0 <= a3_z1 <= 1
 0 <= a3_z2 <= 1
 0 <= a4_z1 <= 1
 0 <= a4_z2 <= 1

binary
  a1_z1
  a1_z2
  a2_z1
  a2_z2
  a3_z1
  a3_z2
  a4_z1
  a4_z2
end
