min
obj: 
  +4.00927114806491947 a1_x1
  +1.96797315584533505 a1_x2
  +5.12450639908132288 a1_x3
  +5.32896604620880687 a1_x4
  +7.73264361972508052 a1_x5
  +5.13954220661915251 a1_x6
  +7.46013036925632012 a1_z1
  +49.87266735161764331 a1_z2
  +9.36843435344059650 a2_x1
  +1.05737072364449292 a2_x2
  +6.60719118774421155 a2_x3
  +2.15746424177711438 a2_x4
  +4.02884955809363987 a2_x5
  +6.58160214482754569 a2_x6
  +37.18631761224219190 a2_z1
  +14.56992703067312611 a2_z2
  +7.57718464422320714 a3_x1
  +6.32546719961394732 a3_x2
  +1.31829467185166682 a3_x3
  +2.45084274434978422 a3_x4
  +7.58215052014305346 a3_x5
  +8.03960198396170256 a3_x6
  +34.57098216458418705 a3_z1
  +17.01923611963366056 a3_z2
  +9.65762920804675851 a4_x1
  +1.01038921150930694 a4_x2
  +8.26245311728527554 a4_x3
  +1.87174926104206407 a4_x4
  +5.72310336143512366 a4_x5
  +2.03823444273170651 a4_x6
  +33.41705432517787955 a4_z1
  +11.21145989114648600 a4_z2
  +1000000.00000000000000000 short_1
  +1000000.00000000000000000 surp_1
  +1000000.00000000000000000 short_2
  +1000000.00000000000000000 surp_2
  +1000000.00000000000000000 short_3
  +1000000.00000000000000000 surp_3

s.t.

a1_local_1: 
+493.17660671276598805 a1_x3
+209.52571324793868257 a1_x6
+333.37064632404081976 a1_x4
<= 39164.117715

a1_local_2: 
+0.00001958590470159 a1_x4
+0.00001085072087584 a1_x6
+0.00000758313172447 a1_x2
<= 0.002155

a1_local_3: 
+0.03507367158383506 a1_x6
+0.05931480732205405 a1_x4
+0.03100049867464021 a1_x1
<= 7.960401

a1_local_4: 
+238.27412134538408850 a1_x2
+281.29093939916850786 a1_x5
+276.29126140992639193 a1_x3
<= 53717.515668

a1_local_5: 
+6.45175962723718843 a1_x1
+2.92599347308694835 a1_x4
+4.10700302587721566 a1_x2
<= 922.964248

a1_local_6: 
+0.00000517881172474 a1_x1
+0.00000530880870377 a1_x3
+0.00000270608485918 a1_x6
<= 0.000824

a1_local_7: 
+541.30013310029914919 a1_x2
+873.04570203943205797 a1_x5
+689.56878285655716354 a1_x4
<= 117038.582057

a1_local_8: 
+0.00008059037383651 a1_x4
+0.00012563975727735 a1_x5
+0.00005098127099652 a1_x6
<= 0.013327

a1_act_1: 
+1013.02026254815075390 a1_x1
-101302.02625481507857330 a1_z1
<= 0.000000

a1_act_2: 
+0.00039829861158941 a1_x2
-0.03982986115894099 a1_z2
<= 0.000000

a2_local_1: 
+0.00009352116722181 a2_x4
+0.00017643620724758 a2_x2
+0.00014152252439249 a2_x6
<= 0.023745

a2_local_2: 
+12.89225718499196738 a2_x1
+17.78919596280394799 a2_x4
+11.36599723443175947 a2_x5
<= 2700.835649

a2_local_3: 
+0.01644019967702686 a2_x4
+0.01215218418881586 a2_x5
+0.02375048476621530 a2_x3
<= 3.343979

a2_local_4: 
+0.00003554335418715 a2_x2
+0.00002405739483781 a2_x1
+0.00003411505447646 a2_x5
<= 0.004284

a2_local_5: 
+0.01081106158082040 a2_x2
+0.00681676221593913 a2_x3
+0.01266129304843561 a2_x6
<= 1.707731

a2_local_6: 
+2218.74855852339942430 a2_x6
+1592.39418493639686858 a2_x5
+2542.22846049764802956 a2_x2
<= 353985.104225

a2_local_7: 
+1.62897570196081154 a2_x2
+1.11167964507044847 a2_x5
+1.17515786559913549 a2_x6
<= 261.090068

a2_local_8: 
+28082.59147360315910191 a2_x2
+23081.60535891392646590 a2_x4
+20043.73541054005181650 a2_x5
<= 4728468.016500

a2_act_1: 
+5155.59933906681726512 a2_x1
-515559.93390668171923608 a2_z1
<= 0.000000

a2_act_2: 
+675888.71614944480825216 a2_x2
-67588871.61494448781013489 a2_z2
<= 0.000000

a3_local_1: 
+1062.57718769678399440 a3_x1
+883.81026991574026397 a3_x2
+1644.29497488322249410 a3_x6
<= 162168.780530

a3_local_2: 
+0.00469030710189555 a3_x2
+0.00387558444489647 a3_x1
+0.00800082073935413 a3_x6
<= 0.713233

a3_local_3: 
+8.79339210519471237 a3_x1
+6.79271346702789725 a3_x5
+13.70693895514601834 a3_x2
<= 1517.295502

a3_local_4: 
+0.13315017808607463 a3_x4
+0.20259505601267158 a3_x6
+0.19075653416987148 a3_x5
<= 33.808148

a3_local_5: 
+0.01369509468834082 a3_x4
+0.02011419070003171 a3_x1
+0.01335692048599950 a3_x5
<= 1.534944

a3_local_6: 
+0.96874760461079568 a3_x5
+0.54943429788926734 a3_x6
+0.49858472139441667 a3_x1
<= 118.858789

a3_local_7: 
+0.46482309968614399 a3_x6
+0.57382031589999272 a3_x1
+0.66246397384378120 a3_x4
<= 106.712915

a3_local_8: 
+0.01615691946983955 a3_x3
+0.02073123629420447 a3_x1
+0.01326158129399285 a3_x6
<= 2.042822

a3_act_1: 
+686663.12520023540128022 a3_x1
-68666312.52002353966236115 a3_z1
<= 0.000000

a3_act_2: 
+0.00012862479913969 a3_x2
-0.01286247991396860 a3_z2
<= 0.000000

a4_local_1: 
+267672.65829797065816820 a4_x3
+260031.93257249830639921 a4_x2
+362943.93384348059771582 a4_x5
<= 53072298.420427

a4_local_2: 
+892.36958228775495172 a4_x2
+1759.41906624588432351 a4_x5
+2062.69428586850699503 a4_x3
<= 326176.238587

a4_local_3: 
+124.88611455760135982 a4_x4
+58.35394767673209770 a4_x5
+59.58650307658132306 a4_x2
<= 8231.200638

a4_local_4: 
+100473360.47413463890552521 a4_x5
+102359251.11191181838512421 a4_x3
+84827696.84845821559429169 a4_x1
<= 9518754987.472874

a4_local_5: 
+288861474.30167156457901001 a4_x5
+440743781.69734907150268555 a4_x6
+222704963.63635343313217163 a4_x1
<= 51121313296.162781

a4_local_6: 
+14.03622420264048287 a4_x3
+6.34427204630635977 a4_x2
+8.13255155954656317 a4_x1
<= 1398.468144

a4_local_7: 
+0.00105453157348022 a4_x1
+0.00093125305151857 a4_x2
+0.00206086374143337 a4_x3
<= 0.247207

a4_local_8: 
+5.43747284179348966 a4_x3
+3.88608568097883333 a4_x1
+5.98592476398621365 a4_x4
<= 879.933648

a4_act_1: 
+0.00184428378640038 a4_x1
-0.18442837864003761 a4_z1
<= 0.000000

a4_act_2: 
+71551.72279249201528728 a4_x2
-7155172.27924920152872801 a4_z2
<= 0.000000

coupling_1: 
+0.00074891348782630 a1_x1
+0.09612370554317033 a2_x1
+9.72313461475522978 a3_x1
+393.39688329663795230 a4_x1
+0.66348925535804648 short_1
-0.66348925535804648 surp_1
= 22801.134905

coupling_2: 
+0.00000001444222476 a1_x2
+0.00000132211562275 a2_x2
+0.00010819034001364 a3_x2
+0.01678366949017466 a4_x2
+0.00001787045756171 short_2
-0.00001787045756171 surp_2
= 0.927846

coupling_3: 
+0.00000009491407580 a1_x3
+0.00000632154693914 a2_x3
+0.00090488166367519 a3_x3
+0.10218209459118426 a4_x3
+0.00011917326850739 short_3
-0.00011917326850739 surp_3
= 2.249613

bounds
  0.000000 <= a1_x1 <= 100.000000
  0.000000 <= a1_x2 <= 100.000000
  0.000000 <= a1_x3 <= 100.000000
  0.000000 <= a1_x4 <= 100.000000
  0.000000 <= a1_x5 <= 100.000000
  0.000000 <= a1_x6 <= 100.000000
  0.000000 <= a2_x1 <= 100.000000
  0.000000 <= a2_x2 <= 100.000000
  0.000000 <= a2_x3 <= 100.000000
  0.000000 <= a2_x4 <= 100.000000
  0.000000 <= a2_x5 <= 100.000000
  0.000000 <= a2_x6 <= 100.000000
  0.000000 <= a3_x1 <= 100.000000
  0.000000 <= a3_x2 <= 100.000000
  0.000000 <= a3_x3 <= 100.000000
  0.000000 <= a3_x4 <= 100.000000
  0.000000 <= a3_x5 <= 100.000000
  0.000000 <= a3_x6 <= 100.000000
  0.000000 <= a4_x1 <= 100.000000
  0.000000 <= a4_x2 <= 100.000000
  0.000000 <= a4_x3 <= 100.000000
  0.000000 <= a4_x4 <= 100.000000
  0.000000 <= a4_x5 <= 100.000000
  0.000000 <= a4_x6 <= 100.000000
  0.000000 <= short_1 <= +inf
  0.000000 <= surp_1 <= +inf
  0.000000 <= short_2 <= +inf
  0.000000 <= surp_2 <= +inf
  0.000000 <= short_3 <= +inf
  0.000000 <= surp_3 <= +inf
 0 <= a1_z1 <= 1
 0 <= a1_z2 <= 1
 0 <= a2_z1 <= 1
 0 <= a2_z2 <= 1
 0 <= a3_z1 <= 1
 0 <= a3_z2 <= 1
 0 <= a4_z1 <= 1
 0 <= a4_z2 <= 1

binary
  a1_z1
  a1_z2
  a2_z1
  a2_z2
  a3_z1
  a3_z2
  a4_z1
  a4_z2
end
