min
obj: 
  +2.86702301288668870 a1_x1
  +4.61217347674817457 a1_x2
  +8.37266539443051627 a1_x3
  +3.88741117842564377 a1_x4
  +3.57352147071314707 a1_x5
  +7.90632682258909369 a1_x6
  +32.52167325628295202 a1_z1
  +46.95512094955829951 a1_z2
  +1.34162249297538905 a2_x1
  +5.04177078463243156 a2_x2
  +1.10989142532268992 a2_x3
  +7.53499127677043390 a2_x4
  +4.74514201764349153 a2_x5
  +4.92271964690250208 a2_x6
  +7.37175972020868908 a2_z1
  +32.23919956008293042 a2_z2
  +7.19883337190115391 a3_x1
  +9.69659328832065093 a3_x2
  +2.68145044350852224 a3_x3
  +4.74181989860472974 a3_x4
  +5.40392510460596665 a3_x5
  +9.85025370993833427 a3_x6
  +17.99205279831755888 a3_z1
  +28.73085531973273987 a3_z2
  +5.38171902546503311 a4_x1
  +3.72975403904797487 a4_x2
  +6.65779047476273789 a4_x3
  +5.43042814174023825 a4_x4
  +9.71759449267787367 a4_x5
  +8.04794548671517163 a4_x6
  +7.84716545501873153 a4_z1
  +24.37447779336789466 a4_z2
  +1000000.00000000000000000 short_1
  +1000000.00000000000000000 surp_1
  +1000000.00000000000000000 short_2
  +1000000.00000000000000000 surp_2
  +1000000.00000000000000000 short_3
  +1000000.00000000000000000 surp_3

s.t.

a1_local_1: 
+1.33868724158722885 a1_x3
+2.35017825059917218 a1_x1
+2.08816985153488144 a1_x2
<= 347.434061

a1_local_2: 
+175.52206151784406529 a1_x4
+131.82816352106837599 a1_x6
+121.25902242423657640 a1_x2
<= 16060.194077

a1_local_3: 
+2.35632464476617010 a1_x3
+1.10878211940692206 a1_x4
+1.18137432062255221 a1_x1
<= 303.227730

a1_local_4: 
+8.60825616076206934 a1_x3
+7.83165717796591210 a1_x6
+21.15851533890112179 a1_x1
<= 2060.198761

a1_local_5: 
+0.00000025903384381 a1_x5
+0.00000037449651292 a1_x1
+0.00000035170914686 a1_x3
<= 0.000050

a1_local_6: 
+0.00000159507119281 a1_x6
+0.00000128646129398 a1_x3
+0.00000119319844459 a1_x1
<= 0.000186

a1_local_7: 
+6.06621294712372183 a1_x4
+8.28801311566282806 a1_x3
+7.57419189892691769 a1_x6
<= 759.278825

a1_local_8: 
+0.00735197105771996 a1_x6
+0.00907361410335771 a1_x3
+0.00712054110023934 a1_x2
<= 0.865566

a1_act_1: 
+0.06350623144148189 a1_x1
-6.35062314414818907 a1_z1
<= 0.000000

a1_act_2: 
+0.00000573905416221 a1_x2
-0.00057390541622053 a1_z2
<= 0.000000

a2_local_1: 
+103.02534243229001731 a2_x3
+160.40079652297802681 a2_x1
+133.15289280374503278 a2_x4
<= 17928.266580

a2_local_2: 
+266.33368954383388427 a2_x3
+166.67633954335980206 a2_x4
+193.13890735405399823 a2_x1
<= 40740.040130

a2_local_3: 
+0.00013585040222315 a2_x2
+0.00018931077750978 a2_x5
+0.00025181104795171 a2_x6
<= 0.035277

a2_local_4: 
+0.62853123172490022 a2_x3
+0.55342687175379035 a2_x4
+0.43282394898127574 a2_x2
<= 97.174015

a2_local_5: 
+3.01650865920789313 a2_x3
+4.61874934478145249 a2_x5
+5.66137735088258776 a2_x6
<= 831.965651

a2_local_6: 
+0.00682313125132970 a2_x2
+0.01588805322070136 a2_x5
+0.00846739618066094 a2_x1
<= 2.093965

a2_local_7: 
+2.27601276875193426 a2_x6
+3.60915465574583649 a2_x2
+2.44253758717786962 a2_x5
<= 405.620825

a2_local_8: 
+0.00000035741442081 a2_x2
+0.00000047944479769 a2_x4
+0.00000033217104825 a2_x6
<= 0.000077

a2_act_1: 
+0.00015924100584423 a2_x1
-0.01592410058442332 a2_z1
<= 0.000000

a2_act_2: 
+141.53641529112923081 a2_x2
-14153.64152911292330828 a2_z2
<= 0.000000

a3_local_1: 
+0.41998925080838451 a3_x6
+0.57591080814200102 a3_x2
+0.42273053004043171 a3_x1
<= 72.663037

a3_local_2: 
+0.00025125068674650 a3_x3
+0.00017239004533025 a3_x1
+0.00020038194972672 a3_x4
<= 0.035975

a3_local_3: 
+125.99275752313222654 a3_x4
+101.84302435881832594 a3_x1
+149.11095108638212992 a3_x6
<= 21967.921006

a3_local_4: 
+171.95000245364425950 a3_x1
+173.10598912542931771 a3_x3
+121.80498950565323923 a3_x5
<= 17125.128226

a3_local_5: 
+32.45466433375644044 a3_x5
+68.89811168238362882 a3_x4
+90.56196861600844272 a3_x6
<= 8280.393927

a3_local_6: 
+170.15877574108182557 a3_x2
+281.23483193515318135 a3_x3
+288.98958445373204995 a3_x6
<= 39585.217575

a3_local_7: 
+441519.69375480461167172 a3_x4
+255925.20147068123333156 a3_x1
+528397.79114749212749302 a3_x2
<= 65833279.826891

a3_local_8: 
+418.94108933892078994 a3_x2
+197.23148865270729857 a3_x1
+308.64425954688721276 a3_x5
<= 30266.294975

a3_act_1: 
+5.49435142381746555 a3_x1
-549.43514238174657294 a3_z1
<= 0.000000

a3_act_2: 
+0.00002999008485637 a3_x2
-0.00299900848563669 a3_z2
<= 0.000000

a4_local_1: 
+185104.90455986812594347 a4_x1
+330871.73469083779491484 a4_x4
+248470.80319649181910791 a4_x3
<= 30634654.364004

a4_local_2: 
+4486.35471401574523043 a4_x1
+3239.53070749383141447 a4_x6
+3341.34135056950572107 a4_x3
<= 519228.295715

a4_local_3: 
+2.50104442417006867 a4_x2
+1.57733844298659309 a4_x5
+3.41768840190188472 a4_x1
<= 427.213740

a4_local_4: 
+0.01277903816514859 a4_x5
+0.01320553718921989 a4_x4
+0.01941758188777701 a4_x3
<= 1.962538

a4_local_5: 
+38347527.79771994799375534 a4_x1
+69504076.53834141790866852 a4_x4
+80351813.85451613366603851 a4_x2
<= 7620861103.583157

a4_local_6: 
+9227.26422234287929314 a4_x4
+10959.81353519670301466 a4_x2
+6004.87951649584829283 a4_x6
<= 1334775.944137

a4_local_7: 
+13443.25278428249293938 a4_x2
+14348.03950513028394198 a4_x1
+17309.32284680187149206 a4_x3
<= 2171180.010253

a4_local_8: 
+634.02651545482160600 a4_x1
+395.61113695614375274 a4_x2
+721.97721287301453685 a4_x5
<= 114145.609811

a4_act_1: 
+0.12433034612835597 a4_x1
-12.43303461283559663 a4_z1
<= 0.000000

a4_act_2: 
+0.00043403942169190 a4_x2
-0.04340394216919048 a4_z2
<= 0.000000

coupling_1: 
+224.63815101029734933 a1_x1
+18697.31028209220676217 a2_x1
+1836575.51991718099452555 a3_x1
+185907496.44168680906295776 a4_x1
+152254.62414554430870339 short_1
-152254.62414554430870339 surp_1
= 4700297184.757690

coupling_2: 
+0.00136824637754553 a1_x2
+0.16275104974956656 a2_x2
+22.93858312087183648 a3_x2
+1553.39982625924130843 a4_x2
+2.03987286678161617 short_2
-2.03987286678161617 surp_2
= 35772.649504

coupling_3: 
+0.02801905658271808 a1_x3
+2.71617857752344571 a2_x3
+203.82438062206492191 a3_x3
+12396.74772679616762616 a4_x3
+19.06649967744712626 short_3
-19.06649967744712626 surp_3
= 259498.288245

bounds
  0.000000 <= a1_x1 <= 100.000000
  0.000000 <= a1_x2 <= 100.000000
  0.000000 <= a1_x3 <= 100.000000
  0.000000 <= a1_x4 <= 100.000000
  0.000000 <= a1_x5 <= 100.000000
  0.000000 <= a1_x6 <= 100.000000
  0.000000 <= a2_x1 <= 100.000000
  0.000000 <= a2_x2 <= 100.000000
  0.000000 <= a2_x3 <= 100.000000
  0.000000 <= a2_x4 <= 100.000000
  0.000000 <= a2_x5 <= 100.000000
  0.000000 <= a2_x6 <= 100.000000
  0.000000 <= a3_x1 <= 100.000000
  0.000000 <= a3_x2 <= 100.000000
  0.000000 <= a3_x3 <= 100.000000
  0.000000 <= a3_x4 <= 100.000000
  0.000000 <= a3_x5 <= 100.000000
  0.000000 <= a3_x6 <= 100.000000
  0.000000 <= a4_x1 <= 100.000000
  0.000000 <= a4_x2 <= 100.000000
  0.000000 <= a4_x3 <= 100.000000
  0.000000 <= a4_x4 <= 100.000000
  0.000000 <= a4_x5 <= 100.000000
  0.000000 <= a4_x6 <= 100.000000
  0.000000 <= short_1 <= +inf
  0.000000 <= surp_1 <= +inf
  0.000000 <= short_2 <= +inf
  0.000000 <= surp_2 <= +inf
  0.000000 <= short_3 <= +inf
  0.000000 <= surp_3 <= +inf
 0 <= a1_z1 <= 1
 0 <= a1_z2 <= 1
 0 <= a2_z1 <= 1
 0 <= a2_z2 <= 1
 0 <= a3_z1 <= 1
 0 <= a3_z2 <= 1
 0 <= a4_z1 <= 1
 0 <= a4_z2 <= 1

binary
  a1_z1
  a1_z2
  a2_z1
  a2_z2
  a3_z1
  a3_z2
  a4_z1
  a4_z2
end
