min
obj: 
  +1.58690782181034451 a1_x1
  +1.85914319529187777 a1_x2
  +3.32311090405199927 a1_x3
  +9.20870591814637862 a1_x4
  +9.62032466035919853 a1_x5
  +2.65221673698665317 a1_x6
  +45.97121590191820673 a1_z1
  +15.23159126469524693 a1_z2
  +7.38516429138446995 a2_x1
  +8.18461543331298103 a2_x2
  +6.32869026358351139 a2_x3
  +1.72084034317845602 a2_x4
  +2.51957804121249751 a2_x5
  +8.19694216322757185 a2_x6
  +32.90972281828447876 a2_z1
  +29.00608133785045339 a2_z2
  +9.62518175189459946 a3_x1
  +3.90094189534807345 a3_x2
  +1.32195101356612454 a3_x3
  +4.74857750195312356 a3_x4
  +3.55589835486331518 a3_x5
  +8.12436598238075014 a3_x6
  +20.82211554905935103 a3_z1
  +25.22287462451485496 a3_z2
  +3.97402812736189226 a4_x1
  +5.87257606585061964 a4_x2
  +8.54493066197249362 a4_x3
  +7.89453690964795740 a4_x4
  +2.70429770668290548 a4_x5
  +9.26226871331643586 a4_x6
  +13.31023289155729650 a4_z1
  +27.54299042523267715 a4_z2
  +1000000.00000000000000000 short_1
  +1000000.00000000000000000 surp_1
  +1000000.00000000000000000 short_2
  +1000000.00000000000000000 surp_2
  +1000000.00000000000000000 short_3
  +1000000.00000000000000000 surp_3

s.t.

a1_local_1: 
+0.91555290746555562 a1_x4
+1.18663059751256661 a1_x1
+0.84272224405490281 a1_x3
<= 130.560998

a1_local_2: 
+1.21290375604193201 a1_x2
+0.82446772468023277 a1_x4
+0.94047146436761953 a1_x3
<= 200.526359

a1_local_3: 
+0.70624019261684512 a1_x6
+1.41594886619902049 a1_x4
+0.84574465110272823 a1_x1
<= 128.173801

a1_local_4: 
+1.10530494432445603 a1_x6
+0.98232533685459622 a1_x2
+0.90472769993007085 a1_x1
<= 117.225841

a1_local_5: 
+0.76824010820558197 a1_x1
+1.11927679050852036 a1_x2
+1.30167637606913233 a1_x5
<= 166.453172

a1_local_6: 
+0.79498982788772210 a1_x1
+1.25787772990377400 a1_x2
+1.11990981059204464 a1_x6
<= 115.062650

a1_local_7: 
+0.68561719186186942 a1_x5
+1.45853985557799271 a1_x2
+1.25642209812668848 a1_x4
<= 225.264802

a1_local_8: 
+1.19132573639054473 a1_x1
+0.83940098786901096 a1_x2
+1.17224285432639630 a1_x3
<= 200.691971

a1_act_1: 
+0.09999999999999999 a1_x1
-10.00000000000000000 a1_z1
<= 0.000000

a1_act_2: 
+0.10000000000000001 a1_x2
-10.00000000000000000 a1_z2
<= 0.000000

a2_local_1: 
+1.16578758110322389 a2_x1
+2.96712227955099284 a2_x5
+1.77762339859642582 a2_x3
<= 316.390724

a2_local_2: 
+1.25515645567811251 a2_x4
+2.96616651186724489 a2_x2
+2.42077322436281506 a2_x5
<= 303.959240

a2_local_3: 
+1.10927052851462604 a2_x2
+0.98690089922469182 a2_x1
+0.90149334566659300 a2_x5
<= 99.631991

a2_local_4: 
+1.20607932284870745 a2_x6
+0.82274844310066719 a2_x2
+1.21543833766652898 a2_x4
<= 151.572284

a2_local_5: 
+0.74301116243361165 a2_x1
+1.34587480048706598 a2_x6
+1.17242715391030861 a2_x2
<= 154.600988

a2_local_6: 
+0.99533775265008906 a2_x4
+1.04276001787268635 a2_x6
+0.95899342404792209 a2_x5
<= 157.159277

a2_local_7: 
+1.92269864267098534 a2_x4
+1.32689419483859750 a2_x6
+2.57594088718202441 a2_x3
<= 358.390090

a2_local_8: 
+1.22413669666438829 a2_x5
+1.06720675195353931 a2_x1
+0.81690223218115154 a2_x4
<= 202.490918

a2_act_1: 
+0.10000000000000001 a2_x1
-10.00000000000000178 a2_z1
<= 0.000000

a2_act_2: 
+0.09999999999999999 a2_x2
-10.00000000000000000 a2_z2
<= 0.000000

a3_local_1: 
+1.29406688320082597 a3_x3
+1.50053173761784420 a3_x5
+0.66643042258309126 a3_x4
<= 119.913884

a3_local_2: 
+1.09456365448649429 a3_x3
+1.21693457628371160 a3_x5
+0.82173686202080909 a3_x2
<= 159.557340

a3_local_3: 
+0.83838813987461258 a3_x5
+1.06961214143609107 a3_x6
+1.19276496462552228 a3_x2
<= 155.553609

a3_local_4: 
+1.54106140295752736 a3_x4
+1.34812751668928854 a3_x3
+0.64890341039030019 a3_x1
<= 154.495387

a3_local_5: 
+1.47005435356251835 a3_x1
+1.25101766380484070 a3_x4
+0.68024695656769962 a3_x5
<= 195.142600

a3_local_6: 
+0.74214363035317832 a3_x5
+1.34744806679013140 a3_x4
+1.04768303109468852 a3_x6
<= 126.884592

a3_local_7: 
+1.14146496739545666 a3_x5
+0.87606718433221376 a3_x4
+1.02282617384461183 a3_x2
<= 184.581002

a3_local_8: 
+1.47932396495008289 a3_x6
+0.67598445215057634 a3_x2
+1.12078923076768566 a3_x3
<= 178.752901

a3_act_1: 
+0.09999999999999999 a3_x1
-10.00000000000000000 a3_z1
<= 0.000000

a3_act_2: 
+0.09999999999999999 a3_x2
-10.00000000000000000 a3_z2
<= 0.000000

a4_local_1: 
+0.93947639559538931 a4_x3
+0.78765587113540070 a4_x2
+1.26958997786496153 a4_x4
<= 177.374435

a4_local_2: 
+1.36489355835498727 a4_x5
+0.69086760369113132 a4_x4
+1.44745533682177641 a4_x1
<= 140.563230

a4_local_3: 
+0.86902498258530070 a4_x3
+1.05216633485118294 a4_x2
+1.15071490467978954 a4_x6
<= 176.114622

a4_local_4: 
+0.91916710229171561 a4_x1
+1.08794146081463072 a4_x6
+1.04706522190109674 a4_x5
<= 141.095780

a4_local_5: 
+0.97886237065940362 a4_x1
+1.08427706476379671 a4_x2
+0.92227349678178783 a4_x6
<= 117.438764

a4_local_6: 
+0.58343803471211131 a4_x6
+1.71397807565534377 a4_x3
+0.97723231614370909 a4_x5
<= 134.296653

a4_local_7: 
+0.82781481242985799 a4_x1
+0.86914953755802127 a4_x4
+1.20799964555445927 a4_x5
<= 93.539776

a4_local_8: 
+0.91569763806754612 a4_x5
+0.80675946977201041 a4_x1
+1.23952681991151503 a4_x6
<= 169.005587

a4_act_1: 
+0.10000000000000001 a4_x1
-10.00000000000000000 a4_z1
<= 0.000000

a4_act_2: 
+0.10000000000000001 a4_x2
-10.00000000000000000 a4_z2
<= 0.000000

coupling_1: 
+0.00000104177711999 a1_x1
+0.00007054108008473 a2_x1
+0.00508277354749314 a3_x1
+0.99998657740226882 a4_x1
+0.00070903146326515 short_1
-0.00070903146326515 surp_1
= 59.743617

coupling_2: 
+0.00000131097081782 a1_x2
+0.00006384904553520 a2_x2
+0.01589338964530235 a3_x2
+0.99987234543310421 a4_x2
+0.00115950965206646 short_2
-0.00115950965206646 surp_2
= 78.960729

coupling_3: 
+0.00000077532268583 a1_x3
+0.00006876513163367 a2_x3
+0.01407210977959164 a3_x3
+0.99989959629728598 a4_x3
+0.00117650364027944 short_3
-0.00117650364027944 surp_3
= 51.695734

bounds
  0.000000 <= a1_x1 <= 100.000000
  0.000000 <= a1_x2 <= 100.000000
  0.000000 <= a1_x3 <= 100.000000
  0.000000 <= a1_x4 <= 100.000000
  0.000000 <= a1_x5 <= 100.000000
  0.000000 <= a1_x6 <= 100.000000
  0.000000 <= a2_x1 <= 100.000000
  0.000000 <= a2_x2 <= 100.000000
  0.000000 <= a2_x3 <= 100.000000
  0.000000 <= a2_x4 <= 100.000000
  0.000000 <= a2_x5 <= 100.000000
  0.000000 <= a2_x6 <= 100.000000
  0.000000 <= a3_x1 <= 100.000000
  0.000000 <= a3_x2 <= 100.000000
  0.000000 <= a3_x3 <= 100.000000
  0.000000 <= a3_x4 <= 100.000000
  0.000000 <= a3_x5 <= 100.000000
  0.000000 <= a3_x6 <= 100.000000
  0.000000 <= a4_x1 <= 100.000000
  0.000000 <= a4_x2 <= 100.000000
  0.000000 <= a4_x3 <= 100.000000
  0.000000 <= a4_x4 <= 100.000000
  0.000000 <= a4_x5 <= 100.000000
  0.000000 <= a4_x6 <= 100.000000
  0.000000 <= short_1 <= +inf
  0.000000 <= surp_1 <= +inf
  0.000000 <= short_2 <= +inf
  0.000000 <= surp_2 <= +inf
  0.000000 <= short_3 <= +inf
  0.000000 <= surp_3 <= +inf
 0 <= a1_z1 <= 1
 0 <= a1_z2 <= 1
 0 <= a2_z1 <= 1
 0 <= a2_z2 <= 1
 0 <= a3_z1 <= 1
 0 <= a3_z2 <= 1
 0 <= a4_z1 <= 1
 0 <= a4_z2 <= 1

binary
  a1_z1
  a1_z2
  a2_z1
  a2_z2
  a3_z1
  a3_z2
  a4_z1
  a4_z2
end
