min
obj: 
  +2.37029411872895501 a1_x1
  +4.08711411622905185 a1_x2
  +7.66136637275760890 a1_x3
  +4.89991689432673461 a1_x4
  +9.18560754331382867 a1_x5
  +7.80552329567271030 a1_x6
  +17.43087311454965516 a1_z1
  +23.40237872614093462 a1_z2
  +7.76967499598976019 a2_x1
  +1.80336421538305247 a2_x2
  +9.57158160013941384 a2_x3
  +5.65827493894111466 a2_x4
  +2.44173723344263127 a2_x5
  +7.27299337053102857 a2_x6
  +31.32172731425238510 a2_z1
  +17.35876123031728824 a2_z2
  +2.34937597507828766 a3_x1
  +3.44404861330662637 a3_x2
  +8.97236298110027342 a3_x3
  +1.18282410761081147 a3_x4
  +8.94329086748358293 a3_x5
  +1.71905082189577563 a3_x6
  +16.00176469749968788 a3_z1
  +34.61198408971173990 a3_z2
  +6.56106695092732561 a4_x1
  +3.99053598556514322 a4_x2
  +4.10040873738996048 a4_x3
  +4.88744804784333908 a4_x4
  +2.91326732486744788 a4_x5
  +5.36841797601257653 a4_x6
  +43.70048480327027818 a4_z1
  +7.09598516541455737 a4_z2
  +1000000.00000000000000000 short_1
  +1000000.00000000000000000 surp_1
  +1000000.00000000000000000 short_2
  +1000000.00000000000000000 surp_2
  +1000000.00000000000000000 short_3
  +1000000.00000000000000000 surp_3

s.t.

a1_local_1: 
+0.77241195716615829 a1_x3
+0.55510986696212827 a1_x2
+0.30859812706501172 a1_x1
<= 114.444167

a1_local_2: 
+0.76791484251516673 a1_x6
+0.45663690431334675 a1_x3
+0.44920989778057013 a1_x2
<= 51.838027

a1_local_3: 
+0.57353003939573333 a1_x4
+0.66341421880025575 a1_x3
+0.48056723588315409 a1_x6
<= 52.862757

a1_local_4: 
+0.64081882809391288 a1_x5
+1.21013710644367034 a1_x3
+0.58246970166336487 a1_x6
<= 131.231350

a1_local_5: 
+0.55119769666649032 a1_x3
+0.41735044904293245 a1_x5
+0.22101848813369857 a1_x4
<= 72.106980

a1_local_6: 
+0.74094541606884634 a1_x3
+0.53463991929925514 a1_x1
+0.40639887684176712 a1_x6
<= 83.734928

a1_local_7: 
+0.52339568222869326 a1_x6
+0.61423774093397809 a1_x1
+0.59056664097854683 a1_x4
<= 79.541279

a1_local_8: 
+0.40881874508552429 a1_x3
+0.62272062132382811 a1_x2
+0.66714785575969793 a1_x4
<= 61.969700

a1_act_1: 
+0.00999950003749688 a1_x1
-0.99995000374968757 a1_z1
<= 0.000000

a1_act_2: 
+0.00999950003749688 a1_x2
-0.99995000374968757 a1_z2
<= 0.000000

a2_local_1: 
+0.60791199623513248 a2_x3
+0.71091188389924798 a2_x2
+0.35362027397229145 a2_x1
<= 105.923914

a2_local_2: 
+0.27298831903800402 a2_x6
+0.64549758915640554 a2_x2
+0.71330935789604866 a2_x1
<= 104.229229

a2_local_3: 
+0.46614415501724027 a2_x2
+0.77107279126206019 a2_x3
+0.43376995898586418 a2_x1
<= 93.242355

a2_local_4: 
+0.55747467419237706 a2_x1
+0.53453374855096436 a2_x4
+0.63521308180338765 a2_x5
<= 97.956718

a2_local_5: 
+0.34226725376765521 a2_x1
+0.51502778977282082 a2_x6
+0.46129867253637263 a2_x3
<= 40.806779

a2_local_6: 
+0.45672210821443548 a2_x1
+0.37229940364563718 a2_x6
+0.80795920064893401 a2_x2
<= 79.820062

a2_local_7: 
+0.55712484542162355 a2_x3
+0.50111201771719915 a2_x2
+0.66219230765188586 a2_x4
<= 70.751625

a2_local_8: 
+0.69928387547025284 a2_x4
+0.36018019333233503 a2_x3
+0.61747250128113851 a2_x1
<= 101.370056

a2_act_1: 
+0.00656717356249348 a2_x1
-0.65671735624934802 a2_z1
<= 0.000000

a2_act_2: 
+0.00999950003749688 a2_x2
-0.99995000374968757 a2_z2
<= 0.000000

a3_local_1: 
+0.46731663203920332 a3_x5
+0.31402123127994841 a3_x4
+0.82644166867659874 a3_x2
<= 72.167649

a3_local_2: 
+0.62364322641728220 a3_x4
+0.45102014007742142 a3_x5
+0.63847471319417637 a3_x3
<= 86.233261

a3_local_3: 
+0.61873482797448953 a3_x4
+0.32757898195559443 a3_x3
+0.71404427259961634 a3_x6
<= 70.380977

a3_local_4: 
+0.51561991303265620 a3_x4
+0.54327962890760972 a3_x5
+0.66255818619816786 a3_x2
<= 94.768204

a3_local_5: 
+0.72715879570718156 a3_x4
+0.28550485592540154 a3_x6
+0.62428123715894046 a3_x5
<= 67.364339

a3_local_6: 
+0.56936091402592692 a3_x1
+0.54563177164048948 a3_x5
+0.61490984652713276 a3_x3
<= 57.308230

a3_local_7: 
+0.53565463193328733 a3_x6
+0.41952980869997958 a3_x4
+0.73284981742548949 a3_x1
<= 63.639564

a3_local_8: 
+0.68674676701610371 a3_x4
+0.33557359090746153 a3_x2
+0.64480170834016970 a3_x1
<= 105.444003

a3_act_1: 
+0.00999950003749688 a3_x1
-0.99995000374968745 a3_z1
<= 0.000000

a3_act_2: 
+0.00787136829421554 a3_x2
-0.78713682942155372 a3_z2
<= 0.000000

a4_local_1: 
+0.53699798738911919 a4_x5
+0.67419212866122302 a4_x2
+0.50704845448071745 a4_x1
<= 114.959316

a4_local_2: 
+0.61966013127884101 a4_x4
+0.33982951438988568 a4_x2
+0.70748655312523345 a4_x6
<= 104.060517

a4_local_3: 
+0.69341408287709860 a4_x1
+0.49508363420821422 a4_x3
+0.52351609794437026 a4_x6
<= 84.809918

a4_local_4: 
+0.50648080789037353 a4_x3
+0.66772172345937819 a4_x4
+0.54555008134831418 a4_x1
<= 103.814040

a4_local_5: 
+0.65010965356042638 a4_x6
+0.67162516863435417 a4_x3
+0.35535485251283355 a4_x4
<= 80.222777

a4_local_6: 
+0.38576832624855317 a4_x5
+0.82625073302251495 a4_x4
+0.41047840947258929 a4_x2
<= 90.857915

a4_local_7: 
+0.68481414059526791 a4_x6
+0.49666124622017876 a4_x2
+0.53325153477864828 a4_x4
<= 116.051988

a4_local_8: 
+0.39801599426753953 a4_x6
+0.65454914870586733 a4_x2
+0.64276642743351686 a4_x1
<= 61.266853

a4_act_1: 
+0.00999950003749688 a4_x1
-0.99995000374968768 a4_z1
<= 0.000000

a4_act_2: 
+0.00999950003749687 a4_x2
-0.99995000374968745 a4_z2
<= 0.000000

coupling_1: 
+0.00000045904925519 a1_x1
+0.00007450531231933 a2_x1
+0.00651046070242114 a3_x1
+0.72480920230570700 a4_x1
+0.00053799659908821 short_1
-0.00053799659908821 surp_1
= 15.311625

coupling_2: 
+0.00000074139835539 a1_x2
+0.00010797476439062 a2_x2
+0.00926081648752510 a3_x2
+0.99995651519652018 a4_x2
+0.00077244252742803 short_2
-0.00077244252742803 surp_2
= 79.269592

coupling_3: 
+0.00000051146539061 a1_x3
+0.00005489721201259 a2_x3
+0.01107225375956997 a3_x3
+0.99993798616698348 a4_x3
+0.00084439417205088 short_3
-0.00084439417205088 surp_3
= 56.205895

bounds
  0.000000 <= a1_x1 <= 100.000000
  0.000000 <= a1_x2 <= 100.000000
  0.000000 <= a1_x3 <= 100.000000
  0.000000 <= a1_x4 <= 100.000000
  0.000000 <= a1_x5 <= 100.000000
  0.000000 <= a1_x6 <= 100.000000
  0.000000 <= a2_x1 <= 100.000000
  0.000000 <= a2_x2 <= 100.000000
  0.000000 <= a2_x3 <= 100.000000
  0.000000 <= a2_x4 <= 100.000000
  0.000000 <= a2_x5 <= 100.000000
  0.000000 <= a2_x6 <= 100.000000
  0.000000 <= a3_x1 <= 100.000000
  0.000000 <= a3_x2 <= 100.000000
  0.000000 <= a3_x3 <= 100.000000
  0.000000 <= a3_x4 <= 100.000000
  0.000000 <= a3_x5 <= 100.000000
  0.000000 <= a3_x6 <= 100.000000
  0.000000 <= a4_x1 <= 100.000000
  0.000000 <= a4_x2 <= 100.000000
  0.000000 <= a4_x3 <= 100.000000
  0.000000 <= a4_x4 <= 100.000000
  0.000000 <= a4_x5 <= 100.000000
  0.000000 <= a4_x6 <= 100.000000
  0.000000 <= short_1 <= +inf
  0.000000 <= surp_1 <= +inf
  0.000000 <= short_2 <= +inf
  0.000000 <= surp_2 <= +inf
  0.000000 <= short_3 <= +inf
  0.000000 <= surp_3 <= +inf
 0 <= a1_z1 <= 1
 0 <= a1_z2 <= 1
 0 <= a2_z1 <= 1
 0 <= a2_z2 <= 1
 0 <= a3_z1 <= 1
 0 <= a3_z2 <= 1
 0 <= a4_z1 <= 1
 0 <= a4_z2 <= 1

binary
  a1_z1
  a1_z2
  a2_z1
  a2_z2
  a3_z1
  a3_z2
  a4_z1
  a4_z2
end
