min
obj: 
  +3.05711040055168581 a1_x1
  +8.05560131874530505 a1_x2
  +1.97423451738110156 a1_x3
  +4.43855917145081946 a1_x4
  +2.09177435273224699 a1_x5
  +8.36067334918018190 a1_x6
  +15.66642560195388789 a1_z1
  +12.32473257168471292 a1_z2
  +3.90447270498543908 a2_x1
  +3.19064241710492480 a2_x2
  +7.25662050376060552 a2_x3
  +4.24034203150857802 a2_x4
  +1.72165381936256479 a2_x5
  +9.86521199550605488 a2_x6
  +47.43293385770623871 a2_z1
  +10.01849972745584338 a2_z2
  +7.66342890098139051 a3_x1
  +6.60319515439368221 a3_x2
  +5.66277254283255616 a3_x3
  +4.15025934339557701 a3_x4
  +2.04336446202724131 a3_x5
  +3.95648142420414572 a3_x6
  +26.64691344464440093 a3_z1
  +25.19269856348255487 a3_z2
  +2.43191733608034033 a4_x1
  +1.25980278183489802 a4_x2
  +6.71866199762658312 a4_x3
  +9.23282830324045278 a4_x4
  +5.85378359150520033 a4_x5
  +9.83498899970064500 a4_x6
  +10.08347259986509314 a4_z1
  +40.29173016694412013 a4_z2
  +1000000.00000000000000000 short_1
  +1000000.00000000000000000 surp_1
  +1000000.00000000000000000 short_2
  +1000000.00000000000000000 surp_2
  +1000000.00000000000000000 short_3
  +1000000.00000000000000000 surp_3

s.t.

a1_local_1: 
+0.00021590096243095 a1_x5
+0.00035536448675727 a1_x1
+0.00014958980270026 a1_x6
<= 0.028201

a1_local_2: 
+0.00072491406704733 a1_x6
+0.00144608171189313 a1_x4
+0.00126106586571331 a1_x2
<= 0.146886

a1_local_3: 
+21.40962586319036376 a1_x4
+9.52103695460405319 a1_x5
+16.58912584788517108 a1_x1
<= 3141.190633

a1_local_4: 
+96.43930991523690466 a1_x3
+34.28894191252830126 a1_x1
+42.48472340250589241 a1_x4
<= 7637.039549

a1_local_5: 
+0.81615077982693962 a1_x4
+0.96543436792201842 a1_x5
+1.09067189567587786 a1_x1
<= 88.717876

a1_local_6: 
+0.00432899321061810 a1_x2
+0.00563158944830686 a1_x5
+0.00723813565984197 a1_x6
<= 0.652328

a1_local_7: 
+0.00000000975514395 a1_x1
+0.00000001090632693 a1_x3
+0.00000000879537603 a1_x5
<= 0.000002

a1_local_8: 
+0.37823380742836193 a1_x3
+0.33205582785404397 a1_x4
+0.24368047056085201 a1_x1
<= 33.865096

a1_act_1: 
+0.00005287458637580 a1_x1
-0.00528745863758019 a1_z1
<= 0.000000

a1_act_2: 
+11.28412092945715450 a1_x2
-1128.41209294571535793 a1_z2
<= 0.000000

a2_local_1: 
+166.30413342331971194 a2_x2
+95.36258175112713786 a2_x6
+244.66992298149224894 a2_x4
<= 34454.602201

a2_local_2: 
+0.00011193067585600 a2_x2
+0.00012137729264494 a2_x5
+0.00012616157729897 a2_x3
<= 0.021811

a2_local_3: 
+0.06179831328947781 a2_x3
+0.04897744924739012 a2_x5
+0.05141239262054831 a2_x2
<= 7.428155

a2_local_4: 
+0.00004998635810290 a2_x1
+0.00010680348526929 a2_x5
+0.00007238322630131 a2_x6
<= 0.014709

a2_local_5: 
+33.03162546814565559 a2_x2
+39.97156062302576629 a2_x6
+22.51890844880142595 a2_x1
<= 5719.291215

a2_local_6: 
+0.00000136605183579 a2_x1
+0.00000175056454371 a2_x5
+0.00000102190372284 a2_x4
<= 0.000271

a2_local_7: 
+0.75688787408582603 a2_x6
+0.51285051404013871 a2_x3
+0.84703687477931122 a2_x4
<= 67.228628

a2_local_8: 
+0.00590894318877327 a2_x3
+0.00664100710625102 a2_x1
+0.00396732648910523 a2_x4
<= 0.880936

a2_act_1: 
+276.40564687645121467 a2_x1
-27640.56468764512101188 a2_z1
<= 0.000000

a2_act_2: 
+0.05512928408057442 a2_x2
-5.51292840805744166 a2_z2
<= 0.000000

a3_local_1: 
+38.50090161971164804 a3_x5
+35.48907570329514272 a3_x6
+20.36643108341586128 a3_x2
<= 4366.766262

a3_local_2: 
+36401.31464910034992499 a3_x3
+27495.28797873975418042 a3_x1
+47341.31652627742732875 a3_x5
<= 7177994.994928

a3_local_3: 
+10.14180444863036001 a3_x6
+18.97327166168197721 a3_x2
+21.43799940039232510 a3_x3
<= 2468.503998

a3_local_4: 
+9834.85428272109311365 a3_x5
+13443.10617998296402220 a3_x6
+12157.06071534733382578 a3_x3
<= 1468412.231041

a3_local_5: 
+0.00020359435259813 a3_x5
+0.00014441254108555 a3_x6
+0.00011712978576132 a3_x4
<= 0.017592

a3_local_6: 
+0.01404772355127655 a3_x3
+0.01142916841323986 a3_x6
+0.01505445513218178 a3_x2
<= 1.302901

a3_local_7: 
+614342.64134854404255748 a3_x4
+612122.50563542405143380 a3_x6
+651023.69436995638534427 a3_x3
<= 65373354.101048

a3_local_8: 
+24.36527609111619341 a3_x6
+14.73510029456419801 a3_x3
+11.46916253457916035 a3_x5
<= 2644.420902

a3_act_1: 
+0.00001312824710308 a3_x1
-0.00131282471030836 a3_z1
<= 0.000000

a3_act_2: 
+9.02562598275485151 a3_x2
-902.56259827548512931 a3_z2
<= 0.000000

a4_local_1: 
+1029573.96520077937748283 a4_x4
+2049848.10315710469149053 a4_x1
+805538.68993184424471110 a4_x6
<= 249764611.041421

a4_local_2: 
+89696.35862602033012081 a4_x2
+98796.84888903476530686 a4_x6
+42273.51041340351366671 a4_x1
<= 12265496.860370

a4_local_3: 
+66016364.80457076430320740 a4_x4
+95929112.63982746005058289 a4_x3
+71987576.34973217546939850 a4_x5
<= 9626475674.652014

a4_local_4: 
+920.97621484704745853 a4_x1
+1753.66443622785368461 a4_x6
+1063.73217204315665185 a4_x4
<= 257805.720768

a4_local_5: 
+109529710.26048371195793152 a4_x3
+107311698.48254121840000153 a4_x6
+115821590.07823547720909119 a4_x4
<= 20594830570.308643

a4_local_6: 
+5.25139310180923857 a4_x3
+3.12941195023090124 a4_x1
+3.96858233566062246 a4_x5
<= 530.579679

a4_local_7: 
+109716.32530379031959455 a4_x5
+185382.62019907042849809 a4_x4
+105790.76370127005793620 a4_x3
<= 23073944.897181

a4_local_8: 
+0.01154572053907582 a4_x1
+0.01506285329564297 a4_x4
+0.01184740936112430 a4_x6
<= 1.522696

a4_act_1: 
+1.33096042445541096 a4_x1
-133.09604244554108732 a4_z1
<= 0.000000

a4_act_2: 
+0.00074643660746783 a4_x2
-0.07464366074678265 a4_z2
<= 0.000000

coupling_1: 
+0.00000041846897665 a1_x1
+0.00002320573508586 a2_x1
+0.00291669632509853 a3_x1
+0.29981319393087769 a4_x1
+0.00031730102119019 short_1
-0.00031730102119019 surp_1
= 9.568636

coupling_2: 
+0.00001118782410386 a1_x2
+0.00094089189437413 a2_x2
+0.08070709014885134 a3_x2
+9.21932971549361469 a4_x2
+0.00838735962964515 short_2
-0.00838735962964515 surp_2
= 408.087994

coupling_3: 
+0.00000000069813439 a1_x3
+0.00000010664980739 a2_x3
+0.00001116027099702 a3_x3
+0.00187745861712482 a4_x3
+0.00000126797589854 short_3
-0.00000126797589854 surp_3
= 0.129841

bounds
  0.000000 <= a1_x1 <= 100.000000
  0.000000 <= a1_x2 <= 100.000000
  0.000000 <= a1_x3 <= 100.000000
  0.000000 <= a1_x4 <= 100.000000
  0.000000 <= a1_x5 <= 100.000000
  0.000000 <= a1_x6 <= 100.000000
  0.000000 <= a2_x1 <= 100.000000
  0.000000 <= a2_x2 <= 100.000000
  0.000000 <= a2_x3 <= 100.000000
  0.000000 <= a2_x4 <= 100.000000
  0.000000 <= a2_x5 <= 100.000000
  0.000000 <= a2_x6 <= 100.000000
  0.000000 <= a3_x1 <= 100.000000
  0.000000 <= a3_x2 <= 100.000000
  0.000000 <= a3_x3 <= 100.000000
  0.000000 <= a3_x4 <= 100.000000
  0.000000 <= a3_x5 <= 100.000000
  0.000000 <= a3_x6 <= 100.000000
  0.000000 <= a4_x1 <= 100.000000
  0.000000 <= a4_x2 <= 100.000000
  0.000000 <= a4_x3 <= 100.000000
  0.000000 <= a4_x4 <= 100.000000
  0.000000 <= a4_x5 <= 100.000000
  0.000000 <= a4_x6 <= 100.000000
  0.000000 <= short_1 <= +inf
  0.000000 <= surp_1 <= +inf
  0.000000 <= short_2 <= +inf
  0.000000 <= surp_2 <= +inf
  0.000000 <= short_3 <= +inf
  0.000000 <= surp_3 <= +inf
 0 <= a1_z1 <= 1
 0 <= a1_z2 <= 1
 0 <= a2_z1 <= 1
 0 <= a2_z2 <= 1
 0 <= a3_z1 <= 1
 0 <= a3_z2 <= 1
 0 <= a4_z1 <= 1
 0 <= a4_z2 <= 1

binary
  a1_z1
  a1_z2
  a2_z1
  a2_z2
  a3_z1
  a3_z2
  a4_z1
  a4_z2
end
