min
obj: 
  +3.04305245350352704 a1_x1
  +8.52421046785006808 a1_x2
  +7.69307565210918742 a1_x3
  +6.91899621560824230 a1_x4
  +9.20970734213053355 a1_x5
  +1.67836132765545631 a1_x6
  +29.95730103851083470 a1_z1
  +31.08072985890714435 a1_z2
  +3.99822752437524187 a2_x1
  +4.07165663414877166 a2_x2
  +8.34795406785622518 a2_x3
  +4.87171054907478673 a2_x4
  +6.00614521080850050 a2_x5
  +2.78826542023549706 a2_x6
  +21.64829021237791906 a2_z1
  +42.54057128991149028 a2_z2
  +2.99288059555848207 a3_x1
  +5.53541108642779456 a3_x2
  +5.21389691922773402 a3_x3
  +2.06500474656608013 a3_x4
  +6.41053556614162368 a3_x5
  +2.65986220405491736 a3_x6
  +31.21797170368752461 a3_z1
  +44.91309333626589506 a3_z2
  +1.34783919856301182 a4_x1
  +6.31764736904795043 a4_x2
  +9.98943596309341864 a4_x3
  +5.70541292643470310 a4_x4
  +4.44152957180650887 a4_x5
  +5.06133401945766614 a4_x6
  +15.23838321132246598 a4_z1
  +39.66649904034947838 a4_z2
  +1000000.00000000000000000 short_1
  +1000000.00000000000000000 surp_1
  +1000000.00000000000000000 short_2
  +1000000.00000000000000000 surp_2
  +1000000.00000000000000000 short_3
  +1000000.00000000000000000 surp_3

s.t.

a1_local_1: 
+0.00000001934154989 a1_x4
+0.00000002406222981 a1_x3
+0.00000005183738715 a1_x1
<= 0.000006

a1_local_2: 
+0.00000000128955268 a1_x5
+0.00000000078502737 a1_x2
+0.00000000097053019 a1_x1
<= 0.000000

a1_local_3: 
+47.23869302991314356 a1_x1
+66.88177797262574131 a1_x5
+67.24440402407553563 a1_x4
<= 10421.247112

a1_local_4: 
+1.71576635270667865 a1_x4
+1.28824595921622209 a1_x1
+1.38134223515516785 a1_x2
<= 184.398770

a1_local_5: 
+665.86282426176751414 a1_x4
+1361.00643934283107228 a1_x6
+551.74494524071531032 a1_x3
<= 176778.140152

a1_local_6: 
+0.00000000759318115 a1_x5
+0.00000001297089514 a1_x1
+0.00000000730967697 a1_x6
<= 0.000002

a1_local_7: 
+0.01205056709126435 a1_x1
+0.01262820674313136 a1_x2
+0.00845015308559552 a1_x4
<= 1.887427

a1_local_8: 
+0.00013800007467604 a1_x3
+0.00014655683991040 a1_x6
+0.00005642489237014 a1_x5
<= 0.017482

a1_act_1: 
+0.02545274968939533 a1_x1
-2.54527496893953309 a1_z1
<= 0.000000

a1_act_2: 
+0.01961465883163257 a1_x2
-1.96146588316325676 a1_z2
<= 0.000000

a2_local_1: 
+179.24921070455934569 a2_x5
+218.46768749603296556 a2_x3
+259.43669696830494331 a2_x6
<= 43147.808192

a2_local_2: 
+7023.67290244221021567 a2_x4
+10952.50856477461638860 a2_x3
+7460.36430354852655000 a2_x6
<= 1244071.034945

a2_local_3: 
+0.00000128922313060 a2_x3
+0.00000096539286472 a2_x1
+0.00000135423448716 a2_x2
<= 0.000239

a2_local_4: 
+1199.01164990254278564 a2_x4
+929.29564017848338153 a2_x5
+870.17808854326301571 a2_x1
<= 93893.824493

a2_local_5: 
+4032.11176153928090571 a2_x1
+4525.24162575706031930 a2_x6
+2406.47232483298739680 a2_x2
<= 662645.807041

a2_local_6: 
+0.03765308435421612 a2_x1
+0.02980193873481336 a2_x5
+0.04188150208264540 a2_x3
<= 5.977462

a2_local_7: 
+2854.54975619263495901 a2_x3
+5355.06149693980660231 a2_x6
+2709.22521111704600116 a2_x1
<= 503538.213112

a2_local_8: 
+0.02915975169774661 a2_x4
+0.05113646316150373 a2_x1
+0.05517816971314925 a2_x6
<= 4.869777

a2_act_1: 
+0.00819897311699784 a2_x1
-0.81989731169978364 a2_z1
<= 0.000000

a2_act_2: 
+3178.83384646662261730 a2_x2
-317883.38464666227810085 a2_z2
<= 0.000000

a3_local_1: 
+0.00005612365802531 a3_x4
+0.00002173446405006 a3_x2
+0.00004012761721204 a3_x5
<= 0.006312

a3_local_2: 
+1340.52061009502790512 a3_x1
+1236.15979688294169136 a3_x6
+1289.09719456248149072 a3_x3
<= 123999.691429

a3_local_3: 
+70.32928371162506664 a3_x2
+59.89849440235400380 a3_x6
+53.74758793392755507 a3_x5
<= 12857.637647

a3_local_4: 
+75862.81495565539808013 a3_x1
+108426.07428145907761063 a3_x5
+101694.75889052491402254 a3_x4
<= 9108695.501697

a3_local_5: 
+423590.74077979457797483 a3_x4
+238793.13833473998238333 a3_x2
+366543.88874120271066204 a3_x6
<= 41688652.990254

a3_local_6: 
+4384.70046376562186197 a3_x5
+3791.27257646540556379 a3_x2
+6006.06939509849780734 a3_x1
<= 707355.127848

a3_local_7: 
+0.00008654893697044 a3_x2
+0.00008162327929461 a3_x4
+0.00004250643160453 a3_x5
<= 0.013524

a3_local_8: 
+0.43533703839269516 a3_x3
+0.47280372398178389 a3_x5
+0.74038545815377244 a3_x6
<= 81.555465

a3_act_1: 
+0.00031946936814621 a3_x1
-0.03194693681462097 a3_z1
<= 0.000000

a3_act_2: 
+635.92751236185927155 a3_x2
-63592.75123618592624553 a3_z2
<= 0.000000

a4_local_1: 
+447281.99810182949295267 a4_x6
+702845.65393602987751365 a4_x2
+545894.10803552134893835 a4_x1
<= 52348298.037968

a4_local_2: 
+27794446.00413559749722481 a4_x1
+33272664.49950325861573219 a4_x6
+24398009.02118937671184540 a4_x5
<= 2824299490.862924

a4_local_3: 
+2123.40282367980944400 a4_x6
+1714.03540788483724100 a4_x3
+2139.56624718941839092 a4_x2
<= 256683.245703

a4_local_4: 
+0.00401876891355039 a4_x4
+0.00582431172690635 a4_x6
+0.00538812086083135 a4_x2
<= 0.591143

a4_local_5: 
+0.02502722205887841 a4_x5
+0.01086378796941481 a4_x6
+0.01570064913165066 a4_x1
<= 1.886182

a4_local_6: 
+0.57336027796138378 a4_x5
+0.49287574501562104 a4_x1
+0.38775117758830552 a4_x2
<= 94.717872

a4_local_7: 
+12768.15781771749061591 a4_x4
+10634.78883509176739608 a4_x2
+6861.94498949267563148 a4_x5
<= 1449770.236839

a4_local_8: 
+0.00863325381106254 a4_x3
+0.00439241092668050 a4_x1
+0.00727092680570462 a4_x2
<= 1.297563

a4_act_1: 
+1.63727155863054019 a4_x1
-163.72715586305400848 a4_z1
<= 0.000000

a4_act_2: 
+0.26079473459132091 a4_x2
-26.07947345913209247 a4_z2
<= 0.000000

coupling_1: 
+116.64154065596424914 a1_x1
+16092.47283628499462793 a2_x1
+983878.05182117363438010 a3_x1
+88120908.84137502312660217 a4_x1
+118937.32247378188185394 short_1
-118937.32247378188185394 surp_1
= 5094282862.650328

coupling_2: 
+0.01959847967547100 a1_x2
+2.40030968230514663 a2_x2
+114.14737737101181381 a3_x2
+24533.93001577106770128 a4_x2
+18.31189092601539770 short_2
-18.31189092601539770 surp_2
= 1761815.769280

coupling_3: 
+0.02437797560197595 a1_x3
+1.37390488668298993 a2_x3
+259.32890542173913673 a3_x3
+23501.16314937632341753 a4_x3
+20.06692223275803855 short_3
-20.06692223275803855 surp_3
= 584033.323672

bounds
  0.000000 <= a1_x1 <= 100.000000
  0.000000 <= a1_x2 <= 100.000000
  0.000000 <= a1_x3 <= 100.000000
  0.000000 <= a1_x4 <= 100.000000
  0.000000 <= a1_x5 <= 100.000000
  0.000000 <= a1_x6 <= 100.000000
  0.000000 <= a2_x1 <= 100.000000
  0.000000 <= a2_x2 <= 100.000000
  0.000000 <= a2_x3 <= 100.000000
  0.000000 <= a2_x4 <= 100.000000
  0.000000 <= a2_x5 <= 100.000000
  0.000000 <= a2_x6 <= 100.000000
  0.000000 <= a3_x1 <= 100.000000
  0.000000 <= a3_x2 <= 100.000000
  0.000000 <= a3_x3 <= 100.000000
  0.000000 <= a3_x4 <= 100.000000
  0.000000 <= a3_x5 <= 100.000000
  0.000000 <= a3_x6 <= 100.000000
  0.000000 <= a4_x1 <= 100.000000
  0.000000 <= a4_x2 <= 100.000000
  0.000000 <= a4_x3 <= 100.000000
  0.000000 <= a4_x4 <= 100.000000
  0.000000 <= a4_x5 <= 100.000000
  0.000000 <= a4_x6 <= 100.000000
  0.000000 <= short_1 <= +inf
  0.000000 <= surp_1 <= +inf
  0.000000 <= short_2 <= +inf
  0.000000 <= surp_2 <= +inf
  0.000000 <= short_3 <= +inf
  0.000000 <= surp_3 <= +inf
 0 <= a1_z1 <= 1
 0 <= a1_z2 <= 1
 0 <= a2_z1 <= 1
 0 <= a2_z2 <= 1
 0 <= a3_z1 <= 1
 0 <= a3_z2 <= 1
 0 <= a4_z1 <= 1
 0 <= a4_z2 <= 1

binary
  a1_z1
  a1_z2
  a2_z1
  a2_z2
  a3_z1
  a3_z2
  a4_z1
  a4_z2
end
