min
obj: 
  +1.58690782181034451 a1_x1
  +1.85914319529187777 a1_x2
  +3.32311090405199927 a1_x3
  +9.20870591814637862 a1_x4
  +9.62032466035919853 a1_x5
  +2.65221673698665317 a1_x6
  +45.97121590191820673 a1_z1
  +15.23159126469524693 a1_z2
  +7.38516429138446995 a2_x1
  +8.18461543331298103 a2_x2
  +6.32869026358351139 a2_x3
  +1.72084034317845602 a2_x4
  +2.51957804121249751 a2_x5
  +8.19694216322757185 a2_x6
  +32.90972281828447876 a2_z1
  +29.00608133785045339 a2_z2
  +9.62518175189459946 a3_x1
  +3.90094189534807345 a3_x2
  +1.32195101356612454 a3_x3
  +4.74857750195312356 a3_x4
  +3.55589835486331518 a3_x5
  +8.12436598238075014 a3_x6
  +20.82211554905935103 a3_z1
  +25.22287462451485496 a3_z2
  +3.97402812736189226 a4_x1
  +5.87257606585061964 a4_x2
  +8.54493066197249362 a4_x3
  +7.89453690964795740 a4_x4
  +2.70429770668290548 a4_x5
  +9.26226871331643586 a4_x6
  +13.31023289155729650 a4_z1
  +27.54299042523267715 a4_z2
  +1000000.00000000000000000 short_1
  +1000000.00000000000000000 surp_1
  +1000000.00000000000000000 short_2
  +1000000.00000000000000000 surp_2
  +1000000.00000000000000000 short_3
  +1000000.00000000000000000 surp_3

s.t.

a1_local_1: 
+0.53246830785528032 a1_x4
+0.69012198110526712 a1_x1
+0.49011136726776250 a1_x3
<= 75.931814

a1_local_2: 
+0.69617846452001120 a1_x2
+0.47322524293868906 a1_x4
+0.53980868368726564 a1_x3
<= 115.097453

a1_local_3: 
+0.39363520896456566 a1_x6
+0.78920363589640452 a1_x4
+0.47139043621112858 a1_x1
<= 71.439889

a1_local_4: 
+0.63759636823170918 a1_x6
+0.56665544691223790 a1_x2
+0.52189316502750527 a1_x1
<= 67.621855

a1_local_5: 
+0.40846880477800940 a1_x1
+0.59511297047828338 a1_x2
+0.69209377102509606 a1_x5
<= 88.502185

a1_local_6: 
+0.42686743713977265 a1_x1
+0.67541372727482640 a1_x2
+0.60133226099923209 a1_x6
<= 61.782550

a1_local_7: 
+0.33550665993360723 a1_x5
+0.71373623814206666 a1_x2
+0.61482994681700887 a1_x4
<= 110.233294

a1_local_8: 
+0.63697201480423715 a1_x1
+0.44880667154185599 a1_x2
+0.62676887601072795 a1_x3
<= 107.304967

a1_act_1: 
+0.00999950003749688 a1_x1
-0.99995000374968745 a1_z1
<= 0.000000

a1_act_2: 
+0.00999950003749687 a1_x2
-0.99995000374968745 a1_z2
<= 0.000000

a2_local_1: 
+0.31939001902648456 a2_x1
+0.81290044316897481 a2_x5
+0.48701425568657269 a2_x3
<= 86.681348

a2_local_2: 
+0.31152223204326313 a2_x4
+0.73618456743677285 a2_x2
+0.60082125595780544 a2_x5
<= 75.440843

a2_local_3: 
+0.63861542181410980 a2_x2
+0.56816630194893958 a2_x1
+0.51899652826474019 a2_x5
<= 57.358890

a2_local_4: 
+0.63488124547400793 a2_x6
+0.43309552396088685 a2_x2
+0.63980783933179319 a2_x4
<= 79.787787

a2_local_5: 
+0.38430315262398573 a2_x1
+0.69611865206745316 a2_x6
+0.60640737885274620 a2_x2
<= 79.963330

a2_local_6: 
+0.57487758146634427 a2_x4
+0.60226727613655762 a2_x6
+0.55388617460851863 a2_x5
<= 90.770540

a2_local_7: 
+0.55289946965362835 a2_x4
+0.38156738676092156 a2_x6
+0.74074861175514717 a2_x3
<= 103.060192

a2_local_8: 
+0.67337856361790527 a2_x5
+0.58705384102281077 a2_x1
+0.44936521650017708 a2_x4
<= 111.387106

a2_act_1: 
+0.00999950003749688 a2_x1
-0.99995000374968745 a2_z1
<= 0.000000

a2_act_2: 
+0.00999950003749688 a2_x2
-0.99995000374968757 a2_z2
<= 0.000000

a3_local_1: 
+0.61901247814665172 a3_x3
+0.71777423678678243 a3_x5
+0.31878471874274789 a3_x4
<= 57.360397

a3_local_2: 
+0.59764495162547260 a3_x3
+0.66446095025478280 a3_x5
+0.44867823368545245 a3_x2
<= 87.120231

a3_local_3: 
+0.46365429726410090 a3_x5
+0.59152824592302922 a3_x6
+0.65963552580478624 a3_x2
<= 86.025906

a3_local_4: 
+0.71747981080351420 a3_x4
+0.62765459816003211 a3_x3
+0.30211326766284546 a3_x1
<= 71.929205

a3_local_5: 
+0.71826790167457422 a3_x1
+0.61124667272427946 a3_x4
+0.33236835966665346 a3_x5
<= 95.346588

a3_local_6: 
+0.39874655304907541 a3_x5
+0.72397073837245562 a3_x4
+0.56290990079401049 a3_x6
<= 68.173857

a3_local_7: 
+0.64657871153568125 a3_x5
+0.49624509506998427 a3_x4
+0.57937619506486493 a3_x2
<= 104.555242

a3_local_8: 
+0.74893859942649521 a3_x6
+0.34223122238462655 a3_x2
+0.56742291521774502 a3_x3
<= 90.497383

a3_act_1: 
+0.00999950003749688 a3_x1
-0.99995000374968745 a3_z1
<= 0.000000

a3_act_2: 
+0.00999950003749687 a3_x2
-0.99995000374968734 a3_z2
<= 0.000000

a4_local_1: 
+0.53231102975291911 a4_x3
+0.44628892202161391 a4_x2
+0.71935468698283511 a4_x4
<= 100.501054

a4_local_2: 
+0.64808858862810526 a4_x5
+0.32804273085199476 a4_x4
+0.68729116684648028 a4_x1
<= 66.743245

a4_local_3: 
+0.48683511536909579 a4_x3
+0.58943244357704672 a4_x2
+0.64464018250676147 a4_x6
<= 98.660895

a4_local_4: 
+0.51997354613037339 a4_x1
+0.61544933228311516 a4_x6
+0.59232561207233991 a4_x5
<= 79.817993

a4_local_5: 
+0.56662000448558136 a4_x1
+0.62763989475477266 a4_x2
+0.53386321565451333 a4_x6
<= 67.980091

a4_local_6: 
+0.28357326232914637 a4_x6
+0.83305908349641034 a4_x3
+0.47497238687751731 a4_x5
<= 65.273324

a4_local_7: 
+0.48611282887096741 a4_x1
+0.51038557666546025 a4_x4
+0.70936653483155765 a4_x5
<= 54.928813

a4_local_8: 
+0.52642041201404344 a4_x5
+0.46379354365254516 a4_x1
+0.71258480104558741 a4_x6
<= 97.158698

a4_act_1: 
+0.00999950003749688 a4_x1
-0.99995000374968757 a4_z1
<= 0.000000

a4_act_2: 
+0.00999950003749688 a4_x2
-0.99995000374968745 a4_z2
<= 0.000000

coupling_1: 
+0.00000104177711999 a1_x1
+0.00007054108008473 a2_x1
+0.00508277354749314 a3_x1
+0.99998657740226882 a4_x1
+0.00070903146326515 short_1
-0.00070903146326515 surp_1
= 59.743617

coupling_2: 
+0.00000131097081782 a1_x2
+0.00006384904553520 a2_x2
+0.01589338964530235 a3_x2
+0.99987234543310421 a4_x2
+0.00115950965206646 short_2
-0.00115950965206646 surp_2
= 78.960729

coupling_3: 
+0.00000077532268583 a1_x3
+0.00006876513163367 a2_x3
+0.01407210977959164 a3_x3
+0.99989959629728598 a4_x3
+0.00117650364027944 short_3
-0.00117650364027944 surp_3
= 51.695734

bounds
  0.000000 <= a1_x1 <= 100.000000
  0.000000 <= a1_x2 <= 100.000000
  0.000000 <= a1_x3 <= 100.000000
  0.000000 <= a1_x4 <= 100.000000
  0.000000 <= a1_x5 <= 100.000000
  0.000000 <= a1_x6 <= 100.000000
  0.000000 <= a2_x1 <= 100.000000
  0.000000 <= a2_x2 <= 100.000000
  0.000000 <= a2_x3 <= 100.000000
  0.000000 <= a2_x4 <= 100.000000
  0.000000 <= a2_x5 <= 100.000000
  0.000000 <= a2_x6 <= 100.000000
  0.000000 <= a3_x1 <= 100.000000
  0.000000 <= a3_x2 <= 100.000000
  0.000000 <= a3_x3 <= 100.000000
  0.000000 <= a3_x4 <= 100.000000
  0.000000 <= a3_x5 <= 100.000000
  0.000000 <= a3_x6 <= 100.000000
  0.000000 <= a4_x1 <= 100.000000
  0.000000 <= a4_x2 <= 100.000000
  0.000000 <= a4_x3 <= 100.000000
  0.000000 <= a4_x4 <= 100.000000
  0.000000 <= a4_x5 <= 100.000000
  0.000000 <= a4_x6 <= 100.000000
  0.000000 <= short_1 <= +inf
  0.000000 <= surp_1 <= +inf
  0.000000 <= short_2 <= +inf
  0.000000 <= surp_2 <= +inf
  0.000000 <= short_3 <= +inf
  0.000000 <= surp_3 <= +inf
 0 <= a1_z1 <= 1
 0 <= a1_z2 <= 1
 0 <= a2_z1 <= 1
 0 <= a2_z2 <= 1
 0 <= a3_z1 <= 1
 0 <= a3_z2 <= 1
 0 <= a4_z1 <= 1
 0 <= a4_z2 <= 1

binary
  a1_z1
  a1_z2
  a2_z1
  a2_z2
  a3_z1
  a3_z2
  a4_z1
  a4_z2
end
