min
obj: 
  +4.68205187695116365 a1_x1
  +5.71291625483064269 a1_x2
  +9.00563589084773142 a1_x3
  +9.01724711762336106 a1_x4
  +9.40638568868457803 a1_x5
  +5.77535620951187667 a1_x6
  +36.44079832510822570 a1_z1
  +20.35589591192510284 a1_z2
  +9.85237733259970305 a2_x1
  +8.66656609951932211 a2_x2
  +1.31834896047554095 a2_x3
  +8.26919439786070853 a2_x4
  +6.06353184831551140 a2_x5
  +3.26315819103542193 a2_x6
  +31.01579944565894920 a2_z1
  +42.14273897613190911 a2_z2
  +3.40700085697226296 a3_x1
  +9.41882509326676143 a3_x2
  +9.74900107951637906 a3_x3
  +7.04508203399397814 a3_x4
  +9.97637618984075480 a3_x5
  +5.84735535483849578 a3_x6
  +49.07354774414897491 a3_z1
  +13.99914181947612590 a3_z2
  +1.91431389506638183 a4_x1
  +6.10422017205319989 a4_x2
  +2.25748963263893865 a4_x3
  +5.65946667698913863 a4_x4
  +4.35204976180165826 a4_x5
  +6.78234121926408484 a4_x6
  +29.95675458969477134 a4_z1
  +32.97214499302464219 a4_z2
  +1000000.00000000000000000 short_1
  +1000000.00000000000000000 surp_1
  +1000000.00000000000000000 short_2
  +1000000.00000000000000000 surp_2
  +1000000.00000000000000000 short_3
  +1000000.00000000000000000 surp_3

s.t.

a1_local_1: 
+0.71433844523206802 a1_x4
+0.58447109877792225 a1_x2
+0.38485597352355055 a1_x6
<= 73.865137

a1_local_2: 
+0.70495917278386289 a1_x3
+0.31528735967011728 a1_x4
+0.63531602021367128 a1_x5
<= 69.546758

a1_local_3: 
+0.61170000277962022 a1_x1
+1.07543913429528559 a1_x3
+0.80435441831657661 a1_x6
<= 129.733566

a1_local_4: 
+0.46059081302182620 a1_x2
+0.40016831925090912 a1_x1
+0.79228872213846113 a1_x5
<= 79.077829

a1_local_5: 
+0.39411578841246087 a1_x2
+0.64169752199966568 a1_x3
+0.65794911321736205 a1_x5
<= 72.133438

a1_local_6: 
+0.66171173080293677 a1_x6
+0.46546895978685993 a1_x1
+0.58777226269425165 a1_x3
<= 89.471631

a1_local_7: 
+0.67240197120697565 a1_x4
+0.54436733432785611 a1_x2
+0.50153743074047608 a1_x5
<= 90.482465

a1_local_8: 
+0.62146601471376839 a1_x6
+0.60662518643990138 a1_x2
+0.49576796561752667 a1_x4
<= 107.831600

a1_act_1: 
+0.00999950003749688 a1_x1
-0.99995000374968757 a1_z1
<= 0.000000

a1_act_2: 
+0.00999950003749688 a1_x2
-0.99995000374968757 a1_z2
<= 0.000000

a2_local_1: 
+0.44885746616390754 a2_x2
+0.61687916725815728 a2_x6
+0.64651919389280221 a2_x5
<= 56.772926

a2_local_2: 
+0.46823612257877850 a2_x1
+0.54938211080138311 a2_x4
+0.69205074224641072 a2_x5
<= 118.719360

a2_local_3: 
+0.77440698609889347 a2_x2
+0.53778542616001090 a2_x5
+0.33328764647241832 a2_x1
<= 103.863649

a2_local_4: 
+0.41468542146143300 a2_x6
+0.79588688361712889 a2_x4
+0.44113497901840465 a2_x5
<= 61.595230

a2_local_5: 
+0.40401631066425492 a2_x5
+0.74862317746819773 a2_x3
+0.52567495553304000 a2_x6
<= 86.736840

a2_local_6: 
+0.65607633883902938 a2_x6
+0.45872831625651223 a2_x4
+0.59927637153490387 a2_x1
<= 90.216060

a2_local_7: 
+0.56547167327310033 a2_x3
+0.51645280057307630 a2_x6
+0.64305387916250567 a2_x1
<= 80.627764

a2_local_8: 
+0.56126493618842432 a2_x5
+0.56250289975453283 a2_x3
+0.60710144059551197 a2_x6
<= 120.393097

a2_act_1: 
+0.00999950003749687 a2_x1
-0.99995000374968745 a2_z1
<= 0.000000

a2_act_2: 
+0.00999950003749688 a2_x2
-0.99995000374968757 a2_z2
<= 0.000000

a3_local_1: 
+0.68812236348274225 a3_x5
+0.46521836019664276 a3_x2
+0.55682985750664560 a3_x3
<= 66.223664

a3_local_2: 
+0.66844458967972231 a3_x2
+0.43932232223429896 a3_x3
+0.60014808815372422 a3_x4
<= 86.581858

a3_local_3: 
+0.20423213634675508 a3_x6
+0.41512212609055366 a3_x4
+0.35634676726288678 a3_x1
<= 66.949380

a3_local_4: 
+0.63608518661876157 a3_x4
+0.71580316063459848 a3_x2
+0.28813446616067029 a3_x1
<= 80.742038

a3_local_5: 
+0.31567127026281783 a3_x3
+0.61740789740806834 a3_x5
+0.72052698585743979 a3_x2
<= 81.793793

a3_local_6: 
+0.63441264836813471 a3_x1
+0.57474358463614272 a3_x6
+0.51690463676593812 a3_x2
<= 78.331569

a3_local_7: 
+0.54666872771579833 a3_x1
+0.72931960157448550 a3_x4
+0.41139545561032181 a3_x6
<= 57.594236

a3_local_8: 
+0.74222403752031096 a3_x4
+0.35370848328944038 a3_x3
+0.56920452121898324 a3_x5
<= 105.844499

a3_act_1: 
+0.00999950003749687 a3_x1
-0.99995000374968745 a3_z1
<= 0.000000

a3_act_2: 
+0.00999950003749688 a3_x2
-0.99995000374968757 a3_z2
<= 0.000000

a4_local_1: 
+0.65330116758955548 a4_x3
+0.49798456092255106 a4_x5
+0.57027095446717024 a4_x2
<= 109.997036

a4_local_2: 
+0.76480237003958973 a4_x3
+0.35900619022984709 a4_x2
+0.53496905532794825 a4_x6
<= 56.991539

a4_local_3: 
+0.38335425840995246 a4_x5
+0.59421481387365072 a4_x6
+0.70707019986141284 a4_x3
<= 98.662299

a4_local_4: 
+0.57133602830775043 a4_x3
+0.53967723445066285 a4_x6
+0.61832323696688718 a4_x1
<= 117.548058

a4_local_5: 
+0.67332326360099481 a4_x3
+0.69377176908360172 a4_x6
+0.25557095906286953 a4_x5
<= 83.856139

a4_local_6: 
+0.49619066165061437 a4_x3
+0.51592854986444281 a4_x4
+0.69829260251380187 a4_x6
<= 100.262137

a4_local_7: 
+0.82683901637165713 a4_x6
+0.73967074842631331 a4_x3
+1.09230548621226542 a4_x1
<= 179.896956

a4_local_8: 
+0.33016800447811767 a4_x1
+0.75046547554304976 a4_x6
+0.57253005059724327 a4_x3
<= 87.543225

a4_act_1: 
+0.00999950003749688 a4_x1
-0.99995000374968757 a4_z1
<= 0.000000

a4_act_2: 
+0.00999950003749688 a4_x2
-0.99995000374968768 a4_z2
<= 0.000000

coupling_1: 
+0.00000075047192250 a1_x1
+0.00004980128725900 a2_x1
+0.00479412659780015 a3_x1
+0.99998780688698441 a4_x1
+0.00083664412749299 short_1
-0.00083664412749299 surp_1
= 50.706682

coupling_2: 
+0.00000087155652008 a1_x2
+0.00004136692701373 a2_x2
+0.00428045586420865 a3_x2
+0.99999031792298021 a4_x2
+0.00072112617108046 short_2
-0.00072112617108046 surp_2
= 23.899950

coupling_3: 
+0.00000062168720434 a1_x3
+0.00010411908532649 a2_x3
+0.00511230349796118 a3_x3
+0.99998627372785542 a4_x3
+0.00080804320820612 short_3
-0.00080804320820612 surp_3
= 60.443444

bounds
  0.000000 <= a1_x1 <= 100.000000
  0.000000 <= a1_x2 <= 100.000000
  0.000000 <= a1_x3 <= 100.000000
  0.000000 <= a1_x4 <= 100.000000
  0.000000 <= a1_x5 <= 100.000000
  0.000000 <= a1_x6 <= 100.000000
  0.000000 <= a2_x1 <= 100.000000
  0.000000 <= a2_x2 <= 100.000000
  0.000000 <= a2_x3 <= 100.000000
  0.000000 <= a2_x4 <= 100.000000
  0.000000 <= a2_x5 <= 100.000000
  0.000000 <= a2_x6 <= 100.000000
  0.000000 <= a3_x1 <= 100.000000
  0.000000 <= a3_x2 <= 100.000000
  0.000000 <= a3_x3 <= 100.000000
  0.000000 <= a3_x4 <= 100.000000
  0.000000 <= a3_x5 <= 100.000000
  0.000000 <= a3_x6 <= 100.000000
  0.000000 <= a4_x1 <= 100.000000
  0.000000 <= a4_x2 <= 100.000000
  0.000000 <= a4_x3 <= 100.000000
  0.000000 <= a4_x4 <= 100.000000
  0.000000 <= a4_x5 <= 100.000000
  0.000000 <= a4_x6 <= 100.000000
  0.000000 <= short_1 <= +inf
  0.000000 <= surp_1 <= +inf
  0.000000 <= short_2 <= +inf
  0.000000 <= surp_2 <= +inf
  0.000000 <= short_3 <= +inf
  0.000000 <= surp_3 <= +inf
 0 <= a1_z1 <= 1
 0 <= a1_z2 <= 1
 0 <= a2_z1 <= 1
 0 <= a2_z2 <= 1
 0 <= a3_z1 <= 1
 0 <= a3_z2 <= 1
 0 <= a4_z1 <= 1
 0 <= a4_z2 <= 1

binary
  a1_z1
  a1_z2
  a2_z1
  a2_z2
  a3_z1
  a3_z2
  a4_z1
  a4_z2
end
