min
obj: 
  +7.78207569299738466 a1_x1
  +2.62040292120299334 a1_x2
  +1.02293933329670939 a1_x3
  +7.19109322240713489 a1_x4
  +4.26327457704359070 a1_x5
  +6.02462654690972954 a1_x6
  +42.77102711119731282 a1_z1
  +28.11411837117618262 a1_z2
  +5.79112125901829966 a2_x1
  +5.43489317194582089 a2_x2
  +9.42596272358853859 a2_x3
  +8.92130525199075564 a2_x4
  +6.14845489869399664 a2_x5
  +2.14640938868183095 a2_x6
  +31.66094613130910673 a2_z1
  +6.98996133690631005 a2_z2
  +2.81862526144540748 a3_x1
  +1.36412059178846468 a3_x2
  +2.33366974601915000 a3_x3
  +2.45567759910651384 a3_x4
  +5.22782650613177147 a3_x5
  +6.66961894421152923 a3_x6
  +49.85791959361311854 a3_z1
  +30.64094479818616890 a3_z2
  +7.09948941464576322 a4_x1
  +9.56749156260526412 a4_x2
  +9.23547813869581802 a4_x3
  +8.94781396766327930 a4_x4
  +7.43389970639344355 a4_x5
  +1.79601697429660612 a4_x6
  +7.43041409826294341 a4_z1
  +14.53020430166953325 a4_z2
  +1000000.00000000000000000 short_1
  +1000000.00000000000000000 surp_1
  +1000000.00000000000000000 short_2
  +1000000.00000000000000000 surp_2
  +1000000.00000000000000000 short_3
  +1000000.00000000000000000 surp_3

s.t.

a1_local_1: 
+0.95481444815371730 a1_x4
+1.46705201016064590 a1_x6
+0.68163909191637828 a1_x3
<= 155.134012

a1_local_2: 
+1.18244517205215249 a1_x6
+0.82897500109521438 a1_x5
+1.20630899445560269 a1_x4
<= 170.495492

a1_local_3: 
+0.84399922378939274 a1_x4
+1.11357159617208179 a1_x2
+1.18483521289296245 a1_x3
<= 182.282873

a1_local_4: 
+1.19758523486506641 a1_x4
+0.79737307360439291 a1_x5
+1.25411809490840431 a1_x2
<= 165.564964

a1_local_5: 
+0.64105595642665647 a1_x2
+1.55992622792891966 a1_x5
+0.76083161689006562 a1_x4
<= 163.848332

a1_local_6: 
+1.21403828594119156 a1_x2
+1.40003140346869070 a1_x3
+0.71426969246719707 a1_x1
<= 180.408799

a1_local_7: 
+0.69192169838644424 a1_x5
+1.44525023905449368 a1_x2
+0.69543377360441838 a1_x6
<= 155.429650

a1_local_8: 
+0.38982050289274633 a1_x5
+0.69546091574024271 a1_x1
+0.50602461741944615 a1_x6
<= 97.777521

a1_act_1: 
+0.10000000000000001 a1_x1
-10.00000000000000000 a1_z1
<= 0.000000

a1_act_2: 
+0.10000000000000001 a1_x2
-10.00000000000000000 a1_z2
<= 0.000000

a2_local_1: 
+0.81848637660494350 a2_x6
+1.22176743386734099 a2_x4
+1.21543312631518052 a2_x3
<= 204.872075

a2_local_2: 
+0.80233495990818871 a2_x5
+1.11248951679732788 a2_x4
+1.67136026186222275 a2_x6
<= 162.706969

a2_local_3: 
+1.05329592614143341 a2_x4
+0.71248261481990205 a2_x5
+1.40354301873425413 a2_x3
<= 98.180901

a2_local_4: 
+0.59713733734977448 a2_x5
+0.58967684947922938 a2_x6
+1.69584408966223776 a2_x4
<= 107.699265

a2_local_5: 
+1.13459092532418415 a2_x4
+0.70649130278326999 a2_x2
+1.41544559155991401 a2_x3
<= 155.097291

a2_local_6: 
+1.06361368015279734 a2_x5
+0.94019099101502857 a2_x4
+0.96862832615074579 a2_x3
<= 112.470333

a2_local_7: 
+0.78957405229364686 a2_x1
+1.26650565212355093 a2_x6
+0.84616689981046300 a2_x4
<= 202.656546

a2_local_8: 
+1.26532847115316271 a2_x4
+1.17523426714088330 a2_x3
+0.79030862167247784 a2_x5
<= 123.815451

a2_act_1: 
+0.10000000000000001 a2_x1
-10.00000000000000000 a2_z1
<= 0.000000

a2_act_2: 
+0.09999999999999999 a2_x2
-10.00000000000000000 a2_z2
<= 0.000000

a3_local_1: 
+0.80844359286331824 a3_x6
+1.23694467842615152 a3_x2
+1.01886316006728239 a3_x1
<= 204.643722

a3_local_2: 
+1.33917282145482153 a3_x1
+0.90098794126553783 a3_x6
+0.74672961098003898 a3_x2
<= 204.883970

a3_local_3: 
+0.64630509300298711 a3_x6
+1.54725687732647676 a3_x5
+0.72827656365187821 a3_x3
<= 154.929131

a3_local_4: 
+1.40713861328755163 a3_x2
+0.64748981093283320 a3_x6
+1.54442584750377554 a3_x4
<= 152.653566

a3_local_5: 
+0.91630918724395705 a3_x1
+1.22186586872684200 a3_x5
+0.81842043844139645 a3_x3
<= 146.564112

a3_local_6: 
+0.92875587504695545 a3_x5
+1.09939612336072701 a3_x2
+0.90959025482381695 a3_x3
<= 151.380653

a3_local_7: 
+1.01386183764777638 a3_x2
+0.82907016165493708 a3_x3
+1.20617053447426437 a3_x1
<= 162.838736

a3_local_8: 
+1.46666857942566908 a3_x6
+0.68181729262352420 a3_x1
+1.19424259936885635 a3_x2
<= 152.062870

a3_act_1: 
+0.10000000000000001 a3_x1
-10.00000000000000000 a3_z1
<= 0.000000

a3_act_2: 
+0.09999999999999999 a3_x2
-9.99999999999999822 a3_z2
<= 0.000000

a4_local_1: 
+0.65971910537090339 a4_x1
+1.51579663505089179 a4_x6
+0.79997380034740884 a4_x5
<= 187.950887

a4_local_2: 
+1.45044259568023293 a4_x2
+0.68944472740819984 a4_x5
+1.35217358403012233 a4_x4
<= 234.773625

a4_local_3: 
+1.47738544751928536 a4_x6
+1.14917475825977755 a4_x2
+0.67687142964561131 a4_x5
<= 192.378328

a4_local_4: 
+1.25275092169875979 a4_x6
+0.76093814043862729 a4_x3
+1.31416727176215709 a4_x4
<= 210.720927

a4_local_5: 
+0.75743099510792988 a4_x5
+0.77052448154442177 a4_x2
+1.32025228233168002 a4_x3
<= 114.119623

a4_local_6: 
+1.07025709227159860 a4_x1
+0.91269666176352970 a4_x5
+1.09565427583331032 a4_x4
<= 169.768764

a4_local_7: 
+0.72070036033487961 a4_x6
+1.38753919803140002 a4_x3
+1.14872764953857964 a4_x2
<= 195.827112

a4_local_8: 
+0.89093688456836273 a4_x3
+1.41179950563884793 a4_x6
+0.70831587346922464 a4_x4
<= 108.521300

a4_act_1: 
+0.10000000000000001 a4_x1
-10.00000000000000000 a4_z1
<= 0.000000

a4_act_2: 
+0.09999999999999999 a4_x2
-10.00000000000000000 a4_z2
<= 0.000000

coupling_1: 
+0.00000151542435396 a1_x1
+0.00018952688519249 a2_x1
+0.01525373892554834 a3_x1
+0.99988126924794263 a4_x1
+0.00153865739814198 short_1
-0.00153865739814198 surp_1
= 71.899028

coupling_2: 
+0.00000141534191430 a1_x2
+0.00012582006156409 a2_x2
+0.01323495828723022 a3_x2
+0.99991137969555499 a4_x2
+0.00101311444950038 short_2
-0.00101311444950038 surp_2
= 28.374141

coupling_3: 
+0.00000224242643851 a1_x3
+0.00015784840449232 a2_x3
+0.01012074779908966 a3_x3
+0.99994509336106319 a4_x3
+0.00191778595965351 short_3
-0.00191778595965351 surp_3
= 22.656717

bounds
  0.000000 <= a1_x1 <= 100.000000
  0.000000 <= a1_x2 <= 100.000000
  0.000000 <= a1_x3 <= 100.000000
  0.000000 <= a1_x4 <= 100.000000
  0.000000 <= a1_x5 <= 100.000000
  0.000000 <= a1_x6 <= 100.000000
  0.000000 <= a2_x1 <= 100.000000
  0.000000 <= a2_x2 <= 100.000000
  0.000000 <= a2_x3 <= 100.000000
  0.000000 <= a2_x4 <= 100.000000
  0.000000 <= a2_x5 <= 100.000000
  0.000000 <= a2_x6 <= 100.000000
  0.000000 <= a3_x1 <= 100.000000
  0.000000 <= a3_x2 <= 100.000000
  0.000000 <= a3_x3 <= 100.000000
  0.000000 <= a3_x4 <= 100.000000
  0.000000 <= a3_x5 <= 100.000000
  0.000000 <= a3_x6 <= 100.000000
  0.000000 <= a4_x1 <= 100.000000
  0.000000 <= a4_x2 <= 100.000000
  0.000000 <= a4_x3 <= 100.000000
  0.000000 <= a4_x4 <= 100.000000
  0.000000 <= a4_x5 <= 100.000000
  0.000000 <= a4_x6 <= 100.000000
  0.000000 <= short_1 <= +inf
  0.000000 <= surp_1 <= +inf
  0.000000 <= short_2 <= +inf
  0.000000 <= surp_2 <= +inf
  0.000000 <= short_3 <= +inf
  0.000000 <= surp_3 <= +inf
 0 <= a1_z1 <= 1
 0 <= a1_z2 <= 1
 0 <= a2_z1 <= 1
 0 <= a2_z2 <= 1
 0 <= a3_z1 <= 1
 0 <= a3_z2 <= 1
 0 <= a4_z1 <= 1
 0 <= a4_z2 <= 1

binary
  a1_z1
  a1_z2
  a2_z1
  a2_z2
  a3_z1
  a3_z2
  a4_z1
  a4_z2
end
