min
obj: 
  +1.57709742578195788 a1_x1
  +5.24362332399284625 a1_x2
  +8.06959664561268042 a1_x3
  +3.47810228856863679 a1_x4
  +9.41205830682384104 a1_x5
  +8.31656886029670339 a1_x6
  +34.00140095985545230 a1_z1
  +10.41050343041974102 a1_z2
  +6.47735542906473949 a2_x1
  +9.58339357562265626 a2_x2
  +2.02682747423036602 a2_x3
  +2.51463833389198177 a2_x4
  +5.97191591647550446 a2_x5
  +2.17528344053247569 a2_x6
  +46.82093948760606850 a2_z1
  +31.11983884228734354 a2_z2
  +4.28980261171450117 a3_x1
  +6.29719392465862082 a3_x2
  +7.08124523691182794 a3_x3
  +4.94719983508523597 a3_x4
  +8.06509947106787273 a3_x5
  +5.84368483176889342 a3_x6
  +45.40847242123220440 a3_z1
  +47.68543785744964225 a3_z2
  +7.67454901318721916 a4_x1
  +9.54472766156331787 a4_x2
  +6.46859462349116754 a4_x3
  +6.10471800911878315 a4_x4
  +9.00917261972195327 a4_x5
  +9.20424430287105189 a4_x6
  +10.38795682780166985 a4_z1
  +22.65518679594919149 a4_z2
  +1000000.00000000000000000 short_1
  +1000000.00000000000000000 surp_1
  +1000000.00000000000000000 short_2
  +1000000.00000000000000000 surp_2
  +1000000.00000000000000000 short_3
  +1000000.00000000000000000 surp_3

s.t.

a1_local_1: 
+65.55987573685061420 a1_x1
+67.02323922316968208 a1_x6
+40.87741038387091663 a1_x5
<= 9124.562897

a1_local_2: 
+0.00000009367203316 a1_x5
+0.00000005166060409 a1_x4
+0.00000014583742010 a1_x1
<= 0.000009

a1_local_3: 
+0.00000840303787068 a1_x2
+0.00001199913036206 a1_x3
+0.00000738427474247 a1_x5
<= 0.001093

a1_local_4: 
+31.28291040197904849 a1_x2
+25.00338447623087745 a1_x4
+11.46236510735310610 a1_x1
<= 3406.426331

a1_local_5: 
+312.50953048124529232 a1_x1
+199.07897539312142499 a1_x3
+356.99776301971206749 a1_x2
<= 33720.718980

a1_local_6: 
+0.08927360395230816 a1_x3
+0.07135725199627924 a1_x4
+0.06113748423946822 a1_x2
<= 9.309876

a1_local_7: 
+7.16139611017467725 a1_x1
+4.46670274925705346 a1_x4
+6.16982574581425247 a1_x3
<= 986.484298

a1_local_8: 
+0.00000041522350428 a1_x3
+0.00000026747228713 a1_x2
+0.00000036794417386 a1_x5
<= 0.000048

a1_act_1: 
+39.69966466158268759 a1_x1
-3969.96646615826875859 a1_z1
<= 0.000000

a1_act_2: 
+9.28533059558000140 a1_x2
-928.53305955800010452 a1_z2
<= 0.000000

a2_local_1: 
+0.14661820236980969 a2_x3
+0.25257974188838334 a2_x6
+0.25259843873855659 a2_x4
<= 36.214545

a2_local_2: 
+125063.86838172169518657 a2_x6
+51728.63880592329951469 a2_x4
+116386.36996891521266662 a2_x2
<= 15753831.014210

a2_local_3: 
+23.99180179817724579 a2_x4
+34.29626892573020314 a2_x5
+41.39479799535096305 a2_x2
<= 4506.031261

a2_local_4: 
+0.00000271383333604 a2_x6
+0.00000308267143862 a2_x5
+0.00000218640544590 a2_x1
<= 0.000266

a2_local_5: 
+0.84973289704978339 a2_x6
+0.85933583192992846 a2_x5
+0.81304898779583756 a2_x2
<= 99.313296

a2_local_6: 
+0.18283566493345493 a2_x1
+0.12648316848944693 a2_x6
+0.22205222370167763 a2_x3
<= 27.247093

a2_local_7: 
+35.13988271298376986 a2_x2
+38.88855725369204919 a2_x4
+54.28689137732291670 a2_x5
<= 6759.694937

a2_local_8: 
+0.00000013755457383 a2_x4
+0.00000014034235007 a2_x3
+0.00000017221934991 a2_x2
<= 0.000014

a2_act_1: 
+5410.27218313517278148 a2_x1
-541027.21831351728178561 a2_z1
<= 0.000000

a2_act_2: 
+21.33812706094392198 a2_x2
-2133.81270609439206964 a2_z2
<= 0.000000

a3_local_1: 
+0.00012903988377699 a3_x3
+0.00011371930879728 a3_x4
+0.00014792403545930 a3_x2
<= 0.021706

a3_local_2: 
+8.85014286035665521 a3_x3
+10.66125587186491153 a3_x4
+15.59331207183242007 a3_x6
<= 2295.421676

a3_local_3: 
+1075188.85568842035718262 a3_x2
+1714841.52088679349981248 a3_x3
+1041154.79092175513505936 a3_x5
<= 144193600.236603

a3_local_4: 
+0.34215662763724686 a3_x2
+0.56067605109604890 a3_x5
+0.49396146296362747 a3_x3
<= 73.326258

a3_local_5: 
+537723.05727207171730697 a3_x2
+264601.08501147653441876 a3_x5
+575124.31863094842992723 a3_x3
<= 86070205.203287

a3_local_6: 
+91250.92287802419741638 a3_x5
+78308.75650083099026233 a3_x6
+88026.22785300068790093 a3_x1
<= 13590388.162111

a3_local_7: 
+208.54268712587176537 a3_x3
+240.98867515914756154 a3_x5
+204.62627050176149623 a3_x2
<= 38497.627517

a3_local_8: 
+324.61904301324881317 a3_x5
+495.70945648792104521 a3_x3
+331.08724141591886792 a3_x2
<= 64129.322041

a3_act_1: 
+1.77999737840251049 a3_x1
-177.99973784025104351 a3_z1
<= 0.000000

a3_act_2: 
+175353.02261030816589482 a3_x2
-17535302.26103081554174423 a3_z2
<= 0.000000

a4_local_1: 
+0.00250780839620520 a4_x6
+0.00279690880141514 a4_x1
+0.00249045637358776 a4_x3
<= 0.291184

a4_local_2: 
+18073059.28261945396661758 a4_x2
+30143392.79015288129448891 a4_x4
+20041844.53865261748433113 a4_x6
<= 3834761085.541160

a4_local_3: 
+7929.84744834448338224 a4_x3
+6019.58380550214133109 a4_x2
+11805.13277673969423631 a4_x1
<= 777445.161487

a4_local_4: 
+88530.50548701582010835 a4_x3
+133554.93852274556411430 a4_x5
+137180.45414484580396675 a4_x2
<= 22093250.670618

a4_local_5: 
+6693.91220538385005057 a4_x3
+6904.09765325806893088 a4_x2
+5404.92961437211943121 a4_x1
<= 1048053.748540

a4_local_6: 
+6328850.95225332770496607 a4_x5
+2310526.39573454158380628 a4_x1
+5788564.79429114516824484 a4_x6
<= 686218187.334384

a4_local_7: 
+305988.17781697970349342 a4_x6
+165063.44569508702261373 a4_x3
+258343.46380951392347924 a4_x2
<= 48708835.811920

a4_local_8: 
+0.03897958251946415 a4_x2
+0.04621784829325479 a4_x6
+0.06806153220497543 a4_x5
<= 7.780546

a4_act_1: 
+25691.18053086210420588 a4_x1
-2569118.05308621050789952 a4_z1
<= 0.000000

a4_act_2: 
+0.00382720681320619 a4_x2
-0.38272068132061932 a4_z2
<= 0.000000

coupling_1: 
+0.03100012812777607 a1_x1
+4.60515345353734062 a2_x1
+404.77504384162472206 a3_x1
+43604.51483677343640011 a4_x1
+31.05523259881258014 short_1
-31.05523259881258014 surp_1
= 3246088.464832

coupling_2: 
+0.00000001935066534 a1_x2
+0.00000160455593719 a2_x2
+0.00025945006005280 a3_x2
+0.02393304699853760 a4_x2
+0.00002130996472771 short_2
-0.00002130996472771 surp_2
= 0.871525

coupling_3: 
+0.00000008571347091 a1_x3
+0.00000566681361654 a2_x3
+0.00045505857661062 a3_x3
+0.05903475672849026 a4_x3
+0.00006904340561972 short_3
-0.00006904340561972 surp_3
= 3.472868

bounds
  0.000000 <= a1_x1 <= 100.000000
  0.000000 <= a1_x2 <= 100.000000
  0.000000 <= a1_x3 <= 100.000000
  0.000000 <= a1_x4 <= 100.000000
  0.000000 <= a1_x5 <= 100.000000
  0.000000 <= a1_x6 <= 100.000000
  0.000000 <= a2_x1 <= 100.000000
  0.000000 <= a2_x2 <= 100.000000
  0.000000 <= a2_x3 <= 100.000000
  0.000000 <= a2_x4 <= 100.000000
  0.000000 <= a2_x5 <= 100.000000
  0.000000 <= a2_x6 <= 100.000000
  0.000000 <= a3_x1 <= 100.000000
  0.000000 <= a3_x2 <= 100.000000
  0.000000 <= a3_x3 <= 100.000000
  0.000000 <= a3_x4 <= 100.000000
  0.000000 <= a3_x5 <= 100.000000
  0.000000 <= a3_x6 <= 100.000000
  0.000000 <= a4_x1 <= 100.000000
  0.000000 <= a4_x2 <= 100.000000
  0.000000 <= a4_x3 <= 100.000000
  0.000000 <= a4_x4 <= 100.000000
  0.000000 <= a4_x5 <= 100.000000
  0.000000 <= a4_x6 <= 100.000000
  0.000000 <= short_1 <= +inf
  0.000000 <= surp_1 <= +inf
  0.000000 <= short_2 <= +inf
  0.000000 <= surp_2 <= +inf
  0.000000 <= short_3 <= +inf
  0.000000 <= surp_3 <= +inf
 0 <= a1_z1 <= 1
 0 <= a1_z2 <= 1
 0 <= a2_z1 <= 1
 0 <= a2_z2 <= 1
 0 <= a3_z1 <= 1
 0 <= a3_z2 <= 1
 0 <= a4_z1 <= 1
 0 <= a4_z2 <= 1

binary
  a1_z1
  a1_z2
  a2_z1
  a2_z2
  a3_z1
  a3_z2
  a4_z1
  a4_z2
end
