min
obj: 
  +9.92789069156587445 a1_x1
  +4.10293210566149646 a1_x2
  +3.32901181929639423 a1_x3
  +9.10176472428019245 a1_x4
  +1.02767819950250816 a1_x5
  +7.50152284301075145 a1_x6
  +48.47610588570461232 a1_z1
  +46.46239370281180214 a1_z2
  +3.18500776910177885 a2_x1
  +1.07942930179392071 a2_x2
  +3.49956447593909603 a2_x3
  +4.21239525423910788 a2_x4
  +5.82517656009187501 a2_x5
  +3.89342540667494053 a2_x6
  +48.49908581708631061 a2_z1
  +41.13663869847970034 a2_z2
  +2.67192419795283609 a3_x1
  +3.86821883222705321 a3_x2
  +5.91403436703844054 a3_x3
  +8.81180590098727734 a3_x4
  +5.97909561349352625 a3_x5
  +2.68685564033826729 a3_x6
  +5.18637677701330446 a3_z1
  +6.88066661844991856 a3_z2
  +1.28562252519206366 a4_x1
  +5.29948947704055140 a4_x2
  +9.02951063485292771 a4_x3
  +3.08226664425655672 a4_x4
  +2.19298535751718138 a4_x5
  +7.06762935071550480 a4_x6
  +41.57694264723444633 a4_z1
  +44.44096075316435446 a4_z2
  +1000000.00000000000000000 short_1
  +1000000.00000000000000000 surp_1
  +1000000.00000000000000000 short_2
  +1000000.00000000000000000 surp_2
  +1000000.00000000000000000 short_3
  +1000000.00000000000000000 surp_3

s.t.

a1_local_1: 
+0.00004030798831565 a1_x4
+0.00003920086716299 a1_x6
+0.00002730393330979 a1_x1
<= 0.004259

a1_local_2: 
+360.17760013467807312 a1_x6
+433.02926198914002498 a1_x5
+575.25354817962409015 a1_x4
<= 61032.047504

a1_local_3: 
+0.03711217129908484 a1_x3
+0.03001776219644310 a1_x1
+0.02447121848594673 a1_x6
<= 5.440188

a1_local_4: 
+0.00011900900910258 a1_x5
+0.00012562920598119 a1_x2
+0.00006744776899303 a1_x4
<= 0.013155

a1_local_5: 
+661.91981187144801879 a1_x4
+1301.98053040140644043 a1_x2
+802.73003727401874130 a1_x5
<= 165004.337311

a1_local_6: 
+113.32962057063267025 a1_x3
+106.93033560283576833 a1_x4
+55.73342887629606679 a1_x1
<= 10627.759012

a1_local_7: 
+0.00008840240691766 a1_x1
+0.00006595055355097 a1_x2
+0.00007592653337177 a1_x5
<= 0.012156

a1_local_8: 
+24.90555111018933587 a1_x5
+26.94982376695818971 a1_x2
+19.33000582759922636 a1_x4
<= 3231.848743

a1_act_1: 
+0.00021364355531852 a1_x1
-0.02136435553185177 a1_z1
<= 0.000000

a1_act_2: 
+0.00000966619922932 a1_x2
-0.00096661992293180 a1_z2
<= 0.000000

a2_local_1: 
+0.26008683810034511 a2_x6
+0.15855412276739669 a2_x4
+0.37396636825912638 a2_x1
<= 52.531028

a2_local_2: 
+0.00253373161717915 a2_x2
+0.00244665947139714 a2_x1
+0.00218457155137174 a2_x4
<= 0.399060

a2_local_3: 
+0.02023582655086800 a2_x3
+0.02081291695342342 a2_x4
+0.01054160991846228 a2_x5
<= 3.585187

a2_local_4: 
+6.06461930252828996 a2_x4
+10.39399410526680789 a2_x3
+10.50897669199528295 a2_x2
<= 998.314507

a2_local_5: 
+4.35472711217195840 a2_x1
+2.86763440929580904 a2_x4
+4.60834389013067636 a2_x2
<= 513.518245

a2_local_6: 
+0.00000010118732602 a2_x3
+0.00000020887216850 a2_x5
+0.00000015766521465 a2_x1
<= 0.000030

a2_local_7: 
+0.00000020956261112 a2_x3
+0.00000026923056396 a2_x6
+0.00000032161462024 a2_x4
<= 0.000053

a2_local_8: 
+0.62194496559138313 a2_x1
+1.13823052379000433 a2_x6
+1.07489814487581214 a2_x5
<= 166.478843

a2_act_1: 
+0.00093385961436546 a2_x1
-0.09338596143654594 a2_z1
<= 0.000000

a2_act_2: 
+19833.15161330121918581 a2_x2
-1983315.16133012203499675 a2_z2
<= 0.000000

a3_local_1: 
+414892.51806292490800843 a3_x1
+367319.05916863185120746 a3_x4
+176045.48572281879023649 a3_x2
<= 36902823.530720

a3_local_2: 
+2053.18141915708429224 a3_x6
+3707.34306682730812099 a3_x4
+3173.24918051399208707 a3_x1
<= 347626.508876

a3_local_3: 
+5902861.17114107124507427 a3_x2
+3625139.59550279006361961 a3_x3
+3027897.33736794488504529 a3_x5
<= 656850800.498782

a3_local_4: 
+0.03525676786807814 a3_x5
+0.06352614038665312 a3_x1
+0.05247547969056666 a3_x6
<= 6.765315

a3_local_5: 
+3334253.73216169234365225 a3_x6
+2323594.34978574980050325 a3_x3
+4314560.58819612115621567 a3_x1
<= 379818093.472390

a3_local_6: 
+0.00002876992543715 a3_x2
+0.00003537183272057 a3_x6
+0.00003005395711061 a3_x4
<= 0.003886

a3_local_7: 
+0.00936445004641612 a3_x2
+0.00441867286272129 a3_x5
+0.00994985738511809 a3_x4
<= 1.259413

a3_local_8: 
+133.45079487220675674 a3_x2
+143.68158072972227046 a3_x1
+93.40509669829326356 a3_x5
<= 23022.168666

a3_act_1: 
+826.00074869091872642 a3_x1
-82600.07486909186991397 a3_z1
<= 0.000000

a3_act_2: 
+0.00008419943566907 a3_x2
-0.00841994356690675 a3_z2
<= 0.000000

a4_local_1: 
+577945.76254486350808293 a4_x2
+259413.31820250707096420 a4_x6
+559151.42503718752413988 a4_x5
<= 91809316.457090

a4_local_2: 
+16044695.36372675374150276 a4_x3
+40652698.80596907436847687 a4_x5
+32821871.63102761283516884 a4_x1
<= 5153887936.584306

a4_local_3: 
+551.05759160969671484 a4_x4
+789.93384863519656847 a4_x3
+690.28188524249526381 a4_x6
<= 124690.460966

a4_local_4: 
+63.30814047470272499 a4_x5
+41.44462967885088744 a4_x1
+41.70516278016317102 a4_x4
<= 7062.687388

a4_local_5: 
+106986.28317943627189379 a4_x5
+191903.45118412413285114 a4_x6
+102160.91847643730579875 a4_x1
<= 24695487.672702

a4_local_6: 
+301524.48638468468561769 a4_x4
+301467.45767974085174501 a4_x3
+260375.80263232471770607 a4_x2
<= 36043780.863328

a4_local_7: 
+2.00336646191028178 a4_x3
+3.19750379025186415 a4_x6
+1.53908320213224337 a4_x1
<= 409.826382

a4_local_8: 
+794492119.97717654705047607 a4_x3
+823543244.77039682865142822 a4_x2
+890821955.04570174217224121 a4_x6
<= 95370799085.065201

a4_act_1: 
+0.15616070134083881 a4_x1
-15.61607013408388056 a4_z1
<= 0.000000

a4_act_2: 
+777614.77249609329737723 a4_x2
-77761477.24960933625698090 a4_z2
<= 0.000000

coupling_1: 
+0.00000001885911363 a1_x1
+0.00000242338659174 a2_x1
+0.00021598737462527 a3_x1
+0.02228191977165811 a4_x1
+0.00001939835680047 short_1
-0.00001939835680047 surp_1
= 0.656881

coupling_2: 
+107.90392522146902365 a1_x2
+8284.73612824258816545 a2_x2
+1925659.77750799991190434 a3_x2
+82906337.67865170538425446 a4_x2
+150416.54789201117819175 short_2
-150416.54789201117819175 surp_2
= 4769946718.095265

coupling_3: 
+0.01129810642134031 a1_x3
+0.84185387009970658 a2_x3
+145.92415042608266162 a3_x3
+21028.71427605271674111 a4_x3
+14.56773171931791033 short_3
-14.56773171931791033 surp_3
= 751004.128181

bounds
  0.000000 <= a1_x1 <= 100.000000
  0.000000 <= a1_x2 <= 100.000000
  0.000000 <= a1_x3 <= 100.000000
  0.000000 <= a1_x4 <= 100.000000
  0.000000 <= a1_x5 <= 100.000000
  0.000000 <= a1_x6 <= 100.000000
  0.000000 <= a2_x1 <= 100.000000
  0.000000 <= a2_x2 <= 100.000000
  0.000000 <= a2_x3 <= 100.000000
  0.000000 <= a2_x4 <= 100.000000
  0.000000 <= a2_x5 <= 100.000000
  0.000000 <= a2_x6 <= 100.000000
  0.000000 <= a3_x1 <= 100.000000
  0.000000 <= a3_x2 <= 100.000000
  0.000000 <= a3_x3 <= 100.000000
  0.000000 <= a3_x4 <= 100.000000
  0.000000 <= a3_x5 <= 100.000000
  0.000000 <= a3_x6 <= 100.000000
  0.000000 <= a4_x1 <= 100.000000
  0.000000 <= a4_x2 <= 100.000000
  0.000000 <= a4_x3 <= 100.000000
  0.000000 <= a4_x4 <= 100.000000
  0.000000 <= a4_x5 <= 100.000000
  0.000000 <= a4_x6 <= 100.000000
  0.000000 <= short_1 <= +inf
  0.000000 <= surp_1 <= +inf
  0.000000 <= short_2 <= +inf
  0.000000 <= surp_2 <= +inf
  0.000000 <= short_3 <= +inf
  0.000000 <= surp_3 <= +inf
 0 <= a1_z1 <= 1
 0 <= a1_z2 <= 1
 0 <= a2_z1 <= 1
 0 <= a2_z2 <= 1
 0 <= a3_z1 <= 1
 0 <= a3_z2 <= 1
 0 <= a4_z1 <= 1
 0 <= a4_z2 <= 1

binary
  a1_z1
  a1_z2
  a2_z1
  a2_z2
  a3_z1
  a3_z2
  a4_z1
  a4_z2
end
