min
obj: 
  +7.78207569299738466 a1_x1
  +2.62040292120299334 a1_x2
  +1.02293933329670939 a1_x3
  +7.19109322240713489 a1_x4
  +4.26327457704359070 a1_x5
  +6.02462654690972954 a1_x6
  +42.77102711119731282 a1_z1
  +28.11411837117618262 a1_z2
  +5.79112125901829966 a2_x1
  +5.43489317194582089 a2_x2
  +9.42596272358853859 a2_x3
  +8.92130525199075564 a2_x4
  +6.14845489869399664 a2_x5
  +2.14640938868183095 a2_x6
  +31.66094613130910673 a2_z1
  +6.98996133690631005 a2_z2
  +2.81862526144540748 a3_x1
  +1.36412059178846468 a3_x2
  +2.33366974601915000 a3_x3
  +2.45567759910651384 a3_x4
  +5.22782650613177147 a3_x5
  +6.66961894421152923 a3_x6
  +49.85791959361311854 a3_z1
  +30.64094479818616890 a3_z2
  +7.09948941464576322 a4_x1
  +9.56749156260526412 a4_x2
  +9.23547813869581802 a4_x3
  +8.94781396766327930 a4_x4
  +7.43389970639344355 a4_x5
  +1.79601697429660612 a4_x6
  +7.43041409826294341 a4_z1
  +14.53020430166953325 a4_z2
  +1000000.00000000000000000 short_1
  +1000000.00000000000000000 surp_1
  +1000000.00000000000000000 short_2
  +1000000.00000000000000000 surp_2
  +1000000.00000000000000000 short_3
  +1000000.00000000000000000 surp_3

s.t.

a1_local_1: 
+37.82778167978778328 a1_x4
+58.12157876387353639 a1_x6
+27.00513676063519242 a1_x3
<= 6146.090017

a1_local_2: 
+0.00006599545165966 a1_x6
+0.00004626732884105 a1_x5
+0.00006732735589933 a1_x4
<= 0.009516

a1_local_3: 
+6.29296686849324516 a1_x4
+8.30293318155314708 a1_x2
+8.83428388225640937 a1_x3
<= 1359.124566

a1_local_4: 
+0.00002093377995420 a1_x4
+0.00001393807470090 a1_x5
+0.00002192197387800 a1_x2
<= 0.002894

a1_local_5: 
+0.12355887652284446 a1_x2
+0.30066444317247010 a1_x5
+0.14664476456939554 a1_x4
<= 31.580575

a1_local_6: 
+6.76317465078969082 a1_x2
+7.79930666758859381 a1_x3
+3.97905958474484001 a1_x1
<= 1005.022847

a1_local_7: 
+106.65966882020376261 a1_x5
+222.78519696571007103 a1_x2
+107.20105490549971705 a1_x6
<= 23959.466857

a1_local_8: 
+0.38982050289274633 a1_x5
+0.69546091574024271 a1_x1
+0.50602461741944615 a1_x6
<= 97.777521

a1_act_1: 
+7.52113787054972516 a1_x1
-752.11378705497247665 a1_z1
<= 0.000000

a1_act_2: 
+133684.08856022861436941 a1_x2
-13368408.85602286085486412 a1_z2
<= 0.000000

a2_local_1: 
+0.00000072232372046 a2_x6
+0.00000107822393090 a2_x4
+0.00000107263383102 a2_x3
<= 0.000181

a2_local_2: 
+0.80233495990818871 a2_x5
+1.11248951679732788 a2_x4
+1.67136026186222275 a2_x6
<= 162.706969

a2_local_3: 
+0.00274994475413069 a2_x4
+0.00186014944177257 a2_x5
+0.00366436978039423 a2_x3
<= 0.256331

a2_local_4: 
+0.05378140568816173 a2_x5
+0.05310947395704913 a2_x6
+0.15273685510067622 a2_x4
<= 9.699976

a2_local_5: 
+3.98611453274184102 a2_x4
+2.48208864219097736 a2_x2
+4.97283039806636307 a2_x3
<= 544.897331

a2_local_6: 
+0.00777420752979175 a2_x5
+0.00687208148802803 a2_x4
+0.00707993679213388 a2_x3
<= 0.822073

a2_local_7: 
+46255.08670734701445326 a2_x1
+74194.85048190620727837 a2_x6
+49570.42750572023942368 a2_x4
<= 11872092.375341

a2_local_8: 
+0.00000392359284232 a2_x4
+0.00000364422429727 a2_x3
+0.00000245062789775 a2_x5
<= 0.000384

a2_act_1: 
+421.10662114422365221 a2_x1
-42110.66211442236817675 a2_z1
<= 0.000000

a2_act_2: 
+0.00032430849539006 a2_x2
-0.03243084953900593 a2_z2
<= 0.000000

a3_local_1: 
+38775.03251850746892160 a3_x6
+59327.04588541122211609 a3_x2
+48867.29576716111478163 a3_x1
<= 9815238.856251

a3_local_2: 
+43.15562848431583376 a3_x1
+29.03486408861223822 a3_x6
+24.06379905073321268 a3_x2
<= 6602.505943

a3_local_3: 
+0.24958284285234769 a3_x6
+0.59750228529330729 a3_x5
+0.28123766485333024 a3_x3
<= 59.828792

a3_local_4: 
+17172.85739187195213162 a3_x2
+7902.02904023886367213 a3_x6
+18848.32423831968844752 a3_x4
<= 1862999.060655

a3_local_5: 
+0.00004456973830072 a3_x1
+0.00005943216849275 a3_x5
+0.00003980838047800 a3_x3
<= 0.007129

a3_local_6: 
+178904.46489799892879091 a3_x5
+211774.56901776403537951 a3_x2
+175212.62819194793701172 a3_x3
<= 29160165.190375

a3_local_7: 
+3.28580583675179927 a3_x2
+2.68691795576681480 a3_x3
+3.90905548973866868 a3_x1
<= 527.741008

a3_local_8: 
+102.84207163521740824 a3_x6
+47.80868959337526292 a3_x1
+83.73969735017740845 a3_x2
<= 10662.572845

a3_act_1: 
+0.00096353767655553 a3_x1
-0.09635376765555276 a3_z1
<= 0.000000

a3_act_2: 
+0.00038953720416157 a3_x2
-0.03895372041615673 a3_z2
<= 0.000000

a4_local_1: 
+16002888.06779615394771099 a4_x1
+36768866.75977616012096405 a4_x6
+19405063.57919055223464966 a4_x5
<= 4559147940.415130

a4_local_2: 
+7028169.69070158805698156 a4_x2
+3340728.23772240057587624 a4_x5
+6552003.80087496992200613 a4_x4
<= 1137603706.747342

a4_local_3: 
+4580755.76256474945694208 a4_x6
+3563111.37687967065721750 a4_x2
+2098695.84614552697166800 a4_x5
<= 596484915.176518

a4_local_4: 
+273663.93727357790339738 a4_x6
+166227.23953113469178788 a4_x3
+287080.36338047741446644 a4_x4
<= 46032070.251704

a4_local_5: 
+14366.36919074847355660 a4_x5
+14614.71638191919737437 a4_x2
+25041.53095847691656672 a4_x3
<= 2164533.330054

a4_local_6: 
+5203284.50297513697296381 a4_x1
+4437270.66175437998026609 a4_x5
+5326758.36042502056807280 a4_x4
<= 825367273.020183

a4_local_7: 
+0.04201783058890889 a4_x6
+0.08089545970431267 a4_x3
+0.06697241520550906 a4_x2
<= 11.416992

a4_local_8: 
+168996.58366706504602917 a4_x3
+267795.95435809949412942 a4_x6
+134356.27691118125221692 a4_x4
<= 20584767.778324

a4_act_1: 
+270.67735686498156156 a4_x1
-27067.73568649815570097 a4_z1
<= 0.000000

a4_act_2: 
+0.83645193683873353 a4_x2
-83.64519368387335874 a4_z2
<= 0.000000

coupling_1: 
+3.02071033957895541 a1_x1
+377.78581308409229678 a2_x1
+30405.42853172573086340 a3_x1
+1993073.21442415821366012 a4_x1
+3067.02099612179608812 short_1
-3067.02099612179608812 surp_1
= 143317043.560855

coupling_2: 
+0.00000504133255504 a1_x2
+0.00044816080554879 a2_x2
+0.04714184283233838 a3_x2
+3.56160284640680525 a4_x2
+0.00360863110506360 short_2
-0.00360863110506360 surp_2
= 101.066379

coupling_3: 
+0.00130428665608253 a1_x3
+0.09181106863850534 a2_x3
+5.88663961377211820 a3_x3
+581.60884106861692544 a4_x3
+1.11546251570934163 short_3
-1.11546251570934163 surp_3
= 13178.070197

bounds
  0.000000 <= a1_x1 <= 100.000000
  0.000000 <= a1_x2 <= 100.000000
  0.000000 <= a1_x3 <= 100.000000
  0.000000 <= a1_x4 <= 100.000000
  0.000000 <= a1_x5 <= 100.000000
  0.000000 <= a1_x6 <= 100.000000
  0.000000 <= a2_x1 <= 100.000000
  0.000000 <= a2_x2 <= 100.000000
  0.000000 <= a2_x3 <= 100.000000
  0.000000 <= a2_x4 <= 100.000000
  0.000000 <= a2_x5 <= 100.000000
  0.000000 <= a2_x6 <= 100.000000
  0.000000 <= a3_x1 <= 100.000000
  0.000000 <= a3_x2 <= 100.000000
  0.000000 <= a3_x3 <= 100.000000
  0.000000 <= a3_x4 <= 100.000000
  0.000000 <= a3_x5 <= 100.000000
  0.000000 <= a3_x6 <= 100.000000
  0.000000 <= a4_x1 <= 100.000000
  0.000000 <= a4_x2 <= 100.000000
  0.000000 <= a4_x3 <= 100.000000
  0.000000 <= a4_x4 <= 100.000000
  0.000000 <= a4_x5 <= 100.000000
  0.000000 <= a4_x6 <= 100.000000
  0.000000 <= short_1 <= +inf
  0.000000 <= surp_1 <= +inf
  0.000000 <= short_2 <= +inf
  0.000000 <= surp_2 <= +inf
  0.000000 <= short_3 <= +inf
  0.000000 <= surp_3 <= +inf
 0 <= a1_z1 <= 1
 0 <= a1_z2 <= 1
 0 <= a2_z1 <= 1
 0 <= a2_z2 <= 1
 0 <= a3_z1 <= 1
 0 <= a3_z2 <= 1
 0 <= a4_z1 <= 1
 0 <= a4_z2 <= 1

binary
  a1_z1
  a1_z2
  a2_z1
  a2_z2
  a3_z1
  a3_z2
  a4_z1
  a4_z2
end
