min
obj: 
  +2.37029411872895501 a1_x1
  +4.08711411622905185 a1_x2
  +7.66136637275760890 a1_x3
  +4.89991689432673461 a1_x4
  +9.18560754331382867 a1_x5
  +7.80552329567271030 a1_x6
  +17.43087311454965516 a1_z1
  +23.40237872614093462 a1_z2
  +7.76967499598976019 a2_x1
  +1.80336421538305247 a2_x2
  +9.57158160013941384 a2_x3
  +5.65827493894111466 a2_x4
  +2.44173723344263127 a2_x5
  +7.27299337053102857 a2_x6
  +31.32172731425238510 a2_z1
  +17.35876123031728824 a2_z2
  +2.34937597507828766 a3_x1
  +3.44404861330662637 a3_x2
  +8.97236298110027342 a3_x3
  +1.18282410761081147 a3_x4
  +8.94329086748358293 a3_x5
  +1.71905082189577563 a3_x6
  +16.00176469749968788 a3_z1
  +34.61198408971173990 a3_z2
  +6.56106695092732561 a4_x1
  +3.99053598556514322 a4_x2
  +4.10040873738996048 a4_x3
  +4.88744804784333908 a4_x4
  +2.91326732486744788 a4_x5
  +5.36841797601257653 a4_x6
  +43.70048480327027818 a4_z1
  +7.09598516541455737 a4_z2
  +1000000.00000000000000000 short_1
  +1000000.00000000000000000 surp_1
  +1000000.00000000000000000 short_2
  +1000000.00000000000000000 surp_2
  +1000000.00000000000000000 short_3
  +1000000.00000000000000000 surp_3

s.t.

a1_local_1: 
+817.19665709722153224 a1_x3
+587.29532006137833378 a1_x2
+326.49074821318703243 a1_x1
<= 121079.678043

a1_local_2: 
+0.00000001885486690 a1_x6
+0.00000001121195682 a1_x3
+0.00000001102959907 a1_x2
<= 0.000001

a1_local_3: 
+45.30449877846420037 a1_x4
+52.40466340162123515 a1_x3
+37.96114633154512319 a1_x6
<= 4175.754603

a1_local_4: 
+0.64081882809391288 a1_x5
+1.21013710644367034 a1_x3
+0.58246970166336487 a1_x6
<= 131.231350

a1_local_5: 
+0.55119769666649032 a1_x3
+0.41735044904293245 a1_x5
+0.22101848813369857 a1_x4
<= 72.106980

a1_local_6: 
+0.00221315894668021 a1_x3
+0.00159693696052178 a1_x1
+0.00121388875711672 a1_x6
<= 0.250111

a1_local_7: 
+0.00972419994194209 a1_x6
+0.01141196002858692 a1_x1
+0.01097217323509990 a1_x4
<= 1.477802

a1_local_8: 
+0.03414123916270767 a1_x3
+0.05200459597252341 a1_x2
+0.05571479971060152 a1_x4
<= 5.175209

a1_act_1: 
+116.90754449564420270 a1_x1
-11690.75444956441970135 a1_z1
<= 0.000000

a1_act_2: 
+29065.75676915334770456 a1_x2
-2906575.67691533453762531 a1_z2
<= 0.000000

a2_local_1: 
+2.62887501527755063 a2_x3
+3.07429118231080656 a2_x2
+1.52920736701796067 a2_x1
<= 458.060925

a2_local_2: 
+1.15758835623900924 a2_x6
+2.73718852081646258 a2_x2
+3.02473970317329899 a2_x1
<= 441.976939

a2_local_3: 
+0.00309024046588720 a2_x2
+0.00511172416527348 a2_x3
+0.00287562005383243 a2_x1
<= 0.618138

a2_local_4: 
+0.06553038732409146 a2_x1
+0.06283371281590353 a2_x4
+0.07466843107125848 a2_x5
<= 11.514679

a2_local_5: 
+0.34226725376765521 a2_x1
+0.51502778977282082 a2_x6
+0.46129867253637263 a2_x3
<= 40.806779

a2_local_6: 
+187.76113232355041305 a2_x1
+153.05446426750833666 a2_x6
+332.15675715406428026 a2_x2
<= 32814.494860

a2_local_7: 
+0.00000366136540155 a2_x3
+0.00000329325503798 a2_x2
+0.00000435185762102 a2_x4
<= 0.000465

a2_local_8: 
+0.18673062922818040 a2_x4
+0.09617935790560875 a2_x3
+0.16488443783690571 a2_x1
<= 27.068970

a2_act_1: 
+0.00656717356249348 a2_x1
-0.65671735624934802 a2_z1
<= 0.000000

a2_act_2: 
+33445.52508269175450550 a2_x2
-3344552.50826917542144656 a2_z2
<= 0.000000

a3_local_1: 
+982.71599638081238481 a3_x5
+660.35245917829013251 a3_x4
+1737.91684738499293417 a3_x2
<= 151760.708502

a3_local_2: 
+4557796.45570770557969809 a3_x4
+3296208.32684586104005575 a3_x5
+4666189.99708062689751387 a3_x3
<= 630221954.063708

a3_local_3: 
+0.00461029165681382 a3_x4
+0.00244084311917820 a3_x3
+0.00532045749442996 a3_x6
<= 0.524420

a3_local_4: 
+33391.16655014084244613 a3_x4
+35182.38941831515694503 a3_x5
+42906.78111010246357182 a3_x2
<= 6137119.225589

a3_local_5: 
+0.00005768035818611 a3_x4
+0.00002264707853480 a3_x6
+0.00004951980995180 a3_x5
<= 0.005344

a3_local_6: 
+12.84973243948836874 a3_x1
+12.31419667797048234 a3_x5
+13.87771237475691066 a3_x3
<= 1293.371931

a3_local_7: 
+0.01882480244933246 a3_x6
+0.01474376454447789 a3_x4
+0.02575494024624132 a3_x1
<= 2.236520

a3_local_8: 
+25.95715090715708584 a3_x4
+12.68376461019047063 a3_x2
+24.37174232548807851 a3_x1
<= 3985.495134

a3_act_1: 
+3801.41320667839454472 a3_x1
-380141.32066783943446353 a3_z1
<= 0.000000

a3_act_2: 
+0.00787136829421554 a3_x2
-0.78713682942155372 a3_z2
<= 0.000000

a4_local_1: 
+50614.69654179728968302 a4_x5
+63545.91787013388238847 a4_x2
+47791.80603694167075446 a4_x1
<= 10835479.875629

a4_local_2: 
+0.02728976627899945 a4_x4
+0.01496605567194819 a4_x2
+0.03115763255653851 a4_x6
<= 4.582814

a4_local_3: 
+13614.80169095975543314 a4_x1
+9720.69311343822664639 a4_x3
+10278.94880064176868473 a4_x6
<= 1665195.791343

a4_local_4: 
+90098.42136523978842888 a4_x3
+118781.74307443608995527 a4_x4
+97048.49688164361577947 a4_x1
<= 18467592.437426

a4_local_5: 
+5.67720554811552347 a4_x6
+5.86509385415636419 a4_x3
+3.10320348142333335 a4_x4
<= 700.560576

a4_local_6: 
+55.41047717377090720 a4_x5
+118.67990259121813779 a4_x4
+58.95975120505892875 a4_x2
<= 13050.528150

a4_local_7: 
+65725031.00692980736494064 a4_x6
+47667058.65534111112356186 a4_x2
+51178811.27185029536485672 a4_x4
<= 11138088480.980621

a4_local_8: 
+1735.40394900900514585 a4_x6
+2853.92344489831566534 a4_x2
+2802.54917521918150669 a4_x1
<= 267131.822230

a4_act_1: 
+0.00002264235936546 a4_x1
-0.00226423593654648 a4_z1
<= 0.000000

a4_act_2: 
+392426.06953591195633635 a4_x2
-39242606.95359119772911072 a4_z2
<= 0.000000

coupling_1: 
+0.00000045904925519 a1_x1
+0.00007450531231933 a2_x1
+0.00651046070242114 a3_x1
+0.72480920230570700 a4_x1
+0.00053799659908821 short_1
-0.00053799659908821 surp_1
= 15.311625

coupling_2: 
+0.01037107208436000 a1_x2
+1.51040807772499530 a2_x2
+129.54519612086144775 a3_x2
+13987.92029276946414029 a4_x2
+10.80533437225037474 short_2
-10.80533437225037474 surp_2
= 1108864.955993

coupling_3: 
+0.00000007864161016 a1_x3
+0.00000844085489526 a2_x3
+0.00170244141590631 a3_x3
+0.15374790697126689 a4_x3
+0.00012983188798458 short_3
-0.00012983188798458 surp_3
= 8.642075

bounds
  0.000000 <= a1_x1 <= 100.000000
  0.000000 <= a1_x2 <= 100.000000
  0.000000 <= a1_x3 <= 100.000000
  0.000000 <= a1_x4 <= 100.000000
  0.000000 <= a1_x5 <= 100.000000
  0.000000 <= a1_x6 <= 100.000000
  0.000000 <= a2_x1 <= 100.000000
  0.000000 <= a2_x2 <= 100.000000
  0.000000 <= a2_x3 <= 100.000000
  0.000000 <= a2_x4 <= 100.000000
  0.000000 <= a2_x5 <= 100.000000
  0.000000 <= a2_x6 <= 100.000000
  0.000000 <= a3_x1 <= 100.000000
  0.000000 <= a3_x2 <= 100.000000
  0.000000 <= a3_x3 <= 100.000000
  0.000000 <= a3_x4 <= 100.000000
  0.000000 <= a3_x5 <= 100.000000
  0.000000 <= a3_x6 <= 100.000000
  0.000000 <= a4_x1 <= 100.000000
  0.000000 <= a4_x2 <= 100.000000
  0.000000 <= a4_x3 <= 100.000000
  0.000000 <= a4_x4 <= 100.000000
  0.000000 <= a4_x5 <= 100.000000
  0.000000 <= a4_x6 <= 100.000000
  0.000000 <= short_1 <= +inf
  0.000000 <= surp_1 <= +inf
  0.000000 <= short_2 <= +inf
  0.000000 <= surp_2 <= +inf
  0.000000 <= short_3 <= +inf
  0.000000 <= surp_3 <= +inf
 0 <= a1_z1 <= 1
 0 <= a1_z2 <= 1
 0 <= a2_z1 <= 1
 0 <= a2_z2 <= 1
 0 <= a3_z1 <= 1
 0 <= a3_z2 <= 1
 0 <= a4_z1 <= 1
 0 <= a4_z2 <= 1

binary
  a1_z1
  a1_z2
  a2_z1
  a2_z2
  a3_z1
  a3_z2
  a4_z1
  a4_z2
end
