min
obj: 
  +1.57709742578195788 a1_x1
  +5.24362332399284625 a1_x2
  +8.06959664561268042 a1_x3
  +3.47810228856863679 a1_x4
  +9.41205830682384104 a1_x5
  +8.31656886029670339 a1_x6
  +34.00140095985545230 a1_z1
  +10.41050343041974102 a1_z2
  +6.47735542906473949 a2_x1
  +9.58339357562265626 a2_x2
  +2.02682747423036602 a2_x3
  +2.51463833389198177 a2_x4
  +5.97191591647550446 a2_x5
  +2.17528344053247569 a2_x6
  +46.82093948760606850 a2_z1
  +31.11983884228734354 a2_z2
  +4.28980261171450117 a3_x1
  +6.29719392465862082 a3_x2
  +7.08124523691182794 a3_x3
  +4.94719983508523597 a3_x4
  +8.06509947106787273 a3_x5
  +5.84368483176889342 a3_x6
  +45.40847242123220440 a3_z1
  +47.68543785744964225 a3_z2
  +7.67454901318721916 a4_x1
  +9.54472766156331787 a4_x2
  +6.46859462349116754 a4_x3
  +6.10471800911878315 a4_x4
  +9.00917261972195327 a4_x5
  +9.20424430287105189 a4_x6
  +10.38795682780166985 a4_z1
  +22.65518679594919149 a4_z2
  +1000000.00000000000000000 short_1
  +1000000.00000000000000000 surp_1
  +1000000.00000000000000000 short_2
  +1000000.00000000000000000 surp_2
  +1000000.00000000000000000 short_3
  +1000000.00000000000000000 surp_3

s.t.

a1_local_1: 
+0.64098504467401418 a1_x1
+0.65529248652179228 a1_x6
+0.39966226943800792 a1_x5
<= 89.211706

a1_local_2: 
+0.51791392364174604 a1_x5
+0.28563217064578794 a1_x4
+0.80633704540358742 a1_x1
<= 50.322074

a1_local_3: 
+0.51223022241792826 a1_x2
+0.73143990408782489 a1_x3
+0.45012872153382200 a1_x5
<= 66.633648

a1_local_4: 
+0.75099222928415799 a1_x2
+0.60024298270744092 a1_x4
+0.27517091645972552 a1_x1
<= 81.776269

a1_local_5: 
+0.60736785680026173 a1_x1
+0.38691354606789713 a1_x3
+0.69383153170998368 a1_x2
<= 65.536820

a1_local_6: 
+0.68877257932184777 a1_x3
+0.55054256056530115 a1_x4
+0.47169399294514086 a1_x2
<= 71.828481

a1_local_7: 
+0.68498350042745682 a1_x1
+0.42723759969205399 a1_x4
+0.59014035411207089 a1_x3
<= 94.356667

a1_local_8: 
+0.67417171866082060 a1_x3
+0.43427756292491182 a1_x2
+0.59740730837336986 a1_x5
<= 77.952731

a1_act_1: 
+0.00999950003749688 a1_x1
-0.99995000374968745 a1_z1
<= 0.000000

a1_act_2: 
+0.00999950003749688 a1_x2
-0.99995000374968745 a1_z2
<= 0.000000

a2_local_1: 
+0.37970817769907894 a2_x3
+0.65412474007995325 a2_x6
+0.65417316071799991 a2_x4
<= 93.787528

a2_local_2: 
+0.70063395603317580 a2_x6
+0.28979465704822427 a2_x4
+0.65202079445336991 a2_x2
<= 88.256257

a2_local_3: 
+0.40755672572156981 a2_x4
+0.58260213990676446 a2_x5
+0.70318721681723706 a2_x2
<= 76.545453

a2_local_4: 
+0.58327457515925840 a2_x6
+0.66254764057874038 a2_x5
+0.46991636908744827 a2_x1
<= 57.065110

a2_local_5: 
+0.84973289704978339 a2_x6
+0.85933583192992846 a2_x5
+0.81304898779583756 a2_x2
<= 99.313296

a2_local_6: 
+0.58187193742023713 a2_x1
+0.40253090843513067 a2_x6
+0.70667808526740672 a2_x3
<= 86.713492

a2_local_7: 
+0.46567618922908599 a2_x2
+0.51535388704713025 a2_x4
+0.71941369036910197 a2_x5
<= 89.579951

a2_local_8: 
+0.52642759393292127 a2_x4
+0.53709654009455499 a2_x3
+0.65909126451839239 a2_x2
<= 55.479086

a2_act_1: 
+0.00999950003749688 a2_x1
-0.99995000374968757 a2_z1
<= 0.000000

a2_act_2: 
+0.00999950003749688 a2_x2
-0.99995000374968757 a2_z2
<= 0.000000

a3_local_1: 
+0.56881157551933192 a3_x3
+0.50127803366394641 a3_x4
+0.65205346753255056 a3_x2
<= 95.682724

a3_local_2: 
+0.42426419607962779 a3_x3
+0.51108656922784357 a3_x4
+0.74752284960382309 a3_x6
<= 110.039493

a3_local_3: 
+0.47237822426315718 a3_x2
+0.75340605349799239 a3_x3
+0.45742554781578004 a3_x5
<= 63.350654

a3_local_4: 
+0.34215662763724686 a3_x2
+0.56067605109604890 a3_x5
+0.49396146296362747 a3_x3
<= 73.326258

a3_local_5: 
+0.64737635948030336 a3_x2
+0.31855893998348123 a3_x5
+0.69240454283794950 a3_x3
<= 103.621772

a3_local_6: 
+0.61233116492222850 a3_x5
+0.52548391379954906 a3_x6
+0.59069213707556223 a3_x1
<= 91.197085

a3_local_7: 
+0.55063473608792679 a3_x3
+0.63630490896256409 a3_x5
+0.54029385545601227 a3_x2
<= 101.648882

a3_local_8: 
+0.47824837657156016 a3_x5
+0.73030910514649916 a3_x3
+0.48777771704618372 a3_x2
<= 94.479190

a3_act_1: 
+0.00999950003749688 a3_x1
-0.99995000374968745 a3_z1
<= 0.000000

a3_act_2: 
+0.00999950003749688 a3_x2
-0.99995000374968745 a3_z2
<= 0.000000

a4_local_1: 
+0.55640978656014128 a4_x6
+0.62055276295368045 a4_x1
+0.55255987712704135 a4_x3
<= 64.605374

a4_local_2: 
+0.44669998527998561 a4_x2
+0.74503452376760715 a4_x4
+0.49536116273405534 a4_x6
<= 94.781282

a4_local_3: 
+0.51349915663727086 a4_x3
+0.38979958032837603 a4_x2
+0.76444417932811393 a4_x1
<= 50.343646

a4_local_4: 
+0.41970762564987546 a4_x3
+0.63316057931486336 a4_x5
+0.65034851408534078 a4_x2
<= 104.740233

a4_local_5: 
+0.60681403829028902 a4_x3
+0.62586769129634812 a4_x2
+0.48996566810870612 a4_x1
<= 95.007778

a4_local_6: 
+0.71250079101605179 a4_x5
+0.26011860558008487 a4_x1
+0.65167548199435343 a4_x6
<= 77.254308

a4_local_7: 
+0.70643084178072280 a4_x6
+0.38107978459008401 a4_x3
+0.59643412340153279 a4_x2
<= 112.453442

a4_local_8: 
+0.42816950302948492 a4_x2
+0.50767791381381555 a4_x6
+0.74761889522746550 a4_x5
<= 85.465064

a4_act_1: 
+0.00999950003749688 a4_x1
-0.99995000374968757 a4_z1
<= 0.000000

a4_act_2: 
+0.00999950003749688 a4_x2
-0.99995000374968768 a4_z2
<= 0.000000

coupling_1: 
+0.00000071090750049 a1_x1
+0.00010560724515441 a2_x1
+0.00928246533338316 a3_x1
+0.99995640420388510 a4_x1
+0.00071217117854583 short_1
-0.00071217117854583 surp_1
= 74.440616

coupling_2: 
+0.00000080848514686 a1_x2
+0.00006703953685669 a2_x2
+0.01084001589488578 a3_x2
+0.99994045029091128 a4_x2
+0.00089034612796319 short_2
-0.00089034612796319 surp_2
= 36.412981

coupling_3: 
+0.00000145187024859 a1_x3
+0.00009598815690489 a2_x3
+0.00770807670912650 a3_x3
+0.99996891995114356 a4_x3
+0.00116950189300908 short_3
-0.00116950189300908 surp_3
= 58.825679

bounds
  0.000000 <= a1_x1 <= 100.000000
  0.000000 <= a1_x2 <= 100.000000
  0.000000 <= a1_x3 <= 100.000000
  0.000000 <= a1_x4 <= 100.000000
  0.000000 <= a1_x5 <= 100.000000
  0.000000 <= a1_x6 <= 100.000000
  0.000000 <= a2_x1 <= 100.000000
  0.000000 <= a2_x2 <= 100.000000
  0.000000 <= a2_x3 <= 100.000000
  0.000000 <= a2_x4 <= 100.000000
  0.000000 <= a2_x5 <= 100.000000
  0.000000 <= a2_x6 <= 100.000000
  0.000000 <= a3_x1 <= 100.000000
  0.000000 <= a3_x2 <= 100.000000
  0.000000 <= a3_x3 <= 100.000000
  0.000000 <= a3_x4 <= 100.000000
  0.000000 <= a3_x5 <= 100.000000
  0.000000 <= a3_x6 <= 100.000000
  0.000000 <= a4_x1 <= 100.000000
  0.000000 <= a4_x2 <= 100.000000
  0.000000 <= a4_x3 <= 100.000000
  0.000000 <= a4_x4 <= 100.000000
  0.000000 <= a4_x5 <= 100.000000
  0.000000 <= a4_x6 <= 100.000000
  0.000000 <= short_1 <= +inf
  0.000000 <= surp_1 <= +inf
  0.000000 <= short_2 <= +inf
  0.000000 <= surp_2 <= +inf
  0.000000 <= short_3 <= +inf
  0.000000 <= surp_3 <= +inf
 0 <= a1_z1 <= 1
 0 <= a1_z2 <= 1
 0 <= a2_z1 <= 1
 0 <= a2_z2 <= 1
 0 <= a3_z1 <= 1
 0 <= a3_z2 <= 1
 0 <= a4_z1 <= 1
 0 <= a4_z2 <= 1

binary
  a1_z1
  a1_z2
  a2_z1
  a2_z2
  a3_z1
  a3_z2
  a4_z1
  a4_z2
end
