min
obj: 
  +4.00927114806491947 a1_x1
  +1.96797315584533505 a1_x2
  +5.12450639908132288 a1_x3
  +5.32896604620880687 a1_x4
  +7.73264361972508052 a1_x5
  +5.13954220661915251 a1_x6
  +7.46013036925632012 a1_z1
  +49.87266735161764331 a1_z2
  +9.36843435344059650 a2_x1
  +1.05737072364449292 a2_x2
  +6.60719118774421155 a2_x3
  +2.15746424177711438 a2_x4
  +4.02884955809363987 a2_x5
  +6.58160214482754569 a2_x6
  +37.18631761224219190 a2_z1
  +14.56992703067312611 a2_z2
  +7.57718464422320714 a3_x1
  +6.32546719961394732 a3_x2
  +1.31829467185166682 a3_x3
  +2.45084274434978422 a3_x4
  +7.58215052014305346 a3_x5
  +8.03960198396170256 a3_x6
  +34.57098216458418705 a3_z1
  +17.01923611963366056 a3_z2
  +9.65762920804675851 a4_x1
  +1.01038921150930694 a4_x2
  +8.26245311728527554 a4_x3
  +1.87174926104206407 a4_x4
  +5.72310336143512366 a4_x5
  +2.03823444273170651 a4_x6
  +33.41705432517787955 a4_z1
  +11.21145989114648600 a4_z2
  +1000000.00000000000000000 short_1
  +1000000.00000000000000000 surp_1
  +1000000.00000000000000000 short_2
  +1000000.00000000000000000 surp_2
  +1000000.00000000000000000 short_3
  +1000000.00000000000000000 surp_3

s.t.

a1_local_1: 
+1.53420209060712565 a1_x3
+0.65180461304434323 a1_x6
+1.03706853807701682 a1_x4
<= 121.833985

a1_local_2: 
+1.60711708670549358 a1_x4
+0.89035350617375286 a1_x6
+0.62223219967746579 a1_x2
<= 176.854404

a1_local_3: 
+0.81792847751954667 a1_x6
+1.38323898971708736 a1_x4
+0.72294087098031345 a1_x1
<= 185.638926

a1_local_4: 
+0.92036599997506618 a1_x2
+1.08652427406824126 a1_x5
+1.06721234205422233 a1_x3
<= 207.491165

a1_local_5: 
+1.48491779830479120 a1_x1
+0.67343795134088758 a1_x4
+0.94525559586420516 a1_x2
<= 212.426705

a1_local_6: 
+1.36634659452523177 a1_x1
+1.40064421703726749 a1_x3
+0.71395718329902791 a1_x6
<= 217.307338

a1_local_7: 
+0.78740936838659636 a1_x2
+1.26998742985367619 a1_x5
+1.00309031268534077 a1_x4
<= 170.251715

a1_local_8: 
+1.00696481702976959 a1_x4
+1.56985020884888926 a1_x5
+0.63700345062428698 a1_x6
<= 166.520945

a1_act_1: 
+0.09999999999999999 a1_x1
-10.00000000000000000 a1_z1
<= 0.000000

a1_act_2: 
+0.09999999999999999 a1_x2
-9.99999999999999822 a1_z2
<= 0.000000

a2_local_1: 
+0.72804982625318770 a2_x4
+1.37353236542389978 a2_x2
+1.10173399622457779 a2_x6
<= 184.849399

a2_local_2: 
+0.90666536941904252 a2_x1
+1.25104919160774797 a2_x4
+0.79932908050952034 a2_x5
<= 189.939909

a2_local_3: 
+0.96770654224011876 a2_x4
+0.71530445937690312 a2_x5
+1.39800610340258880 a2_x3
<= 196.834007

a2_local_4: 
+1.21549984172682146 a2_x2
+0.82270681218627906 a2_x1
+1.16665532178802489 a2_x5
<= 146.511930

a2_local_5: 
+1.16369786683456700 a2_x2
+0.73375325726383200 a2_x3
+1.36285596022974120 a2_x6
<= 183.819354

a2_local_6: 
+1.10274604427828748 a2_x6
+0.79144001316625090 a2_x5
+1.26351963934623401 a2_x2
<= 175.935066

a2_local_7: 
+1.62897570196081154 a2_x2
+1.11167964507044847 a2_x5
+1.17515786559913549 a2_x6
<= 261.090068

a2_local_8: 
+1.18366623858259246 a2_x2
+0.97287734364951128 a2_x4
+0.84483274710738754 a2_x5
<= 199.302403

a2_act_1: 
+0.10000000000000001 a2_x1
-10.00000000000000000 a2_z1
<= 0.000000

a2_act_2: 
+0.09999999999999999 a2_x2
-10.00000000000000000 a2_z2
<= 0.000000

a3_local_1: 
+0.88143664343025785 a3_x1
+0.73314462870439634 a3_x2
+1.36398735099128698 a3_x6
<= 134.523409

a3_local_2: 
+0.84229729769049466 a3_x2
+0.69598732747975811 a3_x1
+1.43680777007981320 a3_x6
<= 128.084157

a3_local_3: 
+0.91130667672903898 a3_x1
+0.70396555294661345 a3_x5
+1.42052405236913182 a3_x2
<= 157.245521

a3_local_4: 
+0.81069305837257799 a3_x4
+1.23351247389171603 a3_x6
+1.16143290466165494 a3_x5
<= 205.842989

a3_local_5: 
+0.83552718991282382 a3_x4
+1.22715129872564721 a3_x1
+0.81489544201963071 a3_x5
<= 93.645727

a3_local_6: 
+0.96874760461079568 a3_x5
+0.54943429788926734 a3_x6
+0.49858472139441667 a3_x1
<= 118.858789

a3_local_7: 
+0.46482309968614399 a3_x6
+0.57382031589999272 a3_x1
+0.66246397384378120 a3_x4
<= 106.712915

a3_local_8: 
+0.97442474373049126 a3_x3
+1.25030205485062407 a3_x1
+0.79980673159772742 a3_x6
<= 123.202698

a3_act_1: 
+0.10000000000000001 a3_x1
-10.00000000000000000 a3_z1
<= 0.000000

a3_act_2: 
+0.09999999999999999 a3_x2
-9.99999999999999822 a3_z2
<= 0.000000

a4_local_1: 
+0.87130639001612431 a4_x3
+0.84643491755682787 a4_x2
+1.18142574137469025 a4_x5
<= 172.756654

a4_local_2: 
+0.65774104868531869 a4_x2
+1.29681935005304338 a4_x5
+1.52035516408590077 a4_x3
<= 240.415525

a4_local_3: 
+1.46292464487793961 a4_x4
+0.68356220773315091 a4_x5
+0.69800044754070889 a4_x2
<= 96.420858

a4_local_4: 
+1.07824769983484448 a4_x5
+1.09848646992004340 a4_x3
+0.91034348385992248 a4_x1
<= 102.152209

a4_local_5: 
+0.92200139531732483 a4_x5
+1.40678635904905347 a4_x6
+0.71083998900584344 a4_x1
<= 163.171369

a4_local_6: 
+1.48742216729578214 a4_x3
+0.67230408554288024 a4_x2
+0.86180851001723469 a4_x1
<= 148.196017

a4_local_7: 
+0.76120405607675190 a4_x1
+0.67221657262505985 a4_x2
+1.48761580824304818 a4_x3
<= 178.444267

a4_local_8: 
+1.12739288061364773 a4_x3
+0.80573190113536353 a4_x1
+1.24110761729911889 a4_x4
<= 182.443381

a4_act_1: 
+0.10000000000000001 a4_x1
-10.00000000000000000 a4_z1
<= 0.000000

a4_act_2: 
+0.10000000000000001 a4_x2
-10.00000000000000000 a4_z2
<= 0.000000

coupling_1: 
+0.00000190312310105 a1_x1
+0.00024426752562400 a2_x1
+0.02470822384795258 a3_x1
+0.99969183177095222 a4_x1
+0.00168604484990057 short_1
-0.00168604484990057 surp_1
= 57.941761

coupling_2: 
+0.00000086047382566 a1_x2
+0.00007877220488125 a2_x2
+0.00644602596252842 a3_x2
+0.99997808738301575 a4_x2
+0.00106472937778460 short_2
-0.00106472937778460 surp_2
= 55.281482

coupling_3: 
+0.00000092883421003 a1_x3
+0.00006186299563869 a2_x3
+0.00885522024156335 a3_x3
+0.99995942969399132 a4_x3
+0.00116623596421849 short_3
-0.00116623596421849 surp_3
= 22.014835

bounds
  0.000000 <= a1_x1 <= 100.000000
  0.000000 <= a1_x2 <= 100.000000
  0.000000 <= a1_x3 <= 100.000000
  0.000000 <= a1_x4 <= 100.000000
  0.000000 <= a1_x5 <= 100.000000
  0.000000 <= a1_x6 <= 100.000000
  0.000000 <= a2_x1 <= 100.000000
  0.000000 <= a2_x2 <= 100.000000
  0.000000 <= a2_x3 <= 100.000000
  0.000000 <= a2_x4 <= 100.000000
  0.000000 <= a2_x5 <= 100.000000
  0.000000 <= a2_x6 <= 100.000000
  0.000000 <= a3_x1 <= 100.000000
  0.000000 <= a3_x2 <= 100.000000
  0.000000 <= a3_x3 <= 100.000000
  0.000000 <= a3_x4 <= 100.000000
  0.000000 <= a3_x5 <= 100.000000
  0.000000 <= a3_x6 <= 100.000000
  0.000000 <= a4_x1 <= 100.000000
  0.000000 <= a4_x2 <= 100.000000
  0.000000 <= a4_x3 <= 100.000000
  0.000000 <= a4_x4 <= 100.000000
  0.000000 <= a4_x5 <= 100.000000
  0.000000 <= a4_x6 <= 100.000000
  0.000000 <= short_1 <= +inf
  0.000000 <= surp_1 <= +inf
  0.000000 <= short_2 <= +inf
  0.000000 <= surp_2 <= +inf
  0.000000 <= short_3 <= +inf
  0.000000 <= surp_3 <= +inf
 0 <= a1_z1 <= 1
 0 <= a1_z2 <= 1
 0 <= a2_z1 <= 1
 0 <= a2_z2 <= 1
 0 <= a3_z1 <= 1
 0 <= a3_z2 <= 1
 0 <= a4_z1 <= 1
 0 <= a4_z2 <= 1

binary
  a1_z1
  a1_z2
  a2_z1
  a2_z2
  a3_z1
  a3_z2
  a4_z1
  a4_z2
end
