min
obj: 
  +1.58690782181034451 a1_x1
  +1.85914319529187777 a1_x2
  +3.32311090405199927 a1_x3
  +9.20870591814637862 a1_x4
  +9.62032466035919853 a1_x5
  +2.65221673698665317 a1_x6
  +45.97121590191820673 a1_z1
  +15.23159126469524693 a1_z2
  +7.38516429138446995 a2_x1
  +8.18461543331298103 a2_x2
  +6.32869026358351139 a2_x3
  +1.72084034317845602 a2_x4
  +2.51957804121249751 a2_x5
  +8.19694216322757185 a2_x6
  +32.90972281828447876 a2_z1
  +29.00608133785045339 a2_z2
  +9.62518175189459946 a3_x1
  +3.90094189534807345 a3_x2
  +1.32195101356612454 a3_x3
  +4.74857750195312356 a3_x4
  +3.55589835486331518 a3_x5
  +8.12436598238075014 a3_x6
  +20.82211554905935103 a3_z1
  +25.22287462451485496 a3_z2
  +3.97402812736189226 a4_x1
  +5.87257606585061964 a4_x2
  +8.54493066197249362 a4_x3
  +7.89453690964795740 a4_x4
  +2.70429770668290548 a4_x5
  +9.26226871331643586 a4_x6
  +13.31023289155729650 a4_z1
  +27.54299042523267715 a4_z2
  +1000000.00000000000000000 short_1
  +1000000.00000000000000000 surp_1
  +1000000.00000000000000000 short_2
  +1000000.00000000000000000 surp_2
  +1000000.00000000000000000 short_3
  +1000000.00000000000000000 surp_3

s.t.

a1_local_1: 
+0.00000003537635018 a1_x4
+0.00000004585061028 a1_x1
+0.00000003256222220 a1_x3
<= 0.000005

a1_local_2: 
+6.68951654107024130 a1_x2
+4.54717899450242147 a1_x4
+5.18697331585659782 a1_x3
<= 1105.961120

a1_local_3: 
+0.00000000466752783 a1_x6
+0.00000000935797878 a1_x4
+0.00000000558951011 a1_x1
<= 0.000001

a1_local_4: 
+0.00000037484949797 a1_x6
+0.00000033314259676 a1_x2
+0.00000030682638837 a1_x1
<= 0.000040

a1_local_5: 
+0.00002335384519940 a1_x1
+0.00003402506146402 a1_x2
+0.00003956985356758 a1_x5
<= 0.005060

a1_local_6: 
+0.00000000760004315 a1_x1
+0.00000001202521679 a1_x2
+0.00000001070625383 a1_x6
<= 0.000001

a1_local_7: 
+0.00000000411151887 a1_x5
+0.00000000874659243 a1_x2
+0.00000000753452980 a1_x4
<= 0.000001

a1_local_8: 
+0.00000019478767769 a1_x1
+0.00000013724623256 a1_x2
+0.00000019166753164 a1_x3
<= 0.000033

a1_act_1: 
+80.12933807745518777 a1_x1
-8012.93380774551860668 a1_z1
<= 0.000000

a1_act_2: 
+449.36641123088736549 a1_x2
-44936.64112308873882284 a1_z2
<= 0.000000

a2_local_1: 
+1.16578758110322389 a2_x1
+2.96712227955099284 a2_x5
+1.77762339859642582 a2_x3
<= 316.390724

a2_local_2: 
+1.25515645567811251 a2_x4
+2.96616651186724489 a2_x2
+2.42077322436281506 a2_x5
<= 303.959240

a2_local_3: 
+0.00501803244534903 a2_x2
+0.00446446615622705 a2_x1
+0.00407810605396569 a2_x5
<= 0.450708

a2_local_4: 
+0.00049064070288244 a2_x6
+0.00033469927455923 a2_x2
+0.00049444800935185 a2_x4
<= 0.061661

a2_local_5: 
+0.00002095778566933 a2_x1
+0.00003796249239914 a2_x6
+0.00003307013171118 a2_x2
<= 0.004361

a2_local_6: 
+2.69132838365232896 a2_x4
+2.81955509671616333 a2_x6
+2.59305568888980442 a2_x5
<= 424.948436

a2_local_7: 
+1.92269864267098534 a2_x4
+1.32689419483859750 a2_x6
+2.57594088718202441 a2_x3
<= 358.390090

a2_local_8: 
+0.00000032954003397 a2_x5
+0.00000028729418066 a2_x1
+0.00000021991170600 a2_x4
<= 0.000055

a2_act_1: 
+0.42594959901698443 a2_x1
-42.59495990169844504 a2_z1
<= 0.000000

a2_act_2: 
+436.73846818858299912 a2_x2
-43673.84681885829922976 a2_z2
<= 0.000000

a3_local_1: 
+0.01122959791274037 a3_x3
+0.01302124974180258 a3_x5
+0.00578312124325058 a3_x4
<= 1.040584

a3_local_2: 
+148153.60410690482240170 a3_x3
+164717.00179312465479597 a3_x5
+111225.39766131380747538 a3_x2
<= 21596729.381168

a3_local_3: 
+6111.20661109995307925 a3_x5
+7796.65226542281470756 a3_x6
+8694.34190516823764483 a3_x2
<= 1133866.518772

a3_local_4: 
+0.12330928752838013 a3_x4
+0.10787152495113275 a3_x3
+0.05192253667271249 a3_x1
<= 12.362075

a3_local_5: 
+0.00196527683555268 a3_x1
+0.00167245247060746 a3_x4
+0.00090940418832674 a3_x5
<= 0.260881

a3_local_6: 
+0.00009522876045047 a3_x5
+0.00017289888900716 a3_x4
+0.00013443429589049 a3_x6
<= 0.016281

a3_local_7: 
+5931.48366490361968317 a3_x5
+4552.37641246362181846 a3_x4
+5314.99162522553069721 a3_x2
<= 959152.691089

a3_local_8: 
+17160.82242014357325388 a3_x6
+7841.72325804612864886 a3_x2
+13001.65847057211249194 a3_x3
<= 2073613.937266

a3_act_1: 
+0.00003028450026207 a3_x1
-0.00302845002620692 a3_z1
<= 0.000000

a3_act_2: 
+128141.03396411341964267 a3_x2
-12814103.39641134254634380 a3_z2
<= 0.000000

a4_local_1: 
+0.01120668244796347 a4_x3
+0.00939566897845729 a4_x2
+0.01514449089700942 a4_x4
<= 2.115837

a4_local_2: 
+2541.62023195308847789 a4_x5
+1286.49085373266871102 a4_x4
+2695.36166127753085675 a4_x1
<= 261748.138735

a4_local_3: 
+346.95726149344795886 a4_x3
+420.07624348098852352 a4_x2
+459.42165080185691295 a4_x6
<= 70313.567832

a4_local_4: 
+34874645.46182855963706970 a4_x1
+41278210.06053869426250458 a4_x6
+39727301.26890738308429718 a4_x5
<= 5353395809.574881

a4_local_5: 
+143.83262621785678448 a4_x1
+159.32210946847254718 a4_x2
+135.51753863404707090 a4_x6
<= 17256.282689

a4_local_6: 
+2614.61315556912950342 a4_x6
+7681.00356566022765037 a4_x3
+4379.35876274744441616 a4_x5
<= 601835.629124

a4_local_7: 
+15.92094266828443772 a4_x1
+16.71591248410969399 a4_x4
+23.23284484814659834 a4_x5
<= 1799.003096

a4_local_8: 
+0.00819552075111527 a4_x5
+0.00722052094578794 a4_x1
+0.01109380143819853 a4_x6
<= 1.512605

a4_act_1: 
+33285.11012064843816916 a4_x1
-3328511.01206484390422702 a4_z1
<= 0.000000

a4_act_2: 
+8298.85402363369212253 a4_x2
-829885.40236336924135685 a4_z2
<= 0.000000

coupling_1: 
+0.00137365578646921 a1_x1
+0.09301333364213672 a2_x1
+6.70199139611363748 a3_x1
+1318.55204158850438034 a4_x1
+0.93490743232512796 short_1
-0.93490743232512796 surp_1
= 78776.125725

coupling_2: 
+7.99302599643117873 a1_x2
+389.28942877397406619 a2_x2
+96902.44426427166035865 a3_x2
+6096249.84896510280668736 a4_x2
+7069.56300328705401625 short_2
-7069.56300328705401625 surp_2
= 481425790.395396

coupling_3: 
+0.00000000214044003 a1_x3
+0.00000018984049266 a2_x3
+0.00003884899497469 a3_x3
+0.00276043144916955 a4_x3
+0.00000324798375829 short_3
-0.00000324798375829 surp_3
= 0.142717

bounds
  0.000000 <= a1_x1 <= 100.000000
  0.000000 <= a1_x2 <= 100.000000
  0.000000 <= a1_x3 <= 100.000000
  0.000000 <= a1_x4 <= 100.000000
  0.000000 <= a1_x5 <= 100.000000
  0.000000 <= a1_x6 <= 100.000000
  0.000000 <= a2_x1 <= 100.000000
  0.000000 <= a2_x2 <= 100.000000
  0.000000 <= a2_x3 <= 100.000000
  0.000000 <= a2_x4 <= 100.000000
  0.000000 <= a2_x5 <= 100.000000
  0.000000 <= a2_x6 <= 100.000000
  0.000000 <= a3_x1 <= 100.000000
  0.000000 <= a3_x2 <= 100.000000
  0.000000 <= a3_x3 <= 100.000000
  0.000000 <= a3_x4 <= 100.000000
  0.000000 <= a3_x5 <= 100.000000
  0.000000 <= a3_x6 <= 100.000000
  0.000000 <= a4_x1 <= 100.000000
  0.000000 <= a4_x2 <= 100.000000
  0.000000 <= a4_x3 <= 100.000000
  0.000000 <= a4_x4 <= 100.000000
  0.000000 <= a4_x5 <= 100.000000
  0.000000 <= a4_x6 <= 100.000000
  0.000000 <= short_1 <= +inf
  0.000000 <= surp_1 <= +inf
  0.000000 <= short_2 <= +inf
  0.000000 <= surp_2 <= +inf
  0.000000 <= short_3 <= +inf
  0.000000 <= surp_3 <= +inf
 0 <= a1_z1 <= 1
 0 <= a1_z2 <= 1
 0 <= a2_z1 <= 1
 0 <= a2_z2 <= 1
 0 <= a3_z1 <= 1
 0 <= a3_z2 <= 1
 0 <= a4_z1 <= 1
 0 <= a4_z2 <= 1

binary
  a1_z1
  a1_z2
  a2_z1
  a2_z2
  a3_z1
  a3_z2
  a4_z1
  a4_z2
end
