min
obj: 
  +4.68205187695116365 a1_x1
  +5.71291625483064269 a1_x2
  +9.00563589084773142 a1_x3
  +9.01724711762336106 a1_x4
  +9.40638568868457803 a1_x5
  +5.77535620951187667 a1_x6
  +36.44079832510822570 a1_z1
  +20.35589591192510284 a1_z2
  +9.85237733259970305 a2_x1
  +8.66656609951932211 a2_x2
  +1.31834896047554095 a2_x3
  +8.26919439786070853 a2_x4
  +6.06353184831551140 a2_x5
  +3.26315819103542193 a2_x6
  +31.01579944565894920 a2_z1
  +42.14273897613190911 a2_z2
  +3.40700085697226296 a3_x1
  +9.41882509326676143 a3_x2
  +9.74900107951637906 a3_x3
  +7.04508203399397814 a3_x4
  +9.97637618984075480 a3_x5
  +5.84735535483849578 a3_x6
  +49.07354774414897491 a3_z1
  +13.99914181947612590 a3_z2
  +1.91431389506638183 a4_x1
  +6.10422017205319989 a4_x2
  +2.25748963263893865 a4_x3
  +5.65946667698913863 a4_x4
  +4.35204976180165826 a4_x5
  +6.78234121926408484 a4_x6
  +29.95675458969477134 a4_z1
  +32.97214499302464219 a4_z2
  +1000000.00000000000000000 short_1
  +1000000.00000000000000000 surp_1
  +1000000.00000000000000000 short_2
  +1000000.00000000000000000 surp_2
  +1000000.00000000000000000 short_3
  +1000000.00000000000000000 surp_3

s.t.

a1_local_1: 
+0.00000003951356110 a1_x4
+0.00000003232996156 a1_x2
+0.00000002128827046 a1_x6
<= 0.000004

a1_local_2: 
+0.00020814743070046 a1_x3
+0.00009309227595197 a1_x4
+0.00018758447637202 a1_x5
<= 0.020534

a1_local_3: 
+0.61170000277962022 a1_x1
+1.07543913429528559 a1_x3
+0.80435441831657661 a1_x6
<= 129.733566

a1_local_4: 
+0.00000004335676837 a1_x2
+0.00000003766902125 a1_x1
+0.00000007458046846 a1_x5
<= 0.000007

a1_local_5: 
+2.51447014915671163 a1_x2
+4.09404878286011886 a1_x3
+4.19773440570156886 a1_x5
<= 460.213427

a1_local_6: 
+0.00000001823606575 a1_x6
+0.00000001282782541 a1_x1
+0.00000001619837330 a1_x3
<= 0.000002

a1_local_7: 
+1.83398652531543593 a1_x4
+1.48477012074650783 a1_x2
+1.36795091226201104 a1_x5
<= 246.792290

a1_local_8: 
+0.00000000715491965 a1_x6
+0.00000000698405764 a1_x2
+0.00000000570776177 a1_x4
<= 0.000001

a1_act_1: 
+0.00001962820109460 a1_x1
-0.00196282010946048 a1_z1
<= 0.000000

a1_act_2: 
+0.07273068583572291 a1_x2
-7.27306858357229125 a1_z2
<= 0.000000

a2_local_1: 
+25791.24804509732348379 a2_x2
+35445.73682283005473437 a2_x6
+37148.84602034592535347 a2_x5
<= 3262159.450175

a2_local_2: 
+1.29951513681978037 a2_x1
+1.52472296445749689 a2_x4
+1.92067713623539782 a2_x5
<= 329.486765

a2_local_3: 
+192.50629883236621254 a2_x2
+133.68562501943887355 a2_x5
+82.85045514912492592 a2_x1
<= 25818.990658

a2_local_4: 
+4.28802945319282269 a2_x6
+8.22982005572505138 a2_x4
+4.56152949915178407 a2_x5
<= 636.921745

a2_local_5: 
+0.00000146647160769 a2_x5
+0.00000271730275644 a2_x3
+0.00000190806008771 a2_x6
<= 0.000315

a2_local_6: 
+248.04057998803065743 a2_x6
+173.42987528333216574 a2_x4
+226.56640693928548558 a2_x1
<= 34107.683211

a2_local_7: 
+1124.27385619196320476 a2_x3
+1026.81426689433510546 a2_x6
+1278.52321988207881986 a2_x1
<= 160304.558525

a2_local_8: 
+1.30729867365965768 a2_x5
+1.31018213924545224 a2_x3
+1.41406109110820477 a2_x6
<= 280.419683

a2_act_1: 
+0.36369542065584565 a2_x1
-36.36954206558456804 a2_z1
<= 0.000000

a2_act_2: 
+0.00000836674068245 a2_x2
-0.00083667406824458 a2_z2
<= 0.000000

a3_local_1: 
+1174.84538651430693790 a3_x5
+794.27682226823048950 a3_x2
+950.68700551178665137 a3_x3
<= 113065.016153

a3_local_2: 
+128.09566881030903573 a3_x2
+84.18840926944190528 a3_x3
+115.00784346854247531 a3_x4
<= 16591.892918

a3_local_3: 
+0.20423213634675508 a3_x6
+0.41512212609055366 a3_x4
+0.35634676726288678 a3_x1
<= 66.949380

a3_local_4: 
+0.00041522716174679 a3_x4
+0.00046726589616026 a3_x2
+0.00018808999030664 a3_x1
<= 0.052707

a3_local_5: 
+20.00984638229878598 a3_x3
+39.13640025608853534 a3_x5
+45.67293782961141346 a3_x2
<= 5184.764640

a3_local_6: 
+0.08669947219394572 a3_x1
+0.07854503778098508 a3_x6
+0.07064070884697236 a3_x2
<= 10.704871

a3_local_7: 
+85587.06004269827099051 a3_x1
+114183.08267072356829885 a3_x4
+64408.52709416155994404 a3_x6
<= 9017017.191502

a3_local_8: 
+388.10713683170558852 a3_x4
+184.95330221475521171 a3_x3
+297.63565424262634451 a3_x5
<= 55345.830113

a3_act_1: 
+0.00051177465597418 a3_x1
-0.05117746559741759 a3_z1
<= 0.000000

a3_act_2: 
+3.54435386823029752 a3_x2
-354.43538682302977350 a3_z2
<= 0.000000

a4_local_1: 
+30275.09157259320272715 a4_x3
+23077.45482729623108753 a4_x5
+26427.32972816399706062 a4_x2
<= 5097450.469508

a4_local_2: 
+167.35008881546869475 a4_x3
+78.55587295990983421 a4_x2
+117.05915466504791311 a4_x6
<= 12470.593049

a4_local_3: 
+0.03308281376935855 a4_x5
+0.05127971737659372 a4_x6
+0.06101894326386583 a4_x3
<= 8.514387

a4_local_4: 
+4821.56577843646300607 a4_x3
+4554.39383498309871356 a4_x6
+5218.09585193134626024 a4_x1
<= 992000.620188

a4_local_5: 
+0.08129612325671200 a4_x3
+0.08376504763820296 a4_x6
+0.03085728551497570 a4_x5
<= 10.124675

a4_local_6: 
+1763.39025915560910107 a4_x3
+1833.53587555391845854 a4_x4
+2481.63149466989398206 a4_x6
<= 356317.215718

a4_local_7: 
+0.82683901637165713 a4_x6
+0.73967074842631331 a4_x3
+1.09230548621226542 a4_x1
<= 179.896956

a4_local_8: 
+0.03528665469967309 a4_x1
+0.08020588227914933 a4_x6
+0.06118906110404240 a4_x3
<= 9.356169

a4_act_1: 
+0.00039842227169960 a4_x1
-0.03984222716995969 a4_z1
<= 0.000000

a4_act_2: 
+0.00232057670786040 a4_x2
-0.23205767078603992 a4_z2
<= 0.000000

coupling_1: 
+598.85747169362923614 a1_x1
+39740.15826697921875166 a2_x1
+3825590.86791673628613353 a3_x1
+797964789.62619316577911377 a4_x1
+667620.69556152552831918 short_1
-667620.69556152552831918 surp_1
= 40462640333.439774

coupling_2: 
+0.00035017740954006 a1_x2
+0.01662056677738884 a2_x2
+1.71981840722980595 a3_x2
+401.78004641883546810 a4_x2
+0.28973691174563837 short_2
-0.28973691174563837 surp_2
= 9602.615922

coupling_3: 
+0.12030807264692364 a1_x3
+20.14898552515372998 a2_x3
+989.32610536870117812 a3_x3
+193516.00037123859510757 a4_x3
+156.37143617608060708 short_3
-156.37143617608060708 surp_3
= 11696934.159263

bounds
  0.000000 <= a1_x1 <= 100.000000
  0.000000 <= a1_x2 <= 100.000000
  0.000000 <= a1_x3 <= 100.000000
  0.000000 <= a1_x4 <= 100.000000
  0.000000 <= a1_x5 <= 100.000000
  0.000000 <= a1_x6 <= 100.000000
  0.000000 <= a2_x1 <= 100.000000
  0.000000 <= a2_x2 <= 100.000000
  0.000000 <= a2_x3 <= 100.000000
  0.000000 <= a2_x4 <= 100.000000
  0.000000 <= a2_x5 <= 100.000000
  0.000000 <= a2_x6 <= 100.000000
  0.000000 <= a3_x1 <= 100.000000
  0.000000 <= a3_x2 <= 100.000000
  0.000000 <= a3_x3 <= 100.000000
  0.000000 <= a3_x4 <= 100.000000
  0.000000 <= a3_x5 <= 100.000000
  0.000000 <= a3_x6 <= 100.000000
  0.000000 <= a4_x1 <= 100.000000
  0.000000 <= a4_x2 <= 100.000000
  0.000000 <= a4_x3 <= 100.000000
  0.000000 <= a4_x4 <= 100.000000
  0.000000 <= a4_x5 <= 100.000000
  0.000000 <= a4_x6 <= 100.000000
  0.000000 <= short_1 <= +inf
  0.000000 <= surp_1 <= +inf
  0.000000 <= short_2 <= +inf
  0.000000 <= surp_2 <= +inf
  0.000000 <= short_3 <= +inf
  0.000000 <= surp_3 <= +inf
 0 <= a1_z1 <= 1
 0 <= a1_z2 <= 1
 0 <= a2_z1 <= 1
 0 <= a2_z2 <= 1
 0 <= a3_z1 <= 1
 0 <= a3_z2 <= 1
 0 <= a4_z1 <= 1
 0 <= a4_z2 <= 1

binary
  a1_z1
  a1_z2
  a2_z1
  a2_z2
  a3_z1
  a3_z2
  a4_z1
  a4_z2
end
