min
obj: 
  +2.8670230128866887 a1_x1
  +4.6121734767481746 a1_x2
  +8.3726653944305163 a1_x3
  +3.8874111784256438 a1_x4
  +3.5735214707131471 a1_x5
  +7.9063268225890937 a1_x6
  +32.521673256282952 a1_z1
  +46.9551209495583 a1_z2
  +1.341622492975389 a2_x1
  +5.0417707846324316 a2_x2
  +1.1098914253226899 a2_x3
  +7.5349912767704339 a2_x4
  +4.7451420176434915 a2_x5
  +4.9227196469025021 a2_x6
  +7.3717597202086891 a2_z1
  +32.23919956008293 a2_z2
  +7.1988333719011539 a3_x1
  +9.6965932883206509 a3_x2
  +2.6814504435085222 a3_x3
  +4.7418198986047297 a3_x4
  +5.4039251046059666 a3_x5
  +9.8502537099383343 a3_x6
  +17.992052798317559 a3_z1
  +28.73085531973274 a3_z2
  +5.3817190254650331 a4_x1
  +3.7297540390479749 a4_x2
  +6.6577904747627379 a4_x3
  +5.4304281417402382 a4_x4
  +9.7175944926778737 a4_x5
  +8.0479454867151716 a4_x6
  +7.8471654550187315 a4_z1
  +24.374477793367895 a4_z2
  +1000000 short_1
  +1000000 surp_1
  +1000000 short_2
  +1000000 surp_2
  +1000000 short_3
  +1000000 surp_3

s.t.

a1_local_1: 
+133.8687241587229 a1_x3
+235.01782505991724 a1_x1
+208.81698515348813 a1_x2
<= 34743.406102466259

a1_local_2: 
+17552.206151784409 a1_x4
+13182.816352106838 a1_x6
+12125.902242423657 a1_x2
<= 1606019.4077310013

a1_local_3: 
+235.632464476617 a1_x3
+110.8782119406922 a1_x4
+118.13743206225523 a1_x1
<= 30322.773016481304

a1_local_4: 
+860.82561607620698 a1_x3
+783.16571779659114 a1_x6
+2115.851533890112 a1_x1
<= 206019.87613432034

a1_local_5: 
+2.5903384381490375e-05 a1_x5
+3.7449651291607065e-05 a1_x1
+3.5170914685580469e-05 a1_x3
<= 0.0050248599271894437

a1_local_6: 
+0.00015950711928100305 a1_x6
+0.00012864612939764088 a1_x3
+0.00011931984445932477 a1_x1
<= 0.018618040444497812

a1_local_7: 
+606.62129471237233 a1_x4
+828.80131156628295 a1_x3
+757.41918989269186 a1_x6
<= 75927.882460293229

a1_local_8: 
+0.73519710577199604 a1_x6
+0.90736141033577089 a1_x3
+0.71205411002393382 a1_x2
<= 86.556567666013549

a1_act_1: 
+0.063506231441481889 a1_x1
-6.3506231441481891 a1_z1
<= 0

a1_act_2: 
+5.7390541622052778e-06 a1_x2
-0.00057390541622052776 a1_z2
<= 0

a2_local_1: 
+478.20127901285008 a2_x3
+744.51454604365017 a2_x1
+618.04098040110216 a2_x4
<= 83215.641965892035

a2_local_2: 
+1236.2114794015517 a2_x3
+773.64303645191069 a2_x4
+896.47139571075002 a2_x1
<= 189098.51534607503

a2_local_3: 
+0.00063056171000077548 a2_x2
+0.00087870279097193582 a2_x5
+0.0011688033483529666 a2_x6
<= 0.16374036744659581

a2_local_4: 
+2.9173835467511826 a2_x3
+2.5687799881536448 a2_x4
+2.0089908085116766 a2_x2
<= 451.04182078241922

a2_local_5: 
+14.00139290907561 a2_x3
+21.438335383993923 a2_x5
+26.277785894724911 a2_x6
<= 3861.6424736848662

a2_local_6: 
+0.031670169826446333 a2_x2
+0.073745810417052957 a2_x5
+0.039302171561931304 a2_x1
<= 9.7193230455439608

a2_local_7: 
+10.564315452599081 a2_x6
+16.752211948891443 a2_x2
+11.337255190324298 a2_x5
<= 1882.7250932906029

a2_local_8: 
+1.6589707845829912e-06 a2_x2
+2.2253856192987379e-06 a2_x4
+1.5418014284162302e-06 a2_x6
<= 0.00035527258561613274

a2_act_1: 
+0.00015924100584423323 a2_x1
-0.015924100584423322 a2_z1
<= 0

a2_act_2: 
+141.53641529112923 a2_x2
-14153.641529112923 a2_z2
<= 0

a3_local_1: 
+0.090483941138208498 a3_x6
+0.12407622234254236 a3_x2
+0.091074531845467127 a3_x1
<= 15.654776700011654

a3_local_2: 
+5.4130319542099322e-05 a3_x3
+3.7140309387564952e-05 a3_x1
+4.3170982374747801e-05 a3_x4
<= 0.0077505672376035712

a3_local_3: 
+27.144316750061165 a3_x4
+21.941414461640029 a3_x1
+32.124980568414898 a3_x6
<= 4732.8451083558084

a3_local_4: 
+37.045505023719869 a3_x1
+37.294554802410687 a3_x3
+26.242089480994885 a3_x5
<= 3689.4970320652201

a3_local_5: 
+6.9921454693985385 a3_x5
+14.843648188621826 a3_x4
+19.510984678390731 a3_x6
<= 1783.9567924250991

a3_local_6: 
+36.65959692699424 a3_x2
+60.590207796638062 a3_x3
+62.260918580501901 a3_x6
<= 8528.3765956697443

a3_local_7: 
+95122.534455760455 a3_x4
+55137.41321018344 a3_x1
+113839.85313843792 a3_x2
<= 14183350.181763036

a3_local_8: 
+90.258121595151735 a3_x2
+42.492236112002232 a3_x1
+66.495389964701829 a3_x5
<= 6520.675583394147

a3_act_1: 
+5.4943514238174656 a3_x1
-549.43514238174657 a3_z1
<= 0

a3_act_2: 
+2.99900848563669e-05 a3_x2
-0.0029990084856366902 a3_z2
<= 0

a4_local_1: 
+1851.0490455986812 a4_x1
+3308.7173469083777 a4_x4
+2484.7080319649181 a4_x3
<= 306346.54364003532

a4_local_2: 
+44.863547140157451 a4_x1
+32.395307074938316 a4_x6
+33.413413505695054 a4_x3
<= 5192.282957145695

a4_local_3: 
+0.025010444241700684 a4_x2
+0.015773384429865932 a4_x5
+0.034176884019018847 a4_x1
<= 4.27213739981452

a4_local_4: 
+0.00012779038165148585 a4_x5
+0.00013205537189219893 a4_x4
+0.00019417581887777013 a4_x3
<= 0.019625378270278247

a4_local_5: 
+383475.27797719947 a4_x1
+695040.76538341423 a4_x4
+803518.13854516135 a4_x2
<= 76208611.035831571

a4_local_6: 
+92.272642223428775 a4_x4
+109.59813535196703 a4_x2
+60.048795164958491 a4_x6
<= 13347.759441366776

a4_local_7: 
+134.4325278428249 a4_x2
+143.48039505130285 a4_x1
+173.09322846801874 a4_x3
<= 21711.800102528799

a4_local_8: 
+6.3402651545482156 a4_x1
+3.9561113695614378 a4_x2
+7.2197721287301455 a4_x5
<= 1141.4560981105612

a4_act_1: 
+0.12433034612835597 a4_x1
-12.433034612835597 a4_z1
<= 0

a4_act_2: 
+0.00043403942169190475 a4_x2
-0.043403942169190475 a4_z2
<= 0

coupling_1: 
+22463.815101029733 a1_x1
+86785.226623952578 a2_x1
+395678.20109729172 a3_x1
+1859074.9644168678 a4_x1
+152254.62414554431 short_1
-152254.62414554431 surp_1
= 59178396.594863445

coupling_2: 
+0.1368246377545525 a1_x2
+0.75542345517634579 a2_x2
+4.9419679215786108 a3_x2
+15.533998262592412 a4_x2
+2.0398728667816162 short_2
-2.0398728667816162 surp_2
= 484.86927611285427

coupling_3: 
+2.8019056582718074 a1_x3
+12.607384155531067 a2_x3
+43.912631628643908 a3_x3
+123.9674772679617 a4_x3
+19.066499677447126 short_3
-19.066499677447126 surp_3
= 3773.8706279755156

bounds
  0 <= a1_x1 <= 100
  0 <= a1_x2 <= 100
  0 <= a1_x3 <= 100
  0 <= a1_x4 <= 100
  0 <= a1_x5 <= 100
  0 <= a1_x6 <= 100
  0 <= a2_x1 <= 100
  0 <= a2_x2 <= 100
  0 <= a2_x3 <= 100
  0 <= a2_x4 <= 100
  0 <= a2_x5 <= 100
  0 <= a2_x6 <= 100
  0 <= a3_x1 <= 100
  0 <= a3_x2 <= 100
  0 <= a3_x3 <= 100
  0 <= a3_x4 <= 100
  0 <= a3_x5 <= 100
  0 <= a3_x6 <= 100
  0 <= a4_x1 <= 100
  0 <= a4_x2 <= 100
  0 <= a4_x3 <= 100
  0 <= a4_x4 <= 100
  0 <= a4_x5 <= 100
  0 <= a4_x6 <= 100
  0 <= short_1 <= +inf
  0 <= surp_1 <= +inf
  0 <= short_2 <= +inf
  0 <= surp_2 <= +inf
  0 <= short_3 <= +inf
  0 <= surp_3 <= +inf
 0 <= a1_z1 <= 1
 0 <= a1_z2 <= 1
 0 <= a2_z1 <= 1
 0 <= a2_z2 <= 1
 0 <= a3_z1 <= 1
 0 <= a3_z2 <= 1
 0 <= a4_z1 <= 1
 0 <= a4_z2 <= 1

binary
  a1_z1
  a1_z2
  a2_z1
  a2_z2
  a3_z1
  a3_z2
  a4_z1
  a4_z2
end
