min
obj: 
  +1.5869078218103445 a1_x1
  +1.8591431952918778 a1_x2
  +3.3231109040519993 a1_x3
  +9.2087059181463786 a1_x4
  +9.6203246603591985 a1_x5
  +2.6522167369866532 a1_x6
  +45.971215901918207 a1_z1
  +15.231591264695247 a1_z2
  +7.3851642913844699 a2_x1
  +8.184615433312981 a2_x2
  +6.3286902635835114 a2_x3
  +1.720840343178456 a2_x4
  +2.5195780412124975 a2_x5
  +8.1969421632275719 a2_x6
  +32.909722818284479 a2_z1
  +29.006081337850453 a2_z2
  +9.6251817518945995 a3_x1
  +3.9009418953480735 a3_x2
  +1.3219510135661245 a3_x3
  +4.7485775019531236 a3_x4
  +3.5558983548633152 a3_x5
  +8.1243659823807501 a3_x6
  +20.822115549059351 a3_z1
  +25.222874624514855 a3_z2
  +3.9740281273618923 a4_x1
  +5.8725760658506196 a4_x2
  +8.5449306619724936 a4_x3
  +7.8945369096479574 a4_x4
  +2.7042977066829055 a4_x5
  +9.2622687133164359 a4_x6
  +13.310232891557296 a4_z1
  +27.542990425232677 a4_z2
  +1000000 short_1
  +1000000 surp_1
  +1000000 short_2
  +1000000 surp_2
  +1000000 short_3
  +1000000 surp_3

s.t.

a1_local_1: 
+0.91555290746555562 a1_x4
+1.1866305975125666 a1_x1
+0.84272224405490281 a1_x3
<= 130.56099750115047

a1_local_2: 
+1.2129037560419322 a1_x2
+0.82446772468023288 a1_x4
+0.94047146436761964 a1_x3
<= 200.52635914903735

a1_local_3: 
+0.70624019261684523 a1_x6
+1.4159488661990207 a1_x4
+0.84574465110272823 a1_x1
<= 128.1738014578504

a1_local_4: 
+1.105304944324456 a1_x6
+0.98232533685459611 a1_x2
+0.90472769993007096 a1_x1
<= 117.22584078360315

a1_local_5: 
+0.76824010820558197 a1_x1
+1.1192767905085201 a1_x2
+1.3016763760691319 a1_x5
<= 166.45317172246791

a1_local_6: 
+0.7949898278877221 a1_x1
+1.257877729903774 a1_x2
+1.1199098105920442 a1_x6
<= 115.06265014146928

a1_local_7: 
+0.68561719186186931 a1_x5
+1.4585398555779927 a1_x2
+1.2564220981266883 a1_x4
<= 225.26480219821286

a1_local_8: 
+1.191325736390545 a1_x1
+0.83940098786901085 a1_x2
+1.1722428543263963 a1_x3
<= 200.69197057039935

a1_act_1: 
+0.099999999999999992 a1_x1
-10 a1_z1
<= 0

a1_act_2: 
+0.10000000000000001 a1_x2
-10 a1_z2
<= 0

a2_local_1: 
+0.62681876580670448 a2_x1
+1.5953574694162482 a2_x5
+0.95578965056642762 a2_x3
<= 170.11644849315778

a2_local_2: 
+0.65050579285849564 a2_x4
+1.5372653264250482 a2_x2
+1.2546061477204333 a2_x5
<= 157.53195180918649

a2_local_3: 
+1.109270528514626 a2_x2
+0.98690089922469171 a2_x1
+0.90149334566659312 a2_x5
<= 99.631991056282999

a2_local_4: 
+1.2060793228487074 a2_x6
+0.82274844310066719 a2_x2
+1.215438337666529 a2_x4
<= 151.5722843501182

a2_local_5: 
+0.74301116243361165 a2_x1
+1.3458748004870662 a2_x6
+1.1724271539103084 a2_x2
<= 154.6009875303518

a2_local_6: 
+0.99533775265008928 a2_x4
+1.0427600178726866 a2_x6
+0.95899342404792209 a2_x5
<= 157.15927654167581

a2_local_7: 
+1.0399803328289989 a2_x4
+0.71771198863494945 a2_x6
+1.3933165612879719 a2_x3
<= 193.85182720320296

a2_local_8: 
+1.2241366966643883 a2_x5
+1.0672067519535393 a2_x1
+0.81690223218115166 a2_x4
<= 202.49091843312505

a2_act_1: 
+0.10000000000000001 a2_x1
-10.000000000000002 a2_z1
<= 0

a2_act_2: 
+0.099999999999999992 a2_x2
-10 a2_z2
<= 0

a3_local_1: 
+1.294066883200826 a3_x3
+1.500531737617844 a3_x5
+0.66643042258309115 a3_x4
<= 119.91388423991923

a3_local_2: 
+1.0945636544864941 a3_x3
+1.2169345762837114 a3_x5
+0.8217368620208092 a3_x2
<= 159.55734036243356

a3_local_3: 
+0.8383881398746128 a3_x5
+1.0696121414360911 a3_x6
+1.1927649646255225 a3_x2
<= 155.55360864620715

a3_local_4: 
+1.5410614029575271 a3_x4
+1.3481275166892885 a3_x3
+0.64890341039030019 a3_x1
<= 154.49538725697164

a3_local_5: 
+1.4700543535625181 a3_x1
+1.2510176638048407 a3_x4
+0.68024695656769962 a3_x5
<= 195.14260034300585

a3_local_6: 
+0.74214363035317843 a3_x5
+1.3474480667901314 a3_x4
+1.0476830310946885 a3_x6
<= 126.88459199627016

a3_local_7: 
+1.1414649673954567 a3_x5
+0.87606718433221376 a3_x4
+1.0228261738446121 a3_x2
<= 184.58100150212582

a3_local_8: 
+1.4793239649500829 a3_x6
+0.67598445215057623 a3_x2
+1.1207892307676854 a3_x3
<= 178.75290101777702

a3_act_1: 
+0.099999999999999992 a3_x1
-10 a3_z1
<= 0

a3_act_2: 
+0.099999999999999992 a3_x2
-10 a3_z2
<= 0

a4_local_1: 
+0.93947639559538909 a4_x3
+0.78765587113540048 a4_x2
+1.2695899778649613 a4_x4
<= 177.3744345505558

a4_local_2: 
+1.3648935583549875 a4_x5
+0.69086760369113143 a4_x4
+1.4474553368217764 a4_x1
<= 140.56322969863709

a4_local_3: 
+0.86902498258530059 a4_x3
+1.0521663348511829 a4_x2
+1.1507149046797893 a4_x6
<= 176.11462229582634

a4_local_4: 
+0.9191671022917155 a4_x1
+1.0879414608146307 a4_x6
+1.0470652219010965 a4_x5
<= 141.09578028810029

a4_local_5: 
+1.438326262178568 a4_x1
+1.5932210946847254 a4_x2
+1.355175386340471 a4_x6
<= 172.56282689085833

a4_local_6: 
+0.58343803471211131 a4_x6
+1.713978075655344 a4_x3
+0.97723231614370909 a4_x5
<= 134.29665337981862

a4_local_7: 
+0.8278148124298581 a4_x1
+0.86914953755802127 a4_x4
+1.2079996455544595 a4_x5
<= 93.539775984328628

a4_local_8: 
+0.91569763806754612 a4_x5
+0.80675946977201041 a4_x1
+1.2395268199115148 a4_x6
<= 169.00558659030295

a4_act_1: 
+0.10000000000000001 a4_x1
-10 a4_z1
<= 0

a4_act_2: 
+0.10000000000000001 a4_x2
-10 a4_z2
<= 0

coupling_1: 
+0.01029898991321334 a1_x1
+0.032368948340112523 a2_x1
+0.10825648259669426 a3_x1
+0.98858493591554719 a4_x1
+0.070094723220681346 short_1
-0.070094723220681346 surp_1
= 67.730214184076331

coupling_2: 
+0.012251900097095481 a1_x2
+0.027696921403999753 a2_x2
+0.32000759548621022 a3_x2
+0.93444765661718876 a4_x2
+0.10836394087179052 short_2
-0.10836394087179052 surp_2
= 100.61427564454893

coupling_3: 
+0.0073245544154903882 a1_x3
+0.030153217725247247 a2_x3
+0.28641203701550827 a3_x3
+0.9446155951503572 a4_x3
+0.11114552805846925 short_3
-0.11114552805846925 surp_3
= 64.668294870653568

bounds
  0 <= a1_x1 <= 100
  0 <= a1_x2 <= 100
  0 <= a1_x3 <= 100
  0 <= a1_x4 <= 100
  0 <= a1_x5 <= 100
  0 <= a1_x6 <= 100
  0 <= a2_x1 <= 100
  0 <= a2_x2 <= 100
  0 <= a2_x3 <= 100
  0 <= a2_x4 <= 100
  0 <= a2_x5 <= 100
  0 <= a2_x6 <= 100
  0 <= a3_x1 <= 100
  0 <= a3_x2 <= 100
  0 <= a3_x3 <= 100
  0 <= a3_x4 <= 100
  0 <= a3_x5 <= 100
  0 <= a3_x6 <= 100
  0 <= a4_x1 <= 100
  0 <= a4_x2 <= 100
  0 <= a4_x3 <= 100
  0 <= a4_x4 <= 100
  0 <= a4_x5 <= 100
  0 <= a4_x6 <= 100
  0 <= short_1 <= +inf
  0 <= surp_1 <= +inf
  0 <= short_2 <= +inf
  0 <= surp_2 <= +inf
  0 <= short_3 <= +inf
  0 <= surp_3 <= +inf
 0 <= a1_z1 <= 1
 0 <= a1_z2 <= 1
 0 <= a2_z1 <= 1
 0 <= a2_z2 <= 1
 0 <= a3_z1 <= 1
 0 <= a3_z2 <= 1
 0 <= a4_z1 <= 1
 0 <= a4_z2 <= 1

binary
  a1_z1
  a1_z2
  a2_z1
  a2_z2
  a3_z1
  a3_z2
  a4_z1
  a4_z2
end
