min
obj: 
  +1.5770974257819579 a1_x1
  +5.2436233239928463 a1_x2
  +8.0695966456126804 a1_x3
  +3.4781022885686368 a1_x4
  +9.412058306823841 a1_x5
  +8.3165688602967034 a1_x6
  +34.001400959855452 a1_z1
  +10.410503430419741 a1_z2
  +6.4773554290647395 a2_x1
  +9.5833935756226563 a2_x2
  +2.026827474230366 a2_x3
  +2.5146383338919818 a2_x4
  +5.9719159164755045 a2_x5
  +2.1752834405324757 a2_x6
  +46.820939487606068 a2_z1
  +31.119838842287344 a2_z2
  +4.2898026117145012 a3_x1
  +6.2971939246586208 a3_x2
  +7.0812452369118279 a3_x3
  +4.947199835085236 a3_x4
  +8.0650994710678727 a3_x5
  +5.8436848317688934 a3_x6
  +45.408472421232204 a3_z1
  +47.685437857449642 a3_z2
  +7.6745490131872192 a4_x1
  +9.5447276615633179 a4_x2
  +6.4685946234911675 a4_x3
  +6.1047180091187832 a4_x4
  +9.0091726197219533 a4_x5
  +9.2042443028710519 a4_x6
  +10.38795682780167 a4_z1
  +22.655186795949191 a4_z2
  +1000000 short_1
  +1000000 surp_1
  +1000000 short_2
  +1000000 surp_2
  +1000000 short_3
  +1000000 surp_3

s.t.

a1_local_1: 
+0.64098504467401418 a1_x1
+0.65529248652179217 a1_x6
+0.39966226943800787 a1_x5
<= 89.211705947332462

a1_local_2: 
+0.51791392364174615 a1_x5
+0.285632170645788 a1_x4
+0.80633704540358764 a1_x1
<= 50.322073711188992

a1_local_3: 
+0.51223022241792837 a1_x2
+0.731439904087825 a1_x3
+0.45012872153382205 a1_x5
<= 66.633648216849238

a1_local_4: 
+0.75099222928415788 a1_x2
+0.60024298270744103 a1_x4
+0.27517091645972558 a1_x1
<= 81.776269246822181

a1_local_5: 
+0.60736785680026173 a1_x1
+0.38691354606789718 a1_x3
+0.69383153170998368 a1_x2
<= 65.536819901998797

a1_local_6: 
+0.68877257932184777 a1_x3
+0.55054256056530126 a1_x4
+0.47169399294514092 a1_x2
<= 71.828481455988154

a1_local_7: 
+0.6849835004274567 a1_x1
+0.42723759969205399 a1_x4
+0.59014035411207078 a1_x3
<= 94.356666920411797

a1_local_8: 
+0.6741717186608206 a1_x3
+0.43427756292491182 a1_x2
+0.59740730837336986 a1_x5
<= 77.952730850940938

a1_act_1: 
+0.0099995000374968751 a1_x1
-0.99995000374968745 a1_z1
<= 0

a1_act_2: 
+0.0099995000374968751 a1_x2
-0.99995000374968745 a1_z2
<= 0

a2_local_1: 
+0.68054141092408726 a2_x3
+1.1723713095459181 a2_x6
+1.1724580926369059 a2_x4
<= 168.0930267312477

a2_local_2: 
+0.70063395603317591 a2_x6
+0.28979465704822432 a2_x4
+0.65202079445337002 a2_x2
<= 88.256257294672722

a2_local_3: 
+0.40755672572156987 a2_x4
+0.58260213990676446 a2_x5
+0.70318721681723706 a2_x2
<= 76.545453412864148

a2_local_4: 
+0.58327457515925851 a2_x6
+0.66254764057874038 a2_x5
+0.46991636908744827 a2_x1
<= 57.065110315808006

a2_local_5: 
+0.58338534803205944 a2_x6
+0.58997825684685656 a2_x5
+0.55819995713853032 a2_x2
<= 68.183686765057345

a2_local_6: 
+0.84864798074129189 a2_x1
+0.5870828625005805 a2_x6
+1.0306751220125936 a2_x3
<= 126.46980366823276

a2_local_7: 
+0.46567618922908605 a2_x2
+0.51535388704713037 a2_x4
+0.71941369036910197 a2_x5
<= 89.579951195159296

a2_local_8: 
+0.52642759393292127 a2_x4
+0.53709654009455499 a2_x3
+0.65909126451839251 a2_x2
<= 55.47908589903637

a2_act_1: 
+0.0099995000374968768 a2_x1
-0.99995000374968757 a2_z1
<= 0

a2_act_2: 
+0.0099995000374968768 a2_x2
-0.99995000374968757 a2_z2
<= 0

a3_local_1: 
+0.56881157551933192 a3_x3
+0.50127803366394641 a3_x4
+0.65205346753255045 a3_x2
<= 95.682724425718575

a3_local_2: 
+0.42426419607962784 a3_x3
+0.51108656922784368 a3_x4
+0.7475228496038232 a3_x6
<= 110.03949284654108

a3_local_3: 
+0.47237822426315723 a3_x2
+0.75340605349799261 a3_x3
+0.45742554781578015 a3_x5
<= 63.350653673085219

a3_local_4: 
+0.41632820917113483 a3_x2
+0.68221755016079455 a3_x5
+0.60104079437336011 a3_x3
<= 89.221680966901317

a3_local_5: 
+0.64737635948030325 a3_x2
+0.31855893998348123 a3_x5
+0.6924045428379495 a3_x3
<= 103.6217721198326

a3_local_6: 
+0.6123311649222285 a3_x5
+0.52548391379954917 a3_x6
+0.59069213707556223 a3_x1
<= 91.197085493310354

a3_local_7: 
+0.55063473608792679 a3_x3
+0.63630490896256409 a3_x5
+0.54029385545601227 a3_x2
<= 101.64888186630587

a3_local_8: 
+0.47824837657156016 a3_x5
+0.73030910514649916 a3_x3
+0.48777771704618367 a3_x2
<= 94.479189735363008

a3_act_1: 
+0.0099995000374968751 a3_x1
-0.99995000374968745 a3_z1
<= 0

a3_act_2: 
+0.0099995000374968751 a3_x2
-0.99995000374968745 a3_z2
<= 0

a4_local_1: 
+0.55640978656014128 a4_x6
+0.62055276295368056 a4_x1
+0.55255987712704135 a4_x3
<= 64.60537443139053

a4_local_2: 
+0.44669998527998572 a4_x2
+0.74503452376760726 a4_x4
+0.49536116273405539 a4_x6
<= 94.78128155706591

a4_local_3: 
+0.51349915663727086 a4_x3
+0.38979958032837603 a4_x2
+0.76444417932811393 a4_x1
<= 50.343646249942637

a4_local_4: 
+0.41970762564987546 a4_x3
+0.63316057931486336 a4_x5
+0.65034851408534078 a4_x2
<= 104.74023310770232

a4_local_5: 
+0.6068140382902889 a4_x3
+0.62586769129634812 a4_x2
+0.48996566810870601 a4_x1
<= 95.007778408741956

a4_local_6: 
+0.71250079101605179 a4_x5
+0.26011860558008487 a4_x1
+0.65167548199435343 a4_x6
<= 77.254308084356197

a4_local_7: 
+0.70643084178072268 a4_x6
+0.3810797845900839 a4_x3
+0.59643412340153257 a4_x2
<= 112.45344225473657

a4_local_8: 
+0.42816950302948487 a4_x2
+0.50767791381381555 a4_x6
+0.74761889522746539 a4_x5
<= 85.465063888660467

a4_act_1: 
+0.0099995000374968751 a4_x1
-0.99995000374968757 a4_z1
<= 0

a4_act_2: 
+0.0099995000374968768 a4_x2
-0.99995000374968768 a4_z2
<= 0

coupling_1: 
+0.0069294898565800157 a1_x1
+0.047780264283725039 a2_x1
+0.1949327620118991 a3_x1
+0.97469611098730302 a4_x1
+0.069418074144793201 short_1
-0.069418074144793201 surp_1
= 90.296682270936302

coupling_2: 
+0.0078111397459985701 a1_x2
+0.030063534205508554 a2_x2
+0.22563455684954914 a3_x2
+0.96608758061387245 a4_x2
+0.08602035615447301 short_2
-0.08602035615447301 surp_2
= 44.292783372649254

coupling_3: 
+0.01412136672864398 a1_x3
+0.043334445646231526 a2_x3
+0.16152073685155835 a3_x3
+0.97260260340623517 a4_x3
+0.11374959392585166 short_3
-0.11374959392585166 surp_3
= 69.554704252749559

bounds
  0 <= a1_x1 <= 100
  0 <= a1_x2 <= 100
  0 <= a1_x3 <= 100
  0 <= a1_x4 <= 100
  0 <= a1_x5 <= 100
  0 <= a1_x6 <= 100
  0 <= a2_x1 <= 100
  0 <= a2_x2 <= 100
  0 <= a2_x3 <= 100
  0 <= a2_x4 <= 100
  0 <= a2_x5 <= 100
  0 <= a2_x6 <= 100
  0 <= a3_x1 <= 100
  0 <= a3_x2 <= 100
  0 <= a3_x3 <= 100
  0 <= a3_x4 <= 100
  0 <= a3_x5 <= 100
  0 <= a3_x6 <= 100
  0 <= a4_x1 <= 100
  0 <= a4_x2 <= 100
  0 <= a4_x3 <= 100
  0 <= a4_x4 <= 100
  0 <= a4_x5 <= 100
  0 <= a4_x6 <= 100
  0 <= short_1 <= +inf
  0 <= surp_1 <= +inf
  0 <= short_2 <= +inf
  0 <= surp_2 <= +inf
  0 <= short_3 <= +inf
  0 <= surp_3 <= +inf
 0 <= a1_z1 <= 1
 0 <= a1_z2 <= 1
 0 <= a2_z1 <= 1
 0 <= a2_z2 <= 1
 0 <= a3_z1 <= 1
 0 <= a3_z2 <= 1
 0 <= a4_z1 <= 1
 0 <= a4_z2 <= 1

binary
  a1_z1
  a1_z2
  a2_z1
  a2_z2
  a3_z1
  a3_z2
  a4_z1
  a4_z2
end
