min
obj: 
  +1.5869078218103445 a1_x1
  +1.8591431952918778 a1_x2
  +3.3231109040519993 a1_x3
  +9.2087059181463786 a1_x4
  +9.6203246603591985 a1_x5
  +2.6522167369866532 a1_x6
  +45.971215901918207 a1_z1
  +15.231591264695247 a1_z2
  +7.3851642913844699 a2_x1
  +8.184615433312981 a2_x2
  +6.3286902635835114 a2_x3
  +1.720840343178456 a2_x4
  +2.5195780412124975 a2_x5
  +8.1969421632275719 a2_x6
  +32.909722818284479 a2_z1
  +29.006081337850453 a2_z2
  +9.6251817518945995 a3_x1
  +3.9009418953480735 a3_x2
  +1.3219510135661245 a3_x3
  +4.7485775019531236 a3_x4
  +3.5558983548633152 a3_x5
  +8.1243659823807501 a3_x6
  +20.822115549059351 a3_z1
  +25.222874624514855 a3_z2
  +3.9740281273618923 a4_x1
  +5.8725760658506196 a4_x2
  +8.5449306619724936 a4_x3
  +7.8945369096479574 a4_x4
  +2.7042977066829055 a4_x5
  +9.2622687133164359 a4_x6
  +13.310232891557296 a4_z1
  +27.542990425232677 a4_z2
  +1000000 short_1
  +1000000 surp_1
  +1000000 short_2
  +1000000 surp_2
  +1000000 short_3
  +1000000 surp_3

s.t.

a1_local_1: 
+3.5376350179723647e-06 a1_x4
+4.5850610280715599e-06 a1_x1
+3.2562222201288091e-06 a1_x3
<= 0.00050447893614367532

a1_local_2: 
+668.95165410702418 a1_x2
+454.71789945024216 a1_x4
+518.69733158565987 a1_x3
<= 110596.11199701008

a1_local_3: 
+4.6675278284622382e-07 a1_x6
+9.3579787808098284e-07 a1_x4
+5.5895101072741095e-07 a1_x1
<= 8.4709818477986319e-05

a1_local_4: 
+3.7484949796724013e-05 a1_x6
+3.3314259675685963e-05 a1_x2
+3.0682638837114558e-05 a1_x1
<= 0.0039755587625076548

a1_local_5: 
+0.002335384519940178 a1_x1
+0.0034025061464018611 a1_x2
+0.0039569853567580143 a1_x5
<= 0.50600346998749846

a1_local_6: 
+7.6000431532965295e-07 a1_x1
+1.2025216793326725e-06 a1_x2
+1.070625382832163e-06 a1_x6
<= 0.00010999903089720189

a1_local_7: 
+4.1115188710231903e-07 a1_x5
+8.7465924301917569e-07 a1_x2
+7.5345298042922746e-07 a1_x4
<= 0.00013508711511450185

a1_local_8: 
+1.9478767768610297e-05 a1_x1
+1.3724623256256466e-05 a1_x2
+1.9166753164435345e-05 a1_x3
<= 0.0032814134441598616

a1_act_1: 
+80.129338077455188 a1_x1
-8012.9338077455186 a1_z1
<= 0

a1_act_2: 
+449.36641123088737 a1_x2
-44936.641123088739 a1_z2
<= 0

a2_local_1: 
+5.4111066188131751 a2_x1
+13.772161640727578 a2_x5
+8.2509969172939677 a2_x3
<= 1468.5556505725003

a2_local_2: 
+5.8259201891125203 a2_x4
+13.767725360119169 a2_x2
+11.236233966911243 a2_x5
<= 1410.8538133727002

a2_local_3: 
+0.023291643365038691 a2_x2
+0.020722216258785627 a2_x1
+0.018928891522375806 a2_x5
<= 2.0919989702954327

a2_local_4: 
+0.0022773524078150732 a2_x6
+0.0015535364154124097 a2_x2
+0.0022950243590096273 a2_x4
<= 0.28620298862886068

a2_local_5: 
+9.7277423940026486e-05 a2_x1
+0.00017620628081597219 a2_x6
+0.00015349795407672927 a2_x2
<= 0.020240861195514728

a2_local_6: 
+12.492039773145779 a2_x4
+13.087215452673741 a2_x6
+12.035898330487006 a2_x5
<= 1972.4359174062263

a2_local_7: 
+8.9243765502240926 a2_x4
+6.1588972781484523 a2_x6
+11.95645845799068 a2_x3
<= 1663.4994396522088

a2_local_8: 
+1.5295893418863816e-06 a2_x5
+1.3335014609278198e-06 a2_x1
+1.0207397189482802e-06 a2_x4
<= 0.00025301745426639091

a2_act_1: 
+0.42594959901698443 a2_x1
-42.594959901698445 a2_z1
<= 0

a2_act_2: 
+436.738468188583 a2_x2
-43673.846818858299 a2_z2
<= 0

a3_local_1: 
+0.0024193435298317479 a3_x3
+0.0028053432151308173 a3_x5
+0.0012459357023119361 a3_x4
<= 0.22418692861937589

a3_local_2: 
+31918.72641411658 a3_x3
+35487.202270115165 a3_x5
+23962.78551341256 a3_x2
<= 4652874.2970018275

a3_local_3: 
+1316.6195520905924 a3_x5
+1679.7378106742581 a3_x6
+1873.1391807492344 a3_x2
<= 244284.13619075608

a3_local_4: 
+0.026566180665425803 a3_x4
+0.023240215542136029 a3_x3
+0.011186371420214444 a3_x1
<= 2.6633282502350433

a3_local_5: 
+0.00042340605900307828 a3_x1
+0.00036031896201062409 a3_x4
+0.00019592519305914151 a3_x5
<= 0.056205105038880473

a3_local_6: 
+2.0516414500322955e-05 a3_x5
+3.7249936434500305e-05 a3_x4
+2.8962991059647405e-05 a3_x6
<= 0.0035076995565683092

a3_local_7: 
+1277.8994171025809 a3_x5
+980.77976650945209 a3_x4
+1145.0802334614823 a3_x2
<= 206643.18307200292

a3_local_8: 
+3697.1871131434218 a3_x6
+1689.4480616764422 a3_x2
+2801.1224036947442 a3_x3
<= 446746.58001787134

a3_act_1: 
+3.0284500262069163e-05 a3_x1
-0.0030284500262069162 a3_z1
<= 0

a3_act_2: 
+128141.03396411342 a3_x2
-12814103.396411343 a3_z2
<= 0

a4_local_1: 
+0.00011206682447963469 a4_x3
+9.3956689784572918e-05 a4_x2
+0.00015144490897009419 a4_x4
<= 0.021158370468003215

a4_local_2: 
+25.416202319530885 a4_x5
+12.864908537326688 a4_x4
+26.953616612775306 a4_x1
<= 2617.4813873493858

a4_local_3: 
+3.4695726149344797 a4_x3
+4.200762434809886 a4_x2
+4.5942165080185688 a4_x6
<= 703.13567831998489

a4_local_4: 
+348746.45461828558 a4_x1
+412782.10060538695 a4_x6
+397273.0126890738 a4_x5
<= 53533958.095748812

a4_local_5: 
+1.438326262178568 a4_x1
+1.5932210946847254 a4_x2
+1.355175386340471 a4_x6
<= 172.56282689085833

a4_local_6: 
+26.146131555691291 a4_x6
+76.810035656602281 a4_x3
+43.793587627474444 a4_x5
<= 6018.3562912390998

a4_local_7: 
+0.15920942668284438 a4_x1
+0.16715912484109693 a4_x4
+0.232328448481466 a4_x5
<= 17.990030962110275

a4_local_8: 
+8.1955207511152681e-05 a4_x5
+7.2205209457879417e-05 a4_x1
+0.00011093801438198528 a4_x6
<= 0.015126049630075224

a4_act_1: 
+33285.110120648438 a4_x1
-3328511.0120648439 a4_z1
<= 0

a4_act_2: 
+8298.8540236336921 a4_x2
-829885.40236336924 a4_z2
<= 0

coupling_1: 
+0.13736557864692117 a1_x1
+0.43172965081044157 a2_x1
+1.4439002756082433 a3_x1
+13.185520415885044 a4_x1
+0.93490743232512796 short_1
-0.93490743232512796 surp_1
= 903.37015005122169

coupling_2: 
+799.3025996431179 a1_x2
+1806.9214656407748 a2_x2
+20876.998747182795 a3_x2
+60962.498489651029 a4_x2
+7069.563003287054 short_2
-7069.563003287054 surp_2
= 6563982.0310779717

coupling_3: 
+2.1404400333296496e-07 a1_x3
+8.8116151088084021e-07 a2_x3
+8.3697622446353685e-06 a3_x3
+2.7604314491695522e-05 a4_x3
+3.2479837582855024e-06 short_3
-3.2479837582855024e-06 surp_3
= 0.0018897887758957423

bounds
  0 <= a1_x1 <= 100
  0 <= a1_x2 <= 100
  0 <= a1_x3 <= 100
  0 <= a1_x4 <= 100
  0 <= a1_x5 <= 100
  0 <= a1_x6 <= 100
  0 <= a2_x1 <= 100
  0 <= a2_x2 <= 100
  0 <= a2_x3 <= 100
  0 <= a2_x4 <= 100
  0 <= a2_x5 <= 100
  0 <= a2_x6 <= 100
  0 <= a3_x1 <= 100
  0 <= a3_x2 <= 100
  0 <= a3_x3 <= 100
  0 <= a3_x4 <= 100
  0 <= a3_x5 <= 100
  0 <= a3_x6 <= 100
  0 <= a4_x1 <= 100
  0 <= a4_x2 <= 100
  0 <= a4_x3 <= 100
  0 <= a4_x4 <= 100
  0 <= a4_x5 <= 100
  0 <= a4_x6 <= 100
  0 <= short_1 <= +inf
  0 <= surp_1 <= +inf
  0 <= short_2 <= +inf
  0 <= surp_2 <= +inf
  0 <= short_3 <= +inf
  0 <= surp_3 <= +inf
 0 <= a1_z1 <= 1
 0 <= a1_z2 <= 1
 0 <= a2_z1 <= 1
 0 <= a2_z2 <= 1
 0 <= a3_z1 <= 1
 0 <= a3_z2 <= 1
 0 <= a4_z1 <= 1
 0 <= a4_z2 <= 1

binary
  a1_z1
  a1_z2
  a2_z1
  a2_z2
  a3_z1
  a3_z2
  a4_z1
  a4_z2
end
