min
obj: 
  +3.0571104005516858 a1_x1
  +8.0556013187453051 a1_x2
  +1.9742345173811016 a1_x3
  +4.4385591714508195 a1_x4
  +2.091774352732247 a1_x5
  +8.3606733491801819 a1_x6
  +15.666425601953888 a1_z1
  +12.324732571684713 a1_z2
  +3.9044727049854391 a2_x1
  +3.1906424171049248 a2_x2
  +7.2566205037606055 a2_x3
  +4.240342031508578 a2_x4
  +1.7216538193625648 a2_x5
  +9.8652119955060549 a2_x6
  +47.432933857706239 a2_z1
  +10.018499727455843 a2_z2
  +7.6634289009813905 a3_x1
  +6.6031951543936822 a3_x2
  +5.6627725428325562 a3_x3
  +4.150259343395577 a3_x4
  +2.0433644620272413 a3_x5
  +3.9564814242041457 a3_x6
  +26.646913444644401 a3_z1
  +25.192698563482555 a3_z2
  +2.4319173360803403 a4_x1
  +1.259802781834898 a4_x2
  +6.7186619976265831 a4_x3
  +9.2328283032404528 a4_x4
  +5.8537835915052003 a4_x5
  +9.834988999700645 a4_x6
  +10.083472599865093 a4_z1
  +40.29173016694412 a4_z2
  +1000000 short_1
  +1000000 surp_1
  +1000000 short_2
  +1000000 surp_2
  +1000000 short_3
  +1000000 surp_3

s.t.

a1_local_1: 
+0.021590096243094901 a1_x5
+0.035536448675726758 a1_x1
+0.014958980270025658 a1_x6
<= 2.8200956982419028

a1_local_2: 
+0.072491406704733419 a1_x6
+0.14460817118931305 a1_x4
+0.12610658657133117 a1_x2
<= 14.688640237989606

a1_local_3: 
+2140.9625863190363 a1_x4
+952.10369546040545 a1_x5
+1658.9125847885171 a1_x1
<= 314119.0633485298

a1_local_4: 
+9643.93099152369 a1_x3
+3428.8941912528308 a1_x1
+4248.4723402505897 a1_x4
<= 763703.95491065213

a1_local_5: 
+81.615077982693961 a1_x4
+96.543436792201845 a1_x5
+109.06718956758779 a1_x1
<= 8871.7876321272379

a1_local_6: 
+0.43289932106181034 a1_x2
+0.56315894483068618 a1_x5
+0.72381356598419666 a1_x6
<= 65.23279734420052

a1_local_7: 
+9.7551439530577978e-07 a1_x1
+1.0906326931816893e-06 a1_x3
+8.7953760341229004e-07 a1_x5
<= 0.00017271071224799571

a1_local_8: 
+37.823380742836193 a1_x3
+33.205582785404395 a1_x4
+24.368047056085203 a1_x1
<= 3386.5095711251747

a1_act_1: 
+5.287458637580192e-05 a1_x1
-0.0052874586375801919 a1_z1
<= 0

a1_act_2: 
+11.284120929457155 a1_x2
-1128.4120929457154 a1_z2
<= 0

a2_local_1: 
+771.9154086813304 a2_x2
+442.63389460051741 a2_x6
+1135.657182431793 a2_x4
<= 159924.09684203845

a2_local_2: 
+0.000519536175191961 a2_x2
+0.00056338348619489021 a2_x5
+0.00058559016842187333 a2_x3
<= 0.10123696857114842

a2_local_3: 
+0.28684236090054438 a2_x3
+0.22733318152552259 a2_x5
+0.23863518749685303 a2_x2
<= 34.478439519465624

a2_local_4: 
+0.00023201612160339831 a2_x1
+0.00049573786461685684 a2_x5
+0.00033597317494102238 a2_x6
<= 0.068273957163375157

a2_local_5: 
+153.31922392902433 a2_x2
+185.53154944991263 a2_x6
+104.52351400110517 a2_x1
<= 26546.598241285174

a2_local_6: 
+6.3406509471212707e-06 a2_x1
+8.1254008386179902e-06 a2_x5
+4.7432569089812783e-06 a2_x4
<= 0.0012583725076937772

a2_local_7: 
+3.5131623046536848 a2_x6
+2.3804412192812814 a2_x3
+3.9315968996339161 a2_x4
<= 312.04764983683594

a2_local_8: 
+0.027426884723462285 a2_x3
+0.030824824428317833 a2_x1
+0.01841469833112705 a2_x4
<= 4.0889430675073832

a2_act_1: 
+276.40564687645121 a2_x1
-27640.564687645121 a2_z1
<= 0

a2_act_2: 
+0.055129284080574416 a2_x2
-5.5129284080574417 a2_z2
<= 0

a3_local_1: 
+8.2947678047011504 a3_x5
+7.6458895812346723 a3_x6
+4.3878145638254775 a3_x2
<= 940.79127179700652

a3_local_2: 
+7842.4255042787554 a3_x3
+5923.6802233813551 a3_x1
+10199.37745959918 a3_x5
<= 1546452.1421947964

a3_local_3: 
+2.1849855323648928 a3_x6
+4.087667465132653 a3_x2
+4.6186769593087948 a3_x3
<= 531.82306466636658

a3_local_4: 
+2118.8551238102959 a3_x5
+2896.229429593729 a3_x6
+2619.1593333968117 a3_x3
<= 316359.82498218562

a3_local_5: 
+4.3863073593199578e-05 a3_x5
+3.1112738819035651e-05 a3_x6
+2.5234847368018363e-05 a3_x4
<= 0.0037901074298701217

a3_local_6: 
+0.0030264902934848078 a3_x3
+0.0024623396907700614 a3_x6
+0.0032433840376300941 a3_x2
<= 0.28070157461036416

a3_local_7: 
+132356.10980871189 a3_x4
+131877.79606901947 a3_x6
+140258.80311833485 a3_x3
<= 14084262.187903533

a3_local_8: 
+5.249339604290518 a3_x6
+3.174581123570813 a3_x3
+2.4709561630111341 a3_x5
<= 569.72321273837588

a3_act_1: 
+1.3128247103083601e-05 a3_x1
-0.0013128247103083601 a3_z1
<= 0

a3_act_2: 
+9.0256259827548515 a3_x2
-902.56259827548513 a3_z2
<= 0

a4_local_1: 
+10295.739652007793 a4_x4
+20498.481031571042 a4_x1
+8055.3868993184433 a4_x6
<= 2497646.1104142098

a4_local_2: 
+896.96358626020333 a4_x2
+987.96848889034754 a4_x6
+422.73510413403511 a4_x1
<= 122654.96860369967

a4_local_3: 
+660163.64804570761 a4_x4
+959291.12639827444 a4_x3
+719875.76349732175 a4_x5
<= 96264756.746520132

a4_local_4: 
+9.2097621484704764 a4_x1
+17.536644362278537 a4_x6
+10.637321720431565 a4_x4
<= 2578.057207675934

a4_local_5: 
+1095297.1026048374 a4_x3
+1073116.9848254123 a4_x6
+1158215.9007823546 a4_x4
<= 205948305.70308644

a4_local_6: 
+0.052513931018092382 a4_x3
+0.031294119502309016 a4_x1
+0.039685823356606226 a4_x5
<= 5.3057967898763847

a4_local_7: 
+1097.1632530379031 a4_x5
+1853.8262019907042 a4_x4
+1057.9076370127004 a4_x3
<= 230739.44897180705

a4_local_8: 
+0.00011545720539075816 a4_x1
+0.00015062853295642976 a4_x4
+0.00011847409361124303 a4_x6
<= 0.015226960622235925

a4_act_1: 
+1.330960424455411 a4_x1
-133.09604244554109 a4_z1
<= 0

a4_act_2: 
+0.00074643660746782654 a4_x2
-0.07464366074678265 a4_z2
<= 0

coupling_1: 
+4.1846897664991065e-05 a1_x1
+0.00010771148085029255 a2_x1
+0.00062838317430807919 a3_x1
+0.0029981319393087764 a4_x1
+0.00031730102119018771 short_1
-0.00031730102119018771 surp_1
= 0.11934419199834577

coupling_2: 
+0.001118782410386389 a1_x2
+0.0043672333105637179 a2_x2
+0.017387815474821582 a3_x2
+0.092193297154936141 a4_x2
+0.008387359629645149 short_2
-0.008387359629645149 surp_2
= 5.0486581743253316

coupling_3: 
+6.981343894782937e-08 a1_x3
+4.9502455507688555e-07 a2_x3
+2.4044074986134663e-06 a3_x3
+1.8774586171248229e-05 a4_x3
+1.2679758985354879e-06 short_3
-1.2679758985354879e-06 surp_3
= 0.0014947856423580719

bounds
  0 <= a1_x1 <= 100
  0 <= a1_x2 <= 100
  0 <= a1_x3 <= 100
  0 <= a1_x4 <= 100
  0 <= a1_x5 <= 100
  0 <= a1_x6 <= 100
  0 <= a2_x1 <= 100
  0 <= a2_x2 <= 100
  0 <= a2_x3 <= 100
  0 <= a2_x4 <= 100
  0 <= a2_x5 <= 100
  0 <= a2_x6 <= 100
  0 <= a3_x1 <= 100
  0 <= a3_x2 <= 100
  0 <= a3_x3 <= 100
  0 <= a3_x4 <= 100
  0 <= a3_x5 <= 100
  0 <= a3_x6 <= 100
  0 <= a4_x1 <= 100
  0 <= a4_x2 <= 100
  0 <= a4_x3 <= 100
  0 <= a4_x4 <= 100
  0 <= a4_x5 <= 100
  0 <= a4_x6 <= 100
  0 <= short_1 <= +inf
  0 <= surp_1 <= +inf
  0 <= short_2 <= +inf
  0 <= surp_2 <= +inf
  0 <= short_3 <= +inf
  0 <= surp_3 <= +inf
 0 <= a1_z1 <= 1
 0 <= a1_z2 <= 1
 0 <= a2_z1 <= 1
 0 <= a2_z2 <= 1
 0 <= a3_z1 <= 1
 0 <= a3_z2 <= 1
 0 <= a4_z1 <= 1
 0 <= a4_z2 <= 1

binary
  a1_z1
  a1_z2
  a2_z1
  a2_z2
  a3_z1
  a3_z2
  a4_z1
  a4_z2
end
