min
obj: 
  +9.9278906915658744 a1_x1
  +4.1029321056614965 a1_x2
  +3.3290118192963942 a1_x3
  +9.1017647242801925 a1_x4
  +1.0276781995025082 a1_x5
  +7.5015228430107515 a1_x6
  +48.476105885704612 a1_z1
  +46.462393702811802 a1_z2
  +3.1850077691017789 a2_x1
  +1.0794293017939207 a2_x2
  +3.499564475939096 a2_x3
  +4.2123952542391079 a2_x4
  +5.825176560091875 a2_x5
  +3.8934254066749405 a2_x6
  +48.499085817086311 a2_z1
  +41.1366386984797 a2_z2
  +2.6719241979528361 a3_x1
  +3.8682188322270532 a3_x2
  +5.9140343670384405 a3_x3
  +8.8118059009872773 a3_x4
  +5.9790956134935263 a3_x5
  +2.6868556403382673 a3_x6
  +5.1863767770133045 a3_z1
  +6.8806666184499186 a3_z2
  +1.2856225251920637 a4_x1
  +5.2994894770405514 a4_x2
  +9.0295106348529277 a4_x3
  +3.0822666442565567 a4_x4
  +2.1929853575171814 a4_x5
  +7.0676293507155048 a4_x6
  +41.576942647234446 a4_z1
  +44.440960753164354 a4_z2
  +1000000 short_1
  +1000000 surp_1
  +1000000 short_2
  +1000000 surp_2
  +1000000 short_3
  +1000000 surp_3

s.t.

a1_local_1: 
+0.6448703090665312 a1_x4
+0.62715795005958974 a1_x6
+0.43682398075367795 a1_x1
<= 68.134168933867841

a1_local_2: 
+0.44737937552888835 a1_x6
+0.53786898669433558 a1_x5
+0.71452686968636148 a1_x4
<= 75.808377004218002

a1_local_3: 
+0.6918785091363423 a1_x3
+0.5596181476074521 a1_x1
+0.45621448624925998 a1_x6
<= 101.42087380321367

a1_local_4: 
+0.64076899997732262 a1_x5
+0.67641350257041122 a1_x2
+0.36315267066137696 a1_x4
<= 70.831046148713057

a1_local_5: 
+0.39715983147360534 a1_x4
+0.78120394458983677 a1_x2
+0.48164765671716592 a1_x5
<= 99.004582765784747

a1_local_6: 
+0.68485032841912152 a1_x3
+0.64617948147040327 a1_x4
+0.33679683102853286 a1_x1
<= 64.223494376359128

a1_local_7: 
+0.66021050181277308 a1_x1
+0.49253464439347372 a1_x2
+0.56703766838572645 a1_x5
<= 90.782935610441285

a1_local_8: 
+0.60048625924283972 a1_x5
+0.64977477468682587 a1_x2
+0.4660568577343604 a1_x4
<= 77.921614892845639

a1_act_1: 
+0.0099995000374968734 a1_x1
-0.99995000374968745 a1_z1
<= 0

a1_act_2: 
+0.0099995000374968768 a1_x2
-0.99995000374968757 a1_z2
<= 0

a2_local_1: 
+0.53923796050476791 a2_x6
+0.32873021339790798 a2_x4
+0.77534435494818954 a2_x1
<= 108.9125635552472

a2_local_2: 
+0.61132284953184857 a2_x2
+0.59031462912152299 a2_x1
+0.52707970202368803 a2_x4
<= 96.282682778944164

a2_local_3: 
+0.65523060180262305 a2_x3
+0.67391663327311357 a2_x4
+0.34133448384129672 a2_x5
<= 116.08739757168595

a2_local_4: 
+0.3795926992759836 a2_x4
+0.65057410562144447 a2_x3
+0.65777102075967908 a2_x2
<= 62.485851038690747

a2_local_5: 
+0.62579411179431621 a2_x1
+0.41209212010096374 a2_x4
+0.66223999742861794 a2_x2
<= 73.794909766482036

a2_local_6: 
+0.3606370966657349 a2_x3
+0.74443169307690982 a2_x5
+0.56192734303569458 a2_x1
<= 105.77715627541779

a2_local_7: 
+0.44695403758900681 a2_x3
+0.57421353435983591 a2_x6
+0.68593797477677987 a2_x4
<= 112.35119026785894

a2_local_8: 
+0.36920009809370358 a2_x1
+0.67567846720478297 a2_x6
+0.6380829856087642 a2_x5
<= 98.825472889705395

a2_act_1: 
+0.0099995000374968768 a2_x1
-0.99995000374968757 a2_z1
<= 0

a2_act_2: 
+0.0099995000374968734 a2_x2
-0.99995000374968745 a2_z2
<= 0

a3_local_1: 
+0.71358288090222233 a3_x1
+0.63176022955442335 a3_x4
+0.30278455118553715 a3_x2
<= 63.469987965614031

a3_local_2: 
+0.3878108752970118 a3_x6
+0.70025373615686703 a3_x4
+0.59937253023450665 a3_x1
<= 65.660705588808881

a3_local_3: 
+0.78080195138319797 a3_x2
+0.47951594796831615 a3_x3
+0.40051562810986185 a3_x5
<= 86.885049796609493

a3_local_4: 
+0.39338963232188401 a3_x5
+0.70881497427790452 a3_x1
+0.58551338961723687 a3_x6
<= 75.48634717131975

a3_local_5: 
+0.56253379692003902 a3_x6
+0.39202186068769773 a3_x3
+0.7279248505619792 a3_x1
<= 64.080460403783221

a3_local_6: 
+0.5268372892195714 a3_x2
+0.64773196948122647 a3_x6
+0.55035058499082667 a3_x4
<= 71.162242291632225

a3_local_7: 
+0.65210837055157034 a3_x2
+0.30770131147342572 a3_x5
+0.69287414151064242 a3_x4
<= 87.701227779133262

a3_local_8: 
+0.61440012342858341 a3_x2
+0.66150209910170144 a3_x1
+0.43003193045980226 a3_x5
<= 105.99279894451456

a3_act_1: 
+0.0099995000374968768 a3_x1
-0.99995000374968757 a3_z1
<= 0

a3_act_2: 
+0.0099995000374968751 a3_x2
-0.99995000374968757 a3_z2
<= 0

a4_local_1: 
+0.68398731547087066 a4_x2
+0.30701050273891412 a4_x6
+0.6617445908225853 a4_x5
<= 108.65450007313821

a4_local_2: 
+0.29355431155367595 a4_x3
+0.7437832093568213 a4_x5
+0.60051011952099065 a4_x1
<= 94.29571523490641

a4_local_3: 
+0.46504008228414989 a4_x4
+0.66662887429837736 a4_x3
+0.58253211569906538 a4_x6
<= 105.22686396257045

a4_local_4: 
+0.63308140474702723 a4_x5
+0.41444629678850892 a4_x1
+0.41705162780163169 a4_x4
<= 70.626873884941105

a4_local_5: 
+0.44154259406591367 a4_x5
+0.79200384505297183 a4_x6
+0.42162785373697981 a4_x1
<= 101.92063285757361

a4_local_6: 
+0.60353779186966161 a4_x4
+0.60342364200718235 a4_x3
+0.52117371581065075 a4_x2
<= 72.145994422269737

a4_local_7: 
+0.49161390536252259 a4_x3
+0.78464791920210575 a4_x6
+0.37768162643424241 a4_x1
<= 100.56889343927341

a4_local_8: 
+0.54785981381314142 a4_x3
+0.56789266677678474 a4_x2
+0.61428620644597065 a4_x6
<= 65.765067917168679

a4_act_1: 
+0.0099995000374968768 a4_x1
-0.99995000374968757 a4_z1
<= 0

a4_act_2: 
+0.0099995000374968734 a4_x2
-0.99995000374968745 a4_z2
<= 0

coupling_1: 
+0.008215439829598473 a1_x1
+0.049000319213163411 a2_x1
+0.20270816432369326 a3_x1
+0.9706488583933488 a4_x1
+0.084503458750578755 short_1
-0.084503458750578755 surp_1
= 35.925670593395139

coupling_2: 
+0.011334412618571769 a1_x2
+0.040393094220749035 a2_x2
+0.43578739855360121 a3_x2
+0.87086233240893851 a4_x2
+0.15800011120726179 short_2
-0.15800011120726179 surp_2
= 76.371490513425911

coupling_3: 
+0.005287922558246603 a1_x3
+0.018288698672392054 a2_x3
+0.14714311030745339 a3_x3
+0.98421990769378842 a4_x3
+0.068182254891459265 short_3
-0.068182254891459265 surp_3
= 40.960769843264671

bounds
  0 <= a1_x1 <= 100
  0 <= a1_x2 <= 100
  0 <= a1_x3 <= 100
  0 <= a1_x4 <= 100
  0 <= a1_x5 <= 100
  0 <= a1_x6 <= 100
  0 <= a2_x1 <= 100
  0 <= a2_x2 <= 100
  0 <= a2_x3 <= 100
  0 <= a2_x4 <= 100
  0 <= a2_x5 <= 100
  0 <= a2_x6 <= 100
  0 <= a3_x1 <= 100
  0 <= a3_x2 <= 100
  0 <= a3_x3 <= 100
  0 <= a3_x4 <= 100
  0 <= a3_x5 <= 100
  0 <= a3_x6 <= 100
  0 <= a4_x1 <= 100
  0 <= a4_x2 <= 100
  0 <= a4_x3 <= 100
  0 <= a4_x4 <= 100
  0 <= a4_x5 <= 100
  0 <= a4_x6 <= 100
  0 <= short_1 <= +inf
  0 <= surp_1 <= +inf
  0 <= short_2 <= +inf
  0 <= surp_2 <= +inf
  0 <= short_3 <= +inf
  0 <= surp_3 <= +inf
 0 <= a1_z1 <= 1
 0 <= a1_z2 <= 1
 0 <= a2_z1 <= 1
 0 <= a2_z2 <= 1
 0 <= a3_z1 <= 1
 0 <= a3_z2 <= 1
 0 <= a4_z1 <= 1
 0 <= a4_z2 <= 1

binary
  a1_z1
  a1_z2
  a2_z1
  a2_z2
  a3_z1
  a3_z2
  a4_z1
  a4_z2
end
