min
obj: 
  +4.6820518769511636 a1_x1
  +5.7129162548306427 a1_x2
  +9.0056358908477314 a1_x3
  +9.0172471176233611 a1_x4
  +9.406385688684578 a1_x5
  +5.7753562095118767 a1_x6
  +36.440798325108226 a1_z1
  +20.355895911925103 a1_z2
  +9.8523773325997031 a2_x1
  +8.6665660995193221 a2_x2
  +1.318348960475541 a2_x3
  +8.2691943978607085 a2_x4
  +6.0635318483155114 a2_x5
  +3.2631581910354219 a2_x6
  +31.015799445658949 a2_z1
  +42.142738976131909 a2_z2
  +3.407000856972263 a3_x1
  +9.4188250932667614 a3_x2
  +9.7490010795163791 a3_x3
  +7.0450820339939781 a3_x4
  +9.9763761898407548 a3_x5
  +5.8473553548384958 a3_x6
  +49.073547744148975 a3_z1
  +13.999141819476126 a3_z2
  +1.9143138950663818 a4_x1
  +6.1042201720531999 a4_x2
  +2.2574896326389386 a4_x3
  +5.6594666769891386 a4_x4
  +4.3520497618016583 a4_x5
  +6.7823412192640848 a4_x6
  +29.956754589694771 a4_z1
  +32.972144993024642 a4_z2
  +1000000 short_1
  +1000000 surp_1
  +1000000 short_2
  +1000000 surp_2
  +1000000 short_3
  +1000000 surp_3

s.t.

a1_local_1: 
+3.9513561099613188e-06 a1_x4
+3.2329961556271469e-06 a1_x2
+2.1288270463216641e-06 a1_x6
<= 0.00040858428162894329

a1_local_2: 
+0.02081474307004581 a1_x3
+0.009309227595196758 a1_x4
+0.018758447637202382 a1_x5
<= 2.0534492798214909

a1_local_3: 
+61.170000277962025 a1_x1
+107.54391342952856 a1_x3
+80.43544183165767 a1_x6
<= 12973.356648363915

a1_local_4: 
+4.3356768366254484e-06 a1_x2
+3.766902125434463e-06 a1_x1
+7.4580468463067711e-06 a1_x5
<= 0.00074438287009401889

a1_local_5: 
+251.44701491567116 a1_x2
+409.40487828601192 a1_x3
+419.77344057015694 a1_x5
<= 46021.342671693012

a1_local_6: 
+1.8236065752872344e-06 a1_x6
+1.2827825413181567e-06 a1_x1
+1.6198373296481627e-06 a1_x3
<= 0.0002465742201157538

a1_local_7: 
+183.39865253154358 a1_x4
+148.47701207465079 a1_x2
+136.79509122620109 a1_x5
<= 24679.22900592137

a1_local_8: 
+7.1549196506900231e-07 a1_x6
+6.9840576383913902e-07 a1_x2
+5.7077617687802279e-07 a1_x4
<= 0.00012414619821300122

a1_act_1: 
+1.9628201094604767e-05 a1_x1
-0.0019628201094604768 a1_z1
<= 0

a1_act_2: 
+0.072730685835722911 a1_x2
-7.2730685835722912 a1_z2
<= 0

a2_local_1: 
+119712.36893106112 a2_x2
+164524.53623602525 a2_x6
+172429.66886963818 a2_x5
<= 15141602.877397511

a2_local_2: 
+6.0318149481734746 a2_x1
+7.0771370861788903 a2_x4
+8.914993548525592 a2_x5
<= 1529.342088549985

a2_local_3: 
+893.53508706043567 a2_x2
+620.51370430477255 a2_x5
+384.55774747991461 a2_x1
<= 119841.138732319

a2_local_4: 
+19.90326962814251 a2_x6
+38.199440873295892 a2_x4
+21.172744387458209 a2_x5
<= 2956.328858463577

a2_local_5: 
+6.8067582390602838e-06 a2_x5
+1.2612602131842553e-05 a2_x3
+8.8564303969788763e-06 a2_x6
<= 0.0014613189774800096

a2_local_6: 
+1151.3023863552803 a2_x6
+804.99017252997146 a2_x4
+1051.6281045211563 a2_x1
<= 158313.84153152461

a2_local_7: 
+5218.4169768233951 a2_x3
+4766.0496354110373 a2_x6
+5934.379100919311 a2_x1
<= 744067.84882791783

a2_local_8: 
+6.0679429258554629 a2_x5
+6.0813267875205943 a2_x3
+6.5634901705341449 a2_x6
<= 1301.5928686341229

a2_act_1: 
+0.36369542065584565 a2_x1
-36.369542065584568 a2_z1
<= 0

a2_act_2: 
+8.366740682445806e-06 a2_x2
-0.00083667406824458059 a2_z2
<= 0

a3_local_1: 
+253.11276561303393 a3_x5
+171.12175393829648 a3_x2
+204.81930640371255 a3_x3
<= 24359.119302836189

a3_local_2: 
+27.597375252776494 a3_x2
+18.13784294286874 a3_x3
+24.777688759438465 a3_x4
<= 3574.6149675411361

a3_local_3: 
+0.044000479936477058 a3_x6
+0.089435350904927838 a3_x4
+0.076772583707188105 a3_x1
<= 14.423806767335801

a3_local_4: 
+8.9457980151075829e-05 a3_x4
+0.00010066938561565072 a3_x2
+4.0522759996438824e-05 a3_x1
<= 0.011355428083268478

a3_local_5: 
+4.3109907188233496 a3_x3
+8.4316818354689822 a3_x5
+9.8399361655784343 a3_x2
<= 1117.023680032162

a3_local_6: 
+0.018678835050209133 a3_x1
+0.016922015412521915 a3_x6
+0.015219079366835942 a3_x2
<= 2.3062945883666508

a3_local_7: 
+18439.173117383085 a3_x1
+24599.999432058525 a3_x4
+13876.396510552011 a3_x6
<= 1942657.4637986615

a3_local_8: 
+83.615147903917745 a3_x4
+39.846981032741944 a3_x3
+64.123657849064955 a3_x5
<= 11923.897634455016

a3_act_1: 
+0.00051177465597417591 a3_x1
-0.051177465597417593 a3_z1
<= 0

a3_act_2: 
+3.5443538682302975 a3_x2
-354.43538682302977 a3_z2
<= 0

a4_local_1: 
+302.75091572593203 a4_x3
+230.77454827296236 a4_x5
+264.27329728164 a4_x2
<= 50974.50469507611

a4_local_2: 
+1.6735008881546869 a4_x3
+0.78555872959909845 a4_x2
+1.170591546650479 a4_x6
<= 124.70593049463292

a4_local_3: 
+0.00033082813769358556 a4_x5
+0.00051279717376593724 a4_x6
+0.00061018943263865832 a4_x3
<= 0.085143868694276231

a4_local_4: 
+48.21565778436463 a4_x3
+45.543938349830988 a4_x6
+52.180958519313457 a4_x1
<= 9920.0062018797616

a4_local_5: 
+0.00081296123256712003 a4_x3
+0.00083765047638202964 a4_x6
+0.00030857285514975695 a4_x5
<= 0.10124674691456247

a4_local_6: 
+17.633902591556094 a4_x3
+18.335358755539183 a4_x4
+24.816314946698942 a4_x6
<= 3563.172157179541

a4_local_7: 
+0.008268390163716572 a4_x6
+0.0073967074842631346 a4_x3
+0.010923054862122654 a4_x1
<= 1.7989695630987415

a4_local_8: 
+0.00035286654699673086 a4_x1
+0.00080205882279149338 a4_x6
+0.0006118906110404239 a4_x3
<= 0.093561686778798017

a4_act_1: 
+0.0003984222716995969 a4_x1
-0.039842227169959693 a4_z1
<= 0

a4_act_2: 
+0.0023205767078603992 a4_x2
-0.23205767078603992 a4_z2
<= 0

coupling_1: 
+59885.747169362927 a1_x1
+184457.47485801528 a2_x1
+824198.56757089973 a3_x1
+7979647.8962619314 a4_x1
+667620.69556152553 short_1
-667620.69556152553 surp_1
= 456597179.45391619

coupling_2: 
+0.035017740954005852 a1_x2
+0.077145837162243561 a2_x2
+0.37052364370912744 a3_x2
+4.0178004641883547 a4_x2
+0.28973691174563837 short_2
-0.28973691174563837 surp_2
= 107.09950837532263

coupling_3: 
+12.030807264692363 a1_x3
+93.523306222179059 a2_x3
+213.1438481160468 a3_x3
+1935.1600037123862 a4_x3
+156.37143617608061 short_3
-156.37143617608061 surp_3
= 135525.75495394674

bounds
  0 <= a1_x1 <= 100
  0 <= a1_x2 <= 100
  0 <= a1_x3 <= 100
  0 <= a1_x4 <= 100
  0 <= a1_x5 <= 100
  0 <= a1_x6 <= 100
  0 <= a2_x1 <= 100
  0 <= a2_x2 <= 100
  0 <= a2_x3 <= 100
  0 <= a2_x4 <= 100
  0 <= a2_x5 <= 100
  0 <= a2_x6 <= 100
  0 <= a3_x1 <= 100
  0 <= a3_x2 <= 100
  0 <= a3_x3 <= 100
  0 <= a3_x4 <= 100
  0 <= a3_x5 <= 100
  0 <= a3_x6 <= 100
  0 <= a4_x1 <= 100
  0 <= a4_x2 <= 100
  0 <= a4_x3 <= 100
  0 <= a4_x4 <= 100
  0 <= a4_x5 <= 100
  0 <= a4_x6 <= 100
  0 <= short_1 <= +inf
  0 <= surp_1 <= +inf
  0 <= short_2 <= +inf
  0 <= surp_2 <= +inf
  0 <= short_3 <= +inf
  0 <= surp_3 <= +inf
 0 <= a1_z1 <= 1
 0 <= a1_z2 <= 1
 0 <= a2_z1 <= 1
 0 <= a2_z2 <= 1
 0 <= a3_z1 <= 1
 0 <= a3_z2 <= 1
 0 <= a4_z1 <= 1
 0 <= a4_z2 <= 1

binary
  a1_z1
  a1_z2
  a2_z1
  a2_z2
  a3_z1
  a3_z2
  a4_z1
  a4_z2
end
