min
obj: 
  +3.043052453503527 a1_x1
  +8.5242104678500681 a1_x2
  +7.6930756521091874 a1_x3
  +6.9189962156082423 a1_x4
  +9.2097073421305335 a1_x5
  +1.6783613276554563 a1_x6
  +29.957301038510835 a1_z1
  +31.080729858907144 a1_z2
  +3.9982275243752419 a2_x1
  +4.0716566341487717 a2_x2
  +8.3479540678562252 a2_x3
  +4.8717105490747867 a2_x4
  +6.0061452108085005 a2_x5
  +2.7882654202354971 a2_x6
  +21.648290212377919 a2_z1
  +42.54057128991149 a2_z2
  +2.9928805955584821 a3_x1
  +5.5354110864277946 a3_x2
  +5.213896919227734 a3_x3
  +2.0650047465660801 a3_x4
  +6.4105355661416237 a3_x5
  +2.6598622040549174 a3_x6
  +31.217971703687525 a3_z1
  +44.913093336265895 a3_z2
  +1.3478391985630118 a4_x1
  +6.3176473690479504 a4_x2
  +9.9894359630934186 a4_x3
  +5.7054129264347031 a4_x4
  +4.4415295718065089 a4_x5
  +5.0613340194576661 a4_x6
  +15.238383211322466 a4_z1
  +39.666499040349478 a4_z2
  +1000000 short_1
  +1000000 surp_1
  +1000000 short_2
  +1000000 surp_2
  +1000000 short_3
  +1000000 surp_3

s.t.

a1_local_1: 
+1.9341549887029825e-06 a1_x4
+2.4062229807680868e-06 a1_x3
+5.1837387154719379e-06 a1_x1
<= 0.00059163979788494088

a1_local_2: 
+1.2895526791424564e-07 a1_x5
+7.8502737106615928e-08 a1_x2
+9.7053018541192407e-08 a1_x1
<= 1.1886715532932289e-05

a1_local_3: 
+4723.8693029913138 a1_x1
+6688.177797262575 a1_x5
+6724.4404024075529 a1_x4
<= 1042124.7111823936

a1_local_4: 
+171.57663527066788 a1_x4
+128.8245959216222 a1_x1
+138.13422351551679 a1_x2
<= 18439.876968004188

a1_local_5: 
+66586.282426176753 a1_x4
+136100.64393428309 a1_x6
+55174.494524071539 a1_x3
<= 17677814.015178401

a1_local_6: 
+7.5931811489737734e-07 a1_x5
+1.2970895142243546e-06 a1_x1
+7.3096769709880724e-07 a1_x6
<= 0.00015080660922655673

a1_local_7: 
+1.2050567091264353 a1_x1
+1.2628206743131363 a1_x2
+0.84501530855955176 a1_x4
<= 188.74266074735039

a1_local_8: 
+0.013800007467604108 a1_x3
+0.014655683991039945 a1_x6
+0.0056424892370144147 a1_x5
<= 1.7482171154881798

a1_act_1: 
+0.025452749689395333 a1_x1
-2.5452749689395331 a1_z1
<= 0

a1_act_2: 
+0.019614658831632568 a1_x2
-1.9614658831632568 a1_z2
<= 0

a2_local_1: 
+832.00113484018686 a2_x5
+1014.0371787867928 a2_x3
+1204.1984756774664 a2_x6
<= 200274.38469778976

a2_local_2: 
+32601.001714924416 a2_x4
+50837.041454306171 a2_x3
+34627.943646034211 a2_x6
<= 5774466.2240219517

a2_local_3: 
+5.9840436870190747e-06 a2_x3
+4.4809567409200389e-06 a2_x1
+6.2857996737158419e-06 a2_x2
<= 0.0011100389330682362

a2_local_4: 
+5565.3190855592775 a2_x4
+4313.4082665774868 a2_x5
+4039.0088990369213 a2_x1
<= 435816.5273139652

a2_local_5: 
+18715.404928239477 a2_x1
+21004.310999513706 a2_x6
+11169.855071342976 a2_x2
<= 3075729.3786041476

a2_local_6: 
+0.17477013588960952 a2_x1
+0.13832834605152183 a2_x5
+0.19439671240173723 a2_x3
<= 27.744922807081821

a2_local_7: 
+13249.646273335813 a2_x3
+24855.99364750554 a2_x6
+12575.109487663101 a2_x1
<= 2337217.3472799999

a2_local_8: 
+0.13534757787118193 a2_x4
+0.23735443640088694 a2_x1
+0.25611437639974438 a2_x6
<= 22.60350049405853

a2_act_1: 
+0.0081989731169978368 a2_x1
-0.81989731169978364 a2_z1
<= 0

a2_act_2: 
+3178.8338464666226 a2_x2
-317883.38464666228 a2_z2
<= 0

a3_local_1: 
+1.2091475578121033e-05 a3_x4
+4.6825483318698509e-06 a3_x2
+8.6452330549944053e-06 a3_x5
<= 0.0013598117629251198

a3_local_2: 
+288.80641050914323 a3_x1
+266.32255488273768 a3_x6
+277.72757147881902 a3_x3
<= 26714.923676749549

a3_local_3: 
+15.151984855341933 a3_x2
+12.904739422111206 a3_x6
+11.579566795039261 a3_x5
<= 2770.0940578928171

a3_local_4: 
+16344.148022393358 a3_x1
+23359.689573594926 a3_x5
+21909.471634817513 a3_x4
<= 1962408.9569793001

a3_local_5: 
+91259.858631229246 a3_x4
+51446.422096994618 a3_x2
+78969.486932323416 a3_x6
<= 8981548.0182903744

a3_local_6: 
+944.65507845355421 a3_x5
+816.80491581036267 a3_x2
+1293.9684255539014 a3_x1
<= 152395.04256068147

a3_local_7: 
+1.8646403219448876e-05 a3_x2
+1.7585202442646921e-05 a3_x4
+9.1577330798268793e-06 a3_x5
<= 0.0029136095998320332

a3_local_8: 
+0.093790521736896434 a3_x3
+0.10186247445226147 a3_x5
+0.15951121150416367 a3_x6
<= 17.570592293454979

a3_act_1: 
+0.00031946936814620971 a3_x1
-0.03194693681462097 a3_z1
<= 0

a3_act_2: 
+635.92751236185927 a3_x2
-63592.751236185926 a3_z2
<= 0

a4_local_1: 
+4472.8199810182941 a4_x6
+7028.4565393602988 a4_x2
+5458.9410803552137 a4_x1
<= 523482.98037967843

a4_local_2: 
+277944.46004135598 a4_x1
+332726.64499503258 a4_x6
+243980.09021189378 a4_x5
<= 28242994.908629246

a4_local_3: 
+21.234028236798093 a4_x6
+17.140354078848372 a4_x3
+21.395662471894184 a4_x2
<= 2566.8324570278987

a4_local_4: 
+4.0187689135503897e-05 a4_x4
+5.8243117269063503e-05 a4_x6
+5.38812086083135e-05 a4_x2
<= 0.005911427616140311

a4_local_5: 
+0.00025027222058878417 a4_x5
+0.00010863787969414809 a4_x6
+0.00015700649131650661 a4_x1
<= 0.01886181549839323

a4_local_6: 
+0.0057336027796138379 a4_x5
+0.0049287574501562098 a4_x1
+0.003877511775883055 a4_x2
<= 0.94717872279468818

a4_local_7: 
+127.6815781771749 a4_x4
+106.34788835091767 a4_x2
+68.61944989492676 a4_x5
<= 14497.702368394937

a4_local_8: 
+8.6332538110625354e-05 a4_x3
+4.392410926680499e-05 a4_x1
+7.270926805704623e-05 a4_x2
<= 0.012975628259265348

a4_act_1: 
+1.6372715586305402 a4_x1
-163.72715586305401 a4_z1
<= 0

a4_act_2: 
+0.26079473459132091 a4_x2
-26.079473459132092 a4_z2
<= 0

coupling_1: 
+11664.154065596424 a1_x1
+74694.6422221174 a2_x1
+211970.10056045235 a3_x1
+881209.08841375029 a4_x1
+118937.32247378188 short_1
-118937.32247378188 surp_1
= 67424068.551189259

coupling_2: 
+1.9598479675470999 a1_x2
+11.141250618600205 a2_x2
+24.592306958426821 a3_x2
+245.33930015771065 a4_x2
+18.311890926015398 short_2
-18.311890926015398 surp_2
= 20228.861025935468

coupling_3: 
+2.4377975601975956 a1_x3
+6.3771015804737958 a2_x3
+55.87071899685921 a3_x3
+235.01163149376325 a4_x3
+20.066922232758039 short_3
-20.066922232758039 surp_3
= 7366.1303166622793

bounds
  0 <= a1_x1 <= 100
  0 <= a1_x2 <= 100
  0 <= a1_x3 <= 100
  0 <= a1_x4 <= 100
  0 <= a1_x5 <= 100
  0 <= a1_x6 <= 100
  0 <= a2_x1 <= 100
  0 <= a2_x2 <= 100
  0 <= a2_x3 <= 100
  0 <= a2_x4 <= 100
  0 <= a2_x5 <= 100
  0 <= a2_x6 <= 100
  0 <= a3_x1 <= 100
  0 <= a3_x2 <= 100
  0 <= a3_x3 <= 100
  0 <= a3_x4 <= 100
  0 <= a3_x5 <= 100
  0 <= a3_x6 <= 100
  0 <= a4_x1 <= 100
  0 <= a4_x2 <= 100
  0 <= a4_x3 <= 100
  0 <= a4_x4 <= 100
  0 <= a4_x5 <= 100
  0 <= a4_x6 <= 100
  0 <= short_1 <= +inf
  0 <= surp_1 <= +inf
  0 <= short_2 <= +inf
  0 <= surp_2 <= +inf
  0 <= short_3 <= +inf
  0 <= surp_3 <= +inf
 0 <= a1_z1 <= 1
 0 <= a1_z2 <= 1
 0 <= a2_z1 <= 1
 0 <= a2_z2 <= 1
 0 <= a3_z1 <= 1
 0 <= a3_z2 <= 1
 0 <= a4_z1 <= 1
 0 <= a4_z2 <= 1

binary
  a1_z1
  a1_z2
  a2_z1
  a2_z2
  a3_z1
  a3_z2
  a4_z1
  a4_z2
end
