min
obj: 
  +7.7820756929973847 a1_x1
  +2.6204029212029933 a1_x2
  +1.0229393332967094 a1_x3
  +7.1910932224071349 a1_x4
  +4.2632745770435907 a1_x5
  +6.0246265469097295 a1_x6
  +42.771027111197313 a1_z1
  +28.114118371176183 a1_z2
  +5.7911212590182997 a2_x1
  +5.4348931719458209 a2_x2
  +9.4259627235885386 a2_x3
  +8.9213052519907556 a2_x4
  +6.1484548986939966 a2_x5
  +2.146409388681831 a2_x6
  +31.660946131309107 a2_z1
  +6.9899613369063101 a2_z2
  +2.8186252614454075 a3_x1
  +1.3641205917884647 a3_x2
  +2.33366974601915 a3_x3
  +2.4556775991065138 a3_x4
  +5.2278265061317715 a3_x5
  +6.6696189442115292 a3_x6
  +49.857919593613119 a3_z1
  +30.640944798186169 a3_z2
  +7.0994894146457632 a4_x1
  +9.5674915626052641 a4_x2
  +9.235478138695818 a4_x3
  +8.9478139676632793 a4_x4
  +7.4338997063934436 a4_x5
  +1.7960169742966061 a4_x6
  +7.4304140982629434 a4_z1
  +14.530204301669533 a4_z2
  +1000000 short_1
  +1000000 surp_1
  +1000000 short_2
  +1000000 surp_2
  +1000000 short_3
  +1000000 surp_3

s.t.

a1_local_1: 
+0.9548144481537173 a1_x4
+1.4670520101606461 a1_x6
+0.68163909191637828 a1_x3
<= 155.13401229239375

a1_local_2: 
+1.1824451720521523 a1_x6
+0.82897500109521427 a1_x5
+1.2063089944556025 a1_x4
<= 170.49549231429984

a1_local_3: 
+0.84399922378939285 a1_x4
+1.1135715961720816 a1_x2
+1.1848352128929622 a1_x3
<= 182.28287274367648

a1_local_4: 
+1.1975852348650662 a1_x4
+0.79737307360439302 a1_x5
+1.2541180949084043 a1_x2
<= 165.56496412971396

a1_local_5: 
+0.64105595642665647 a1_x2
+1.5599262279289197 a1_x5
+0.76083161689006562 a1_x4
<= 163.84833182052031

a1_local_6: 
+1.2140382859411916 a1_x2
+1.4000314034686907 a1_x3
+0.71426969246719696 a1_x1
<= 180.40879876585026

a1_local_7: 
+0.69192169838644424 a1_x5
+1.4452502390544937 a1_x2
+0.69543377360441827 a1_x6
<= 155.42965006168427

a1_local_8: 
+0.74867955695315014 a1_x5
+1.3356849278343219 a1_x1
+0.97185828750832415 a1_x6
<= 187.78907445140598

a1_act_1: 
+0.10000000000000001 a1_x1
-10 a1_z1
<= 0

a1_act_2: 
+0.10000000000000001 a1_x2
-10 a1_z2
<= 0

a2_local_1: 
+0.81848637660494361 a2_x6
+1.221767433867341 a2_x4
+1.2154331263151807 a2_x3
<= 204.87207512168263

a2_local_2: 
+0.69285574422466201 a2_x5
+0.96068947586547815 a2_x4
+1.4433018825860306 a2_x6
<= 140.50547961287529

a2_local_3: 
+1.053295926141433 a2_x4
+0.71248261481990205 a2_x5
+1.4035430187342539 a2_x3
<= 98.180901444866578

a2_local_4: 
+0.59713733734977459 a2_x5
+0.58967684947922938 a2_x6
+1.6958440896622378 a2_x4
<= 107.69926469648065

a2_local_5: 
+1.1345909253241842 a2_x4
+0.70649130278326999 a2_x2
+1.415445591559914 a2_x3
<= 155.0972914301426

a2_local_6: 
+1.0636136801527971 a2_x5
+0.94019099101502857 a2_x4
+0.96862832615074568 a2_x3
<= 112.47033348010346

a2_local_7: 
+0.78957405229364674 a2_x1
+1.2665056521235509 a2_x6
+0.84616689981046289 a2_x4
<= 202.65654554515501

a2_local_8: 
+1.2653284711531629 a2_x4
+1.1752342671408837 a2_x3
+0.79030862167247795 a2_x5
<= 123.81545050246363

a2_act_1: 
+0.10000000000000001 a2_x1
-10 a2_z1
<= 0

a2_act_2: 
+0.099999999999999992 a2_x2
-10 a2_z2
<= 0

a3_local_1: 
+0.80844359286331835 a3_x6
+1.2369446784261517 a3_x2
+1.0188631600672826 a3_x1
<= 204.64372175502464

a3_local_2: 
+1.3391728214548213 a3_x1
+0.90098794126553772 a3_x6
+0.74672961098003887 a3_x2
<= 204.88397048040221

a3_local_3: 
+0.64630509300298711 a3_x6
+1.547256877326477 a3_x5
+0.72827656365187809 a3_x3
<= 154.92913101766192

a3_local_4: 
+1.4071386132875514 a3_x2
+0.6474898109328332 a3_x6
+1.5444258475037753 a3_x4
<= 152.65356573725975

a3_local_5: 
+0.91630918724395716 a3_x1
+1.221865868726842 a3_x5
+0.81842043844139656 a3_x3
<= 146.5641116026101

a3_local_6: 
+0.92875587504695534 a3_x5
+1.099396123360727 a3_x2
+0.90959025482381672 a3_x3
<= 151.38065309516904

a3_local_7: 
+0.70790540794073165 a3_x2
+0.57887892531735796 a3_x3
+0.84218047523525597 a3_x1
<= 113.69835346731725

a3_local_8: 
+1.4666685794256693 a3_x6
+0.6818172926235242 a3_x1
+1.1942425993688566 a3_x2
<= 152.06286997383432

a3_act_1: 
+0.10000000000000001 a3_x1
-10 a3_z1
<= 0

a3_act_2: 
+0.099999999999999992 a3_x2
-9.9999999999999982 a3_z2
<= 0

a4_local_1: 
+0.6597191053709035 a4_x1
+1.5157966350508918 a4_x6
+0.79997380034740884 a4_x5
<= 187.95088660008861

a4_local_2: 
+1.4504425956802327 a4_x2
+0.68944472740819984 a4_x5
+1.3521735840301219 a4_x4
<= 234.77362469678133

a4_local_3: 
+1.4773854475192851 a4_x6
+1.1491747582597776 a4_x2
+0.67687142964561142 a4_x5
<= 192.3783277310468

a4_local_4: 
+1.2527509216987598 a4_x6
+0.76093814043862718 a4_x3
+1.3141672717621573 a4_x4
<= 210.72092658623004

a4_local_5: 
+0.75743099510792999 a4_x5
+0.77052448154442188 a4_x2
+1.3202522823316802 a4_x3
<= 114.11962287470971

a4_local_6: 
+1.0702570922715986 a4_x1
+0.91269666176352993 a4_x5
+1.0956542758333103 a4_x4
<= 169.7687637824983

a4_local_7: 
+0.7207003603348795 a4_x6
+1.3875391980314 a4_x3
+1.1487276495385796 a4_x2
<= 195.82711204348269

a4_local_8: 
+0.89093688456836251 a4_x3
+1.4117995056388479 a4_x6
+0.70831587346922453 a4_x4
<= 108.52129951996038

a4_act_1: 
+0.10000000000000001 a4_x1
-10 a4_z1
<= 0

a4_act_2: 
+0.099999999999999992 a4_x2
-10 a4_z2
<= 0

coupling_1: 
+0.014051723935445327 a1_x1
+0.081570446279411471 a2_x1
+0.30472282706158887 a3_x1
+0.92713671434390377 a4_x1
+0.14267151595781646 short_1
-0.14267151595781646 surp_1
= 94.003936063583154

coupling_2: 
+0.013462571435908087 a1_x2
+0.055549891196368897 a2_x2
+0.27122053157742987 a3_x2
+0.95110434042274683 a4_x2
+0.096366295036886207 short_2
-0.096366295036886207 surp_2
= 36.16060738312104

coupling_3: 
+0.021124318409193973 a1_x3
+0.069019429152177389 a2_x3
+0.20540472798270212 a3_x3
+0.94197776930704957 a4_x3
+0.18066109352171136 short_3
-0.18066109352171136 surp_3
= 27.754466024285581

bounds
  0 <= a1_x1 <= 100
  0 <= a1_x2 <= 100
  0 <= a1_x3 <= 100
  0 <= a1_x4 <= 100
  0 <= a1_x5 <= 100
  0 <= a1_x6 <= 100
  0 <= a2_x1 <= 100
  0 <= a2_x2 <= 100
  0 <= a2_x3 <= 100
  0 <= a2_x4 <= 100
  0 <= a2_x5 <= 100
  0 <= a2_x6 <= 100
  0 <= a3_x1 <= 100
  0 <= a3_x2 <= 100
  0 <= a3_x3 <= 100
  0 <= a3_x4 <= 100
  0 <= a3_x5 <= 100
  0 <= a3_x6 <= 100
  0 <= a4_x1 <= 100
  0 <= a4_x2 <= 100
  0 <= a4_x3 <= 100
  0 <= a4_x4 <= 100
  0 <= a4_x5 <= 100
  0 <= a4_x6 <= 100
  0 <= short_1 <= +inf
  0 <= surp_1 <= +inf
  0 <= short_2 <= +inf
  0 <= surp_2 <= +inf
  0 <= short_3 <= +inf
  0 <= surp_3 <= +inf
 0 <= a1_z1 <= 1
 0 <= a1_z2 <= 1
 0 <= a2_z1 <= 1
 0 <= a2_z2 <= 1
 0 <= a3_z1 <= 1
 0 <= a3_z2 <= 1
 0 <= a4_z1 <= 1
 0 <= a4_z2 <= 1

binary
  a1_z1
  a1_z2
  a2_z1
  a2_z2
  a3_z1
  a3_z2
  a4_z1
  a4_z2
end
