min
obj: 
  +2.8670230128866887 a1_x1
  +4.6121734767481746 a1_x2
  +8.3726653944305163 a1_x3
  +3.8874111784256438 a1_x4
  +3.5735214707131471 a1_x5
  +7.9063268225890937 a1_x6
  +32.521673256282952 a1_z1
  +46.9551209495583 a1_z2
  +1.341622492975389 a2_x1
  +5.0417707846324316 a2_x2
  +1.1098914253226899 a2_x3
  +7.5349912767704339 a2_x4
  +4.7451420176434915 a2_x5
  +4.9227196469025021 a2_x6
  +7.3717597202086891 a2_z1
  +32.23919956008293 a2_z2
  +7.1988333719011539 a3_x1
  +9.6965932883206509 a3_x2
  +2.6814504435085222 a3_x3
  +4.7418198986047297 a3_x4
  +5.4039251046059666 a3_x5
  +9.8502537099383343 a3_x6
  +17.992052798317559 a3_z1
  +28.73085531973274 a3_z2
  +5.3817190254650331 a4_x1
  +3.7297540390479749 a4_x2
  +6.6577904747627379 a4_x3
  +5.4304281417402382 a4_x4
  +9.7175944926778737 a4_x5
  +8.0479454867151716 a4_x6
  +7.8471654550187315 a4_z1
  +24.374477793367895 a4_z2
  +1000000 short_1
  +1000000 surp_1
  +1000000 short_2
  +1000000 surp_2
  +1000000 short_3
  +1000000 surp_3

s.t.

a1_local_1: 
+0.39177291867941216 a1_x3
+0.68779036958806894 a1_x1
+0.61111241821069417 a1_x2
<= 101.67816044536777

a1_local_2: 
+0.6999056518027742 a1_x4
+0.52567338781966111 a1_x6
+0.48352824934302857 a1_x2
<= 64.04106986070218

a1_local_3: 
+0.82400514536899072 a1_x3
+0.38774036231119746 a1_x4
+0.41312580631111639 a1_x1
<= 106.03853353966039

a1_local_4: 
+0.35648094899768951 a1_x3
+0.32432080677983677 a1_x6
+0.87620622417977756 a1_x1
<= 85.315956664383563

a1_local_5: 
+0.45020744170615418 a1_x5
+0.65088451194159858 a1_x1
+0.61127948726171644 a1_x3
<= 87.333349937401977

a1_local_6: 
+0.67266321542671093 a1_x6
+0.54251822390678728 a1_x3
+0.50318801192081619 a1_x1
<= 78.514808660530989

a1_local_7: 
+0.4753488613648037 a1_x4
+0.64944927450574919 a1_x3
+0.59351419514881054 a1_x6
<= 59.497140617943622

a1_local_8: 
+0.73519710577199604 a1_x6
+0.90736141033577089 a1_x3
+0.71205411002393382 a1_x2
<= 86.556567666013549

a1_act_1: 
+0.0099995000374968751 a1_x1
-0.99995000374968757 a1_z1
<= 0

a1_act_2: 
+0.0099995000374968768 a1_x2
-0.99995000374968768 a1_z2
<= 0

a2_local_1: 
+0.44305386190229845 a2_x3
+0.68979331370255892 a2_x1
+0.57261545545392178 a2_x4
<= 77.099357868251772

a2_local_2: 
+0.72215275482148855 a2_x3
+0.45193598290534315 a2_x4
+0.52368813816919346 a2_x1
<= 110.46492939535651

a2_local_3: 
+0.39597494269970185 a2_x2
+0.55180053242489535 a2_x5
+0.73397548812584323 a2_x6
<= 102.82432565912409

a2_local_4: 
+0.66674037331067437 a2_x3
+0.58707033230575223 a2_x4
+0.45913581816708238 a2_x2
<= 103.08133543225365

a2_local_5: 
+0.38161231068386592 a2_x3
+0.58430848675053237 a2_x5
+0.71620921290208461 a2_x6
<= 105.25026452636946

a2_local_6: 
+0.3543911654947528 a2_x2
+0.82522019450083373 a2_x5
+0.43979373848120734 a2_x1
<= 108.75982796448524

a2_local_7: 
+0.46293115892475634 a2_x6
+0.73408645613147772 a2_x2
+0.496801587176319 a2_x5
<= 82.501522534459227

a2_local_8: 
+0.52248322477444342 a2_x2
+0.70087229114775906 a2_x4
+0.48558141575907671 a2_x6
<= 111.89103987345452

a2_act_1: 
+0.0099995000374968768 a2_x1
-0.99995000374968757 a2_z1
<= 0

a2_act_2: 
+0.0099995000374968751 a2_x2
-0.99995000374968745 a2_z2
<= 0

a3_local_1: 
+0.50679695135329739 a3_x6
+0.69494598077449909 a3_x2
+0.51010482638804078 a3_x1
<= 87.681780942368249

a3_local_2: 
+0.68894482039042559 a3_x3
+0.47270409627566029 a3_x1
+0.54945961800792575 a3_x4
<= 98.645513246634366

a3_local_3: 
+0.57222014825871059 a3_x4
+0.46253952721860947 a3_x1
+0.6772158353783263 a3_x6
<= 99.77150482458805

a3_local_4: 
+0.63053091360848323 a3_x1
+0.63476985121754992 a3_x3
+0.44665199313257431 a3_x5
<= 62.796874624717283

a3_local_5: 
+0.2742750778299119 a3_x5
+0.58225944812390884 a3_x4
+0.76534117669954027 a3_x6
<= 69.977790111635514

a3_local_6: 
+0.38877618047460094 a3_x2
+0.64256106274845282 a3_x3
+0.66027900325177646 a3_x6
<= 90.443702507596441

a3_local_7: 
+0.60103170143918061 a3_x4
+0.34838572651871608 a3_x1
+0.71929707313678826 a3_x2
<= 89.617493274607668

a3_local_8: 
+0.75283736148377689 a3_x2
+0.35442509053748983 a3_x1
+0.55463389938917085 a3_x5
<= 54.388548249577433

a3_act_1: 
+0.0099995000374968751 a3_x1
-0.99995000374968757 a3_z1
<= 0

a3_act_2: 
+0.0099995000374968734 a3_x2
-0.99995000374968745 a3_z2
<= 0

a4_local_1: 
+0.40835286714628016 a4_x1
+0.72992350926589189 a4_x4
+0.54814195835967339 a4_x3
<= 67.58194210640238

a4_local_2: 
+0.69402579243393314 a4_x1
+0.50114580983945267 a4_x6
+0.51689561491350478 a4_x3
<= 80.323080175010872

a4_local_3: 
+0.55341762310459852 a4_x2
+0.34902494474436035 a4_x5
+0.75624765942345407 a4_x1
<= 94.531552599916679

a4_local_4: 
+0.47799834974959438 a4_x5
+0.49395149325235715 a4_x4
+0.72631226063617493 a4_x3
<= 73.408485874848125

a4_local_5: 
+0.33950806613546908 a4_x1
+0.61535113133073882 a4_x4
+0.71139107261683698 a4_x2
<= 67.470941783067744

a4_local_6: 
+0.59398797369782308 a4_x4
+0.70551761356461118 a4_x2
+0.38655295116251553 a4_x6
<= 85.923719023734108

a4_local_7: 
+0.51319099488252162 a4_x2
+0.54773087930478404 a4_x1
+0.66077672978661695 a4_x3
<= 82.883960259487836

a4_local_8: 
+0.61016323740756173 a4_x1
+0.38072125722768352 a4_x2
+0.6948036758763555 a4_x5
<= 109.84943550541014

a4_act_1: 
+0.0099995000374968768 a4_x1
-0.99995000374968757 a4_z1
<= 0

a4_act_2: 
+0.0099995000374968768 a4_x2
-0.99995000374968757 a4_z2
<= 0

coupling_1: 
+0.011730619363828588 a1_x1
+0.04531930374918923 a2_x1
+0.20662342290308405 a3_x1
+0.97081019756959175 a4_x1
+0.079507467195645429 short_1
-0.079507467195645429 surp_1
= 30.902998528696539

coupling_2: 
+0.0082562465075068439 a1_x2
+0.045583619776701639 a2_x2
+0.29820729703621429 a3_x2
+0.93734959586164657 a4_x2
+0.12308962412409767 short_2
-0.12308962412409767 surp_2
= 29.257890488154629

coupling_3: 
+0.020774749444271979 a1_x3
+0.093477539547277111 a2_x3
+0.32559051973447717 a3_x3
+0.91915774247333792 a4_x3
+0.14136869755371023 short_3
-0.14136869755371023 surp_3
= 27.981390629563851

bounds
  0 <= a1_x1 <= 100
  0 <= a1_x2 <= 100
  0 <= a1_x3 <= 100
  0 <= a1_x4 <= 100
  0 <= a1_x5 <= 100
  0 <= a1_x6 <= 100
  0 <= a2_x1 <= 100
  0 <= a2_x2 <= 100
  0 <= a2_x3 <= 100
  0 <= a2_x4 <= 100
  0 <= a2_x5 <= 100
  0 <= a2_x6 <= 100
  0 <= a3_x1 <= 100
  0 <= a3_x2 <= 100
  0 <= a3_x3 <= 100
  0 <= a3_x4 <= 100
  0 <= a3_x5 <= 100
  0 <= a3_x6 <= 100
  0 <= a4_x1 <= 100
  0 <= a4_x2 <= 100
  0 <= a4_x3 <= 100
  0 <= a4_x4 <= 100
  0 <= a4_x5 <= 100
  0 <= a4_x6 <= 100
  0 <= short_1 <= +inf
  0 <= surp_1 <= +inf
  0 <= short_2 <= +inf
  0 <= surp_2 <= +inf
  0 <= short_3 <= +inf
  0 <= surp_3 <= +inf
 0 <= a1_z1 <= 1
 0 <= a1_z2 <= 1
 0 <= a2_z1 <= 1
 0 <= a2_z2 <= 1
 0 <= a3_z1 <= 1
 0 <= a3_z2 <= 1
 0 <= a4_z1 <= 1
 0 <= a4_z2 <= 1

binary
  a1_z1
  a1_z2
  a2_z1
  a2_z2
  a3_z1
  a3_z2
  a4_z1
  a4_z2
end
