min
obj: 
  +3.043052453503527 a1_x1
  +8.5242104678500681 a1_x2
  +7.6930756521091874 a1_x3
  +6.9189962156082423 a1_x4
  +9.2097073421305335 a1_x5
  +1.6783613276554563 a1_x6
  +29.957301038510835 a1_z1
  +31.080729858907144 a1_z2
  +3.9982275243752419 a2_x1
  +4.0716566341487717 a2_x2
  +8.3479540678562252 a2_x3
  +4.8717105490747867 a2_x4
  +6.0061452108085005 a2_x5
  +2.7882654202354971 a2_x6
  +21.648290212377919 a2_z1
  +42.54057128991149 a2_z2
  +2.9928805955584821 a3_x1
  +5.5354110864277946 a3_x2
  +5.213896919227734 a3_x3
  +2.0650047465660801 a3_x4
  +6.4105355661416237 a3_x5
  +2.6598622040549174 a3_x6
  +31.217971703687525 a3_z1
  +44.913093336265895 a3_z2
  +1.3478391985630118 a4_x1
  +6.3176473690479504 a4_x2
  +9.9894359630934186 a4_x3
  +5.7054129264347031 a4_x4
  +4.4415295718065089 a4_x5
  +5.0613340194576661 a4_x6
  +15.238383211322466 a4_z1
  +39.666499040349478 a4_z2
  +1000000 short_1
  +1000000 surp_1
  +1000000 short_2
  +1000000 surp_2
  +1000000 short_3
  +1000000 surp_3

s.t.

a1_local_1: 
+0.32057420966845834 a1_x4
+0.39881655547319067 a1_x3
+0.85917258520971362 a1_x1
<= 98.060632019235285

a1_local_2: 
+0.71851210683700539 a1_x5
+0.43740103016539983 a1_x2
+0.54075936528080093 a1_x1
<= 66.230322801693333

a1_local_3: 
+0.44583703621762527 a1_x1
+0.63122774479384336 a1_x5
+0.63465019604437423 a1_x4
<= 98.355344486032962

a1_local_4: 
+0.67238242082709998 a1_x4
+0.50484375993973951 a1_x1
+0.54132675734032865 a1_x2
<= 72.263039171628805

a1_local_5: 
+0.41293992751723851 a1_x4
+0.84403856159986124 a1_x6
+0.34216885129201186 a1_x3
<= 109.63031681764571

a1_local_6: 
+0.45432171448337555 a1_x5
+0.77608570160407864 a1_x1
+0.43735884981853457 a1_x6
<= 90.231901379691863

a1_local_7: 
+1.2050567091264353 a1_x1
+1.2628206743131363 a1_x2
+0.84501530855955176 a1_x4
<= 188.74266074735039

a1_local_8: 
+0.66009330918955356 a1_x3
+0.70102273254504965 a1_x6
+0.26989618674271099 a1_x5
<= 83.622159165741252

a1_act_1: 
+0.0099995000374968751 a1_x1
-0.99995000374968745 a1_z1
<= 0

a1_act_2: 
+0.019614658831632568 a1_x2
-1.9614658831632568 a1_z2
<= 0

a2_local_1: 
+0.46725481970829097 a2_x5
+0.56948691451308942 a2_x3
+0.67628218049696787 a2_x6
<= 112.47481234761732

a2_local_2: 
+0.46830058037843825 a2_x4
+0.73025412611403562 a2_x3
+0.49741680481327111 a2_x6
<= 82.947938463106155

a2_local_3: 
+0.61266458497935949 a2_x3
+0.45877397385008223 a2_x1
+0.64355928027639642 a2_x2
<= 113.6491606360517

a2_local_4: 
+0.68560532977285071 a2_x4
+0.53137936056987289 a2_x5
+0.4975754283999701 a2_x1
<= 53.689308615720194

a2_local_5: 
+0.61830245895774449 a2_x1
+0.69392124773728792 a2_x6
+0.3690194726373287 a2_x2
<= 101.61313875768823

a2_local_6: 
+0.5909341882479634 a2_x1
+0.46771691553338912 a2_x5
+0.65729572650645862 a2_x3
<= 93.811356005131117

a2_local_7: 
+0.42953475260766749 a2_x3
+0.80579608405734904 a2_x6
+0.40766722608042888 a2_x1
<= 75.769273710694421

a2_local_8: 
+0.36140821265773376 a2_x4
+0.63378927037520982 a2_x1
+0.68388249325509254 a2_x6
<= 60.356386437449871

a2_act_1: 
+0.0081989731169978368 a2_x1
-0.81989731169978364 a2_z1
<= 0

a2_act_2: 
+0.0099995000374968734 a2_x2
-0.99995000374968745 a2_z2
<= 0

a3_local_1: 
+0.77587593470491301 a3_x4
+0.30046593902603053 a3_x2
+0.55474025762602031 a3_x5
<= 87.255291197984022

a3_local_2: 
+0.60028845242800899 a3_x1
+0.5535554215551971 a3_x6
+0.57726091947093916 a3_x3
<= 55.527369224169853

a3_local_3: 
+0.6580352043409412 a3_x2
+0.56043963372902372 a3_x6
+0.50288874196352173 a3_x5
<= 120.30235159497799

a3_local_4: 
+0.45456016235262342 a3_x1
+0.64967499502156922 a3_x5
+0.60934182496007971 a3_x4
<= 54.578123794802011

a3_local_5: 
+0.69562191725744771 a3_x4
+0.39214676980554591 a3_x2
+0.60193941486012414 a3_x6
<= 68.461224311879306

a3_local_6: 
+0.5253032889703465 a3_x5
+0.45420843915298614 a3_x2
+0.71954926752734905 a3_x1
<= 84.74375346708932

a3_local_7: 
+0.68508900262603034 a3_x2
+0.64609933940739339 a3_x4
+0.33646500872780311 a3_x5
<= 107.04916499438183

a3_local_8: 
+0.44402910180242122 a3_x3
+0.48224385791657942 a3_x5
+0.7551682052723544 a3_x6
<= 83.183824652189472

a3_act_1: 
+0.0099995000374968768 a3_x1
-0.99995000374968768 a3_z1
<= 0

a3_act_2: 
+0.0099995000374968751 a3_x2
-0.99995000374968757 a3_z2
<= 0

a4_local_1: 
+0.44906980633884036 a4_x6
+0.70565496272732198 a4_x2
+0.5480760737462439 a4_x1
<= 52.557536770630797

a4_local_2: 
+0.55870470512122916 a4_x1
+0.66882405949111445 a4_x6
+0.49043188102041935 a4_x5
<= 56.772112456633288

a4_local_3: 
+0.61234879185445101 a4_x6
+0.49429505297309517 a4_x3
+0.61701001427911961 a4_x2
<= 74.022542328070259

a4_local_4: 
+0.45184677256682371 a4_x4
+0.65485140171962775 a4_x6
+0.60580866268714229 a4_x2
<= 66.464620063352655

a4_local_5: 
+0.79505838499632686 a4_x5
+0.34511803577662192 a4_x6
+0.49877420325104882 a4_x1
<= 59.919732733307036

a4_local_6: 
+0.67476592541544189 a4_x5
+0.58004673672683349 a4_x1
+0.45632962769339602 a4_x2
<= 111.46986493253715

a4_local_7: 
+0.71020750681948652 a4_x4
+0.59154241136036001 a4_x2
+0.38168425801861361 a4_x5
<= 80.641054102426295

a4_local_8: 
+0.71280416022467397 a4_x3
+0.36265918395011681 a4_x1
+0.6003237005674793 a4_x2
<= 107.13320848833999

a4_act_1: 
+0.0099995000374968768 a4_x1
-0.99995000374968757 a4_z1
<= 0

a4_act_2: 
+0.0099995000374968751 a4_x2
-0.99995000374968757 a4_z2
<= 0

coupling_1: 
+0.012611051166257364 a1_x1
+0.080758360152905273 a2_x1
+0.22917785283453354 a3_x1
+0.95274572332122009 a4_x1
+0.12859266525967475 short_1
-0.12859266525967475 surp_1
= 72.897560642158226

coupling_2: 
+0.0078967875393399587 a1_x2
+0.044891282647673711 a2_x2
+0.099089432633891888 a3_x2
+0.98854215249185406 a4_x2
+0.073783841645275808 short_2
-0.073783841645275808 surp_2
= 81.507862002468272

coupling_3: 
+0.010018949711093034 a1_x3
+0.026208845673026317 a2_x3
+0.2296195275159644 a3_x3
+0.96585941174996182 a4_x3
+0.08247177205728333 short_3
-0.08247177205728333 surp_3
= 30.273592201813202

bounds
  0 <= a1_x1 <= 100
  0 <= a1_x2 <= 100
  0 <= a1_x3 <= 100
  0 <= a1_x4 <= 100
  0 <= a1_x5 <= 100
  0 <= a1_x6 <= 100
  0 <= a2_x1 <= 100
  0 <= a2_x2 <= 100
  0 <= a2_x3 <= 100
  0 <= a2_x4 <= 100
  0 <= a2_x5 <= 100
  0 <= a2_x6 <= 100
  0 <= a3_x1 <= 100
  0 <= a3_x2 <= 100
  0 <= a3_x3 <= 100
  0 <= a3_x4 <= 100
  0 <= a3_x5 <= 100
  0 <= a3_x6 <= 100
  0 <= a4_x1 <= 100
  0 <= a4_x2 <= 100
  0 <= a4_x3 <= 100
  0 <= a4_x4 <= 100
  0 <= a4_x5 <= 100
  0 <= a4_x6 <= 100
  0 <= short_1 <= +inf
  0 <= surp_1 <= +inf
  0 <= short_2 <= +inf
  0 <= surp_2 <= +inf
  0 <= short_3 <= +inf
  0 <= surp_3 <= +inf
 0 <= a1_z1 <= 1
 0 <= a1_z2 <= 1
 0 <= a2_z1 <= 1
 0 <= a2_z2 <= 1
 0 <= a3_z1 <= 1
 0 <= a3_z2 <= 1
 0 <= a4_z1 <= 1
 0 <= a4_z2 <= 1

binary
  a1_z1
  a1_z2
  a2_z1
  a2_z2
  a3_z1
  a3_z2
  a4_z1
  a4_z2
end
