min
obj: 
  +7.7820756929973847 a1_x1
  +2.6204029212029933 a1_x2
  +1.0229393332967094 a1_x3
  +7.1910932224071349 a1_x4
  +4.2632745770435907 a1_x5
  +6.0246265469097295 a1_x6
  +42.771027111197313 a1_z1
  +28.114118371176183 a1_z2
  +5.7911212590182997 a2_x1
  +5.4348931719458209 a2_x2
  +9.4259627235885386 a2_x3
  +8.9213052519907556 a2_x4
  +6.1484548986939966 a2_x5
  +2.146409388681831 a2_x6
  +31.660946131309107 a2_z1
  +6.9899613369063101 a2_z2
  +2.8186252614454075 a3_x1
  +1.3641205917884647 a3_x2
  +2.33366974601915 a3_x3
  +2.4556775991065138 a3_x4
  +5.2278265061317715 a3_x5
  +6.6696189442115292 a3_x6
  +49.857919593613119 a3_z1
  +30.640944798186169 a3_z2
  +7.0994894146457632 a4_x1
  +9.5674915626052641 a4_x2
  +9.235478138695818 a4_x3
  +8.9478139676632793 a4_x4
  +7.4338997063934436 a4_x5
  +1.7960169742966061 a4_x6
  +7.4304140982629434 a4_z1
  +14.530204301669533 a4_z2
  +1000000 short_1
  +1000000 surp_1
  +1000000 short_2
  +1000000 surp_2
  +1000000 short_3
  +1000000 surp_3

s.t.

a1_local_1: 
+0.50830128584377543 a1_x4
+0.78099407126304765 a1_x6
+0.3628747214418967 a1_x3
<= 82.586536136739326

a1_local_2: 
+0.62841303478021904 a1_x6
+0.44056055071972738 a1_x5
+0.64109551462153125 a1_x4
<= 90.610196797227175

a1_local_3: 
+0.46069916733291411 a1_x4
+0.60784594660963676 a1_x2
+0.64674537679754185 a1_x3
<= 99.499579294658957

a1_local_4: 
+0.62746166085074517 a1_x4
+0.41777488442219135 a1_x5
+0.65708143339197256 a1_x2
<= 86.745948720075305

a1_local_5: 
+0.34648194375364333 a1_x2
+0.84311871084991363 a1_x5
+0.41121904390175884 a1_x4
<= 88.557773967834507

a1_local_6: 
+0.61130116884469288 a1_x2
+0.70495374262121391 a1_x3
+0.35965414182719402 a1_x1
<= 90.840717984386089

a1_local_7: 
+0.39611970782760031 a1_x5
+0.82739434789670929 a1_x2
+0.39813034315303775 a1_x6
<= 88.982247144089214

a1_local_8: 
+0.41281788352611271 a1_x5
+0.73648948985633622 a1_x1
+0.53587743596103632 a1_x6
<= 103.5458862799003

a1_act_1: 
+0.0099995000374968751 a1_x1
-0.99995000374968745 a1_z1
<= 0

a1_act_2: 
+0.0099995000374968751 a1_x2
-0.99995000374968745 a1_z2
<= 0

a2_local_1: 
+0.42900853832239955 a2_x6
+0.64038776448239676 a2_x4
+0.6370676456607387 a2_x3
<= 107.38342384585884

a2_local_2: 
+0.37108491094252494 a2_x5
+0.51453332323007461 a2_x4
+0.77301452001666426 a2_x6
<= 75.252985666485429

a2_local_3: 
+0.55614099615882662 a2_x4
+0.37619132602491423 a2_x5
+0.74107170949583878 a2_x3
<= 51.83958560757582

a2_local_4: 
+0.24963117209817026 a2_x5
+0.24651234127808794 a2_x6
+0.70894168111643163 a2_x4
<= 45.023300334250493

a2_local_5: 
+0.58280691983876709 a2_x4
+0.36290438331361369 a2_x2
+0.72707393211406945 a2_x3
<= 79.669044301504158

a2_local_6: 
+0.61889551998623793 a2_x5
+0.54707832658473365 a2_x4
+0.56362544293370187 a2_x3
<= 65.444236776076934

a2_local_7: 
+0.46021803969222486 a2_x1
+0.73820656439537036 a2_x6
+0.49320424189723833 a2_x4
<= 118.1221670730678

a2_local_8: 
+0.66625591748106294 a2_x4
+0.61881701294173619 a2_x3
+0.41613526276360424 a2_x5
<= 65.194752551224795

a2_act_1: 
+0.0099995000374968751 a2_x1
-0.99995000374968757 a2_z1
<= 0

a2_act_2: 
+0.0099995000374968751 a2_x2
-0.99995000374968757 a2_z2
<= 0

a3_local_1: 
+0.45040944646498604 a3_x6
+0.68914092811905803 a3_x2
+0.56764082986190145 a3_x1
<= 114.01347756589719

a3_local_2: 
+0.75301381339081763 a3_x1
+0.5066234578554677 a3_x6
+0.41988435168887622 a3_x2
<= 115.20578781347692

a3_local_3: 
+0.35353124402877611 a3_x6
+0.84635515733245303 a3_x5
+0.39836993756083655 a3_x3
<= 84.746799952446167

a3_local_4: 
+0.6433052393453027 a3_x2
+0.29601460997692886 a3_x6
+0.70606920320255395 a3_x4
<= 69.789029819945569

a3_local_5: 
+0.52882068558906281 a3_x1
+0.70516366679839337 a3_x5
+0.47232709589918487 a3_x3
<= 84.58513246338218

a3_local_6: 
+0.54551462774739479 a3_x5
+0.64574199000543053 a3_x2
+0.53425749714669224 a3_x3
<= 88.915034445616413

a3_local_7: 
+0.70790540794073165 a3_x2
+0.57887892531735796 a3_x3
+0.84218047523525597 a3_x1
<= 113.69835346731725

a3_local_8: 
+0.72949566772882757 a3_x6
+0.33912416760590086 a3_x1
+0.59399568155877769 a3_x2
<= 75.633450136201034

a3_act_1: 
+0.0099995000374968734 a3_x1
-0.99995000374968745 a3_z1
<= 0

a3_act_2: 
+0.0099995000374968768 a3_x2
-0.99995000374968757 a3_z2
<= 0

a4_local_1: 
+0.35922126688313899 a4_x1
+0.82536095005775412 a4_x6
+0.43559084418595601 a4_x5
<= 102.34045830510637

a4_local_2: 
+0.69088349963423645 a4_x2
+0.32840043962771281 a4_x5
+0.64407541575926885 a4_x4
<= 111.82877828836618

a4_local_3: 
+0.74228054919970943 a4_x6
+0.57737814604835969 a4_x2
+0.34007949474429788 a4_x5
<= 96.656353967815207

a4_local_4: 
+0.63636137378935309 a4_x6
+0.38653465108739332 a4_x3
+0.66755911008514768 a4_x4
<= 107.04015938518988

a4_local_5: 
+0.44397761964560289 a4_x5
+0.4516525299390578 a4_x2
+0.77388233308008314 a4_x3
<= 66.892639522294417

a4_local_6: 
+0.60027196439209529 a4_x1
+0.51190150666328882 a4_x5
+0.61451640843895283 a4_x4
<= 95.217709897947444

a4_local_7: 
+0.37146299245302 a4_x6
+0.71516470785044883 a4_x3
+0.59207658785247508 a4_x2
<= 100.93310486108885

a4_local_8: 
+0.49128963235348283 a4_x3
+0.77850908644126027 a4_x6
+0.39058686546064747 a4_x4
<= 59.841937478560617

a4_act_1: 
+0.0099995000374968751 a4_x1
-0.99995000374968757 a4_z1
<= 0

a4_act_2: 
+0.0099995000374968751 a4_x2
-0.99995000374968757 a4_z2
<= 0

coupling_1: 
+0.014051723935445329 a1_x1
+0.081570446279411485 a2_x1
+0.30472282706158893 a3_x1
+0.92713671434390388 a4_x1
+0.14267151595781646 short_1
-0.14267151595781646 surp_1
= 94.003936063583168

coupling_2: 
+0.013462571435908089 a1_x2
+0.055549891196368904 a2_x2
+0.27122053157742987 a3_x2
+0.95110434042274694 a4_x2
+0.096366295036886221 short_2
-0.096366295036886221 surp_2
= 36.160607383121047

coupling_3: 
+0.021124318409193977 a1_x3
+0.069019429152177403 a2_x3
+0.20540472798270215 a3_x3
+0.94197776930704979 a4_x3
+0.18066109352171139 short_3
-0.18066109352171139 surp_3
= 27.754466024285588

bounds
  0 <= a1_x1 <= 100
  0 <= a1_x2 <= 100
  0 <= a1_x3 <= 100
  0 <= a1_x4 <= 100
  0 <= a1_x5 <= 100
  0 <= a1_x6 <= 100
  0 <= a2_x1 <= 100
  0 <= a2_x2 <= 100
  0 <= a2_x3 <= 100
  0 <= a2_x4 <= 100
  0 <= a2_x5 <= 100
  0 <= a2_x6 <= 100
  0 <= a3_x1 <= 100
  0 <= a3_x2 <= 100
  0 <= a3_x3 <= 100
  0 <= a3_x4 <= 100
  0 <= a3_x5 <= 100
  0 <= a3_x6 <= 100
  0 <= a4_x1 <= 100
  0 <= a4_x2 <= 100
  0 <= a4_x3 <= 100
  0 <= a4_x4 <= 100
  0 <= a4_x5 <= 100
  0 <= a4_x6 <= 100
  0 <= short_1 <= +inf
  0 <= surp_1 <= +inf
  0 <= short_2 <= +inf
  0 <= surp_2 <= +inf
  0 <= short_3 <= +inf
  0 <= surp_3 <= +inf
 0 <= a1_z1 <= 1
 0 <= a1_z2 <= 1
 0 <= a2_z1 <= 1
 0 <= a2_z2 <= 1
 0 <= a3_z1 <= 1
 0 <= a3_z2 <= 1
 0 <= a4_z1 <= 1
 0 <= a4_z2 <= 1

binary
  a1_z1
  a1_z2
  a2_z1
  a2_z2
  a3_z1
  a3_z2
  a4_z1
  a4_z2
end
