min
obj: 
  +1.5770974257819579 a1_x1
  +5.2436233239928463 a1_x2
  +8.0695966456126804 a1_x3
  +3.4781022885686368 a1_x4
  +9.412058306823841 a1_x5
  +8.3165688602967034 a1_x6
  +34.001400959855452 a1_z1
  +10.410503430419741 a1_z2
  +6.4773554290647395 a2_x1
  +9.5833935756226563 a2_x2
  +2.026827474230366 a2_x3
  +2.5146383338919818 a2_x4
  +5.9719159164755045 a2_x5
  +2.1752834405324757 a2_x6
  +46.820939487606068 a2_z1
  +31.119838842287344 a2_z2
  +4.2898026117145012 a3_x1
  +6.2971939246586208 a3_x2
  +7.0812452369118279 a3_x3
  +4.947199835085236 a3_x4
  +8.0650994710678727 a3_x5
  +5.8436848317688934 a3_x6
  +45.408472421232204 a3_z1
  +47.685437857449642 a3_z2
  +7.6745490131872192 a4_x1
  +9.5447276615633179 a4_x2
  +6.4685946234911675 a4_x3
  +6.1047180091187832 a4_x4
  +9.0091726197219533 a4_x5
  +9.2042443028710519 a4_x6
  +10.38795682780167 a4_z1
  +22.655186795949191 a4_z2
  +1000000 short_1
  +1000000 surp_1
  +1000000 short_2
  +1000000 surp_2
  +1000000 short_3
  +1000000 surp_3

s.t.

a1_local_1: 
+6555.9875736850618 a1_x1
+6702.3239223169676 a1_x6
+4087.7410383870911 a1_x5
<= 912456.28970236762

a1_local_2: 
+9.3672033160453235e-06 a1_x5
+5.1660604087045365e-06 a1_x4
+1.4583742009568673e-05 a1_x1
<= 0.0009101456327399105

a1_local_3: 
+0.00084030378706842111 a1_x2
+0.0011999130362059824 a1_x3
+0.00073842747424717088 a1_x5
<= 0.1093112129903165

a1_local_4: 
+3128.2910401979043 a1_x2
+2500.3384476230881 a1_x4
+1146.2365107353107 a1_x1
<= 340642.63305293

a1_local_5: 
+31250.953048124527 a1_x1
+19907.897539312144 a1_x3
+35699.776301971207 a1_x2
<= 3372071.898026519

a1_local_6: 
+8.9273603952308154 a1_x3
+7.1357251996279247 a1_x4
+6.1137484239468227 a1_x2
<= 930.98761456373745

a1_local_7: 
+716.1396110174677 a1_x1
+446.67027492570537 a1_x4
+616.98257458142518 a1_x3
<= 98648.429784251057

a1_local_8: 
+4.1522350427570825e-05 a1_x3
+2.6747228712617855e-05 a1_x2
+3.6794417386041135e-05 a1_x5
<= 0.00480112190646093

a1_act_1: 
+39.699664661582688 a1_x1
-3969.9664661582688 a1_z1
<= 0

a1_act_2: 
+9.2853305955800014 a1_x2
-928.5330595580001 a1_z2
<= 0

a2_local_1: 
+0.68054141092408726 a2_x3
+1.1723713095459181 a2_x6
+1.1724580926369059 a2_x4
<= 168.0930267312477

a2_local_2: 
+580495.05496901763 a2_x6
+240103.07225956226 a2_x4
+540217.67523244245 a2_x2
<= 73122806.122181281

a2_local_3: 
+111.36007932467048 a2_x4
+159.18917888025024 a2_x5
+192.13763214487764 a2_x2
<= 20915.14438611627

a2_local_4: 
+1.2596498508853974e-05 a2_x6
+1.4308493327205413e-05 a2_x5
+1.0148395103420885e-05 a2_x1
<= 0.0012323879826313274

a2_local_5: 
+3.9441107264997117 a2_x6
+3.9886836018093033 a2_x5
+3.7738391029333318 a2_x2
<= 460.97148522760057

a2_local_6: 
+0.84864798074129189 a2_x1
+0.5870828625005805 a2_x6
+1.0306751220125936 a2_x3
<= 126.46980366823276

a2_local_7: 
+163.10488721504817 a2_x2
+180.50469310404824 a2_x4
+251.97742882853186 a2_x5
<= 31375.724536407928

a2_local_8: 
+6.3847177388044077e-07 a2_x4
+6.5141148498175742e-07 a2_x3
+7.9937141148376368e-07 a2_x2
<= 6.7287184021999876e-05

a2_act_1: 
+5410.2721831351728 a2_x1
-541027.21831351728 a2_z1
<= 0

a2_act_2: 
+21.338127060943922 a2_x2
-2133.8127060943921 a2_z2
<= 0

a3_local_1: 
+2.7800800200682491e-05 a3_x3
+2.4500082379931685e-05 a3_x4
+3.1869267348302319e-05 a3_x2
<= 0.0046765157723587126

a3_local_2: 
+1.9067054790090379 a3_x3
+2.2968979489651877 a3_x4
+3.3594772460048707 a3_x6
<= 494.53360867268907

a3_local_3: 
+231642.4169030817 a3_x2
+369451.40605055424 a3_x3
+224309.99992547219 a3_x5
<= 31065569.443032626

a3_local_4: 
+0.07371541080060065 a3_x2
+0.12079399343514167 a3_x5
+0.10642077113477383 a3_x3
<= 15.797663285630815

a3_local_5: 
+115848.92082169525 a3_x2
+57006.57565688005 a3_x5
+123906.77831394656 a3_x3
<= 18543263.586812329

a3_local_6: 
+19659.415374583936 a3_x5
+16871.110153865007 a3_x6
+18964.675891915547 a3_x1
<= 2927960.3707450414

a3_local_7: 
+44.929159949644358 a3_x3
+51.919436166769231 a3_x5
+44.085393566084285 a3_x2
<= 8294.0624206179582

a3_local_8: 
+69.937052731269532 a3_x5
+106.79736492344276 a3_x3
+71.330583833341649 a3_x2
<= 13816.243605253534

a3_act_1: 
+1.7799973784025105 a3_x1
-177.99973784025104 a3_z1
<= 0

a3_act_2: 
+175353.02261030817 a3_x2
-17535302.261030816 a3_z2
<= 0

a4_local_1: 
+2.5078083962052049e-05 a4_x6
+2.7969088014151393e-05 a4_x1
+2.4904563735877631e-05 a4_x3
<= 0.0029118449091389237

a4_local_2: 
+180730.59282619457 a4_x2
+301433.92790152883 a4_x4
+200418.4453865262 a4_x6
<= 38347610.855411604

a4_local_3: 
+79.298474483444835 a4_x3
+60.195838055021412 a4_x2
+118.05132776739694 a4_x1
<= 7774.4516148731855

a4_local_4: 
+885.30505487015819 a4_x3
+1335.5493852274556 a4_x5
+1371.8045414484579 a4_x2
<= 220932.50670618375

a4_local_5: 
+66.939122053838503 a4_x3
+69.0409765325807 a4_x2
+54.0492961437212 a4_x1
<= 10480.537485397523

a4_local_6: 
+63288.509522533277 a4_x5
+23105.263957345414 a4_x1
+57885.647942911448 a4_x6
<= 6862181.8733438374

a4_local_7: 
+3059.8817781697971 a4_x6
+1650.6344569508701 a4_x3
+2583.4346380951392 a4_x2
<= 487088.35811920196

a4_local_8: 
+0.00038979582519464153 a4_x2
+0.00046217848293254795 a4_x6
+0.00068061532204975435 a4_x5
<= 0.077805459912681077

a4_act_1: 
+25691.180530862104 a4_x1
-2569118.0530862105 a4_z1
<= 0

a4_act_2: 
+0.003827206813206193 a4_x2
-0.38272068132061932 a4_z2
<= 0

coupling_1: 
+3.1000128127776065 a1_x1
+21.375228847012242 a2_x1
+87.206139611157283 a3_x1
+436.04514836773438 a4_x1
+31.05523259881258 short_1
-31.05523259881258 surp_1
= 40395.595893023412

coupling_2: 
+1.9350665343854269e-06 a1_x2
+7.4476889209711787e-06 a2_x2
+5.5896820970859709e-05 a3_x2
+0.00023933046998537595 a4_x2
+2.1309964727709111e-05 short_2
-2.1309964727709111e-05 surp_2
= 0.010972724289448725

coupling_3: 
+8.5713470905762678e-06 a1_x3
+2.6303018804698191e-05 a2_x3
+9.8039398344644719e-05 a3_x3
+0.00059034756728490261 a4_x3
+6.9043405619719693e-05 short_3
-6.9043405619719693e-05 surp_3
= 0.04221811694213725

bounds
  0 <= a1_x1 <= 100
  0 <= a1_x2 <= 100
  0 <= a1_x3 <= 100
  0 <= a1_x4 <= 100
  0 <= a1_x5 <= 100
  0 <= a1_x6 <= 100
  0 <= a2_x1 <= 100
  0 <= a2_x2 <= 100
  0 <= a2_x3 <= 100
  0 <= a2_x4 <= 100
  0 <= a2_x5 <= 100
  0 <= a2_x6 <= 100
  0 <= a3_x1 <= 100
  0 <= a3_x2 <= 100
  0 <= a3_x3 <= 100
  0 <= a3_x4 <= 100
  0 <= a3_x5 <= 100
  0 <= a3_x6 <= 100
  0 <= a4_x1 <= 100
  0 <= a4_x2 <= 100
  0 <= a4_x3 <= 100
  0 <= a4_x4 <= 100
  0 <= a4_x5 <= 100
  0 <= a4_x6 <= 100
  0 <= short_1 <= +inf
  0 <= surp_1 <= +inf
  0 <= short_2 <= +inf
  0 <= surp_2 <= +inf
  0 <= short_3 <= +inf
  0 <= surp_3 <= +inf
 0 <= a1_z1 <= 1
 0 <= a1_z2 <= 1
 0 <= a2_z1 <= 1
 0 <= a2_z2 <= 1
 0 <= a3_z1 <= 1
 0 <= a3_z2 <= 1
 0 <= a4_z1 <= 1
 0 <= a4_z2 <= 1

binary
  a1_z1
  a1_z2
  a2_z1
  a2_z2
  a3_z1
  a3_z2
  a4_z1
  a4_z2
end
