min
obj: 
  +3.0571104005516858 a1_x1
  +8.0556013187453051 a1_x2
  +1.9742345173811016 a1_x3
  +4.4385591714508195 a1_x4
  +2.091774352732247 a1_x5
  +8.3606733491801819 a1_x6
  +15.666425601953888 a1_z1
  +12.324732571684713 a1_z2
  +3.9044727049854391 a2_x1
  +3.1906424171049248 a2_x2
  +7.2566205037606055 a2_x3
  +4.240342031508578 a2_x4
  +1.7216538193625648 a2_x5
  +9.8652119955060549 a2_x6
  +47.432933857706239 a2_z1
  +10.018499727455843 a2_z2
  +7.6634289009813905 a3_x1
  +6.6031951543936822 a3_x2
  +5.6627725428325562 a3_x3
  +4.150259343395577 a3_x4
  +2.0433644620272413 a3_x5
  +3.9564814242041457 a3_x6
  +26.646913444644401 a3_z1
  +25.192698563482555 a3_z2
  +2.4319173360803403 a4_x1
  +1.259802781834898 a4_x2
  +6.7186619976265831 a4_x3
  +9.2328283032404528 a4_x4
  +5.8537835915052003 a4_x5
  +9.834988999700645 a4_x6
  +10.083472599865093 a4_z1
  +40.29173016694412 a4_z2
  +1000000 short_1
  +1000000 surp_1
  +1000000 short_2
  +1000000 surp_2
  +1000000 short_3
  +1000000 surp_3

s.t.

a1_local_1: 
+0.48857595054224551 a1_x5
+0.80417678527912262 a1_x1
+0.33851623088099803 a1_x6
<= 63.817730170114586

a1_local_2: 
+0.35342997224112588 a1_x6
+0.70503338605983579 a1_x4
+0.61482939036991358 a1_x2
<= 71.61408431095559

a1_local_3: 
+0.74573951461699794 a1_x4
+0.33163650418498658 a1_x5
+0.57783198719936379 a1_x1
<= 109.41386800982221

a1_local_4: 
+0.87022843928748239 a1_x3
+0.30940922774732771 a1_x1
+0.38336456962019178 a1_x4
<= 68.913485729388427

a1_local_5: 
+0.48881551660507239 a1_x4
+0.57822563056811749 a1_x5
+0.65323388681254069 a1_x1
<= 53.135616136130317

a1_local_6: 
+0.43289932106181034 a1_x2
+0.56315894483068618 a1_x5
+0.72381356598419666 a1_x6
<= 65.23279734420052

a1_local_7: 
+0.57139596473844723 a1_x1
+0.63882513973615163 a1_x3
+0.51517869940604621 a1_x5
<= 101.16324732929664

a1_local_8: 
+0.67638656867122227 a1_x3
+0.59380758038668469 a1_x4
+0.43576801993317604 a1_x1
<= 60.560149399639549

a1_act_1: 
+0.0099995000374968751 a1_x1
-0.99995000374968757 a1_z1
<= 0

a1_act_2: 
+0.0099995000374968768 a1_x2
-0.99995000374968757 a1_z2
<= 0

a2_local_1: 
+0.5350347409833609 a2_x2
+0.30680111898869 a2_x6
+0.78715366944971787 a2_x4
<= 110.84757056093657

a2_local_2: 
+0.53866597001214767 a2_x2
+0.58412777891330891 a2_x5
+0.60715213139103508 a2_x3
<= 104.96460589355083

a2_local_3: 
+0.65649870962920376 a2_x3
+0.52029951175570555 a2_x5
+0.54616651519656978 a2_x2
<= 78.91111683607248

a2_local_4: 
+0.36126372550430841 a2_x1
+0.77189510197559064 a2_x5
+0.52313141004994168 a2_x6
<= 106.30685466729744

a2_local_5: 
+0.58429520661682954 a2_x2
+0.70705546402948771 a2_x6
+0.39833614236049747 a2_x1
<= 101.1683317125723

a2_local_6: 
+0.55886031861343588 a2_x1
+0.71616686352898518 a2_x5
+0.41806718103953677 a2_x4
<= 110.91202881991453

a2_local_7: 
+0.60728785821860087 a2_x6
+0.41148484593429779 a2_x3
+0.67961877462787323 a2_x4
<= 53.940789664211245

a2_local_8: 
+0.60701757524427613 a2_x3
+0.68222149071861404 a2_x1
+0.40755797249744952 a2_x4
<= 90.497347080288336

a2_act_1: 
+0.0099995000374968751 a2_x1
-0.99995000374968745 a2_z1
<= 0

a2_act_2: 
+0.0099995000374968751 a2_x2
-0.99995000374968745 a2_z2
<= 0

a3_local_1: 
+0.68527064115462499 a3_x5
+0.63166369196743588 a3_x6
+0.36249845326786923 a3_x2
<= 77.723289330850335

a3_local_2: 
+0.55368439932831137 a3_x3
+0.41821874170260809 a3_x1
+0.72008795992512897 a3_x5
<= 109.18132725314968

a3_local_3: 
+0.33392485473398842 a3_x6
+0.62470608810755324 a3_x2
+0.70585869327524953 a3_x3
<= 81.276940731360241

a3_local_4: 
+0.47692833798501416 a3_x5
+0.65190577343271539 a3_x6
+0.58954068815642036 a3_x3
<= 71.208722030346962

a3_local_5: 
+0.73839275958119754 a3_x5
+0.52375310694776589 a3_x6
+0.4248044439040462 a3_x4
<= 63.802822168961853

a3_local_6: 
+0.59650708934715391 a3_x3
+0.4853156427057258 a3_x6
+0.63925583243621231 a3_x2
<= 55.324968200441305

a3_local_7: 
+0.56652304607657045 a3_x4
+0.56447572270644075 a3_x6
+0.60034889584238038 a3_x3
<= 60.284781170766756

a3_local_8: 
+0.79372392475499975 a3_x6
+0.48001104496921221 a3_x3
+0.37361976390320217 a3_x5
<= 86.144730295050039

a3_act_1: 
+0.0099995000374968751 a3_x1
-0.99995000374968757 a3_z1
<= 0

a3_act_2: 
+0.0099995000374968751 a3_x2
-0.99995000374968757 a3_z2
<= 0

a4_local_1: 
+0.42348175066660387 a4_x4
+0.84313831999073818 a4_x1
+0.33133212976640819 a4_x6
<= 102.73254599805054

a4_local_2: 
+0.64079774750179164 a4_x2
+0.70581235624433569 a4_x6
+0.30200523930794471 a4_x1
<= 87.625661515263815

a4_local_3: 
+0.48220838956365952 a4_x4
+0.7007023645615722 a4_x3
+0.52582436738158478 a4_x5
<= 70.315403551670499

a4_local_4: 
+0.40962377825572538 a4_x1
+0.77997959185042542 a4_x6
+0.47311752935644652 a4_x4
<= 114.66458274853531

a4_local_5: 
+0.56997887086460219 a4_x3
+0.55843661583855042 a4_x6
+0.60272102407224892 a4_x4
<= 107.17291451055162

a4_local_6: 
+0.72051913501984499 a4_x3
+0.4293720062061816 a4_x1
+0.54451065770720508 a4_x5
<= 72.798361111372671

a4_local_7: 
+0.45716693749280463 a4_x5
+0.77245391245228778 a4_x4
+0.44080987330208893 a4_x3
<= 96.144714064329051

a4_local_8: 
+0.51605433910780074 a4_x1
+0.67325818048797237 a4_x4
+0.52953880074460613 a4_x6
<= 68.059321840795747

a4_act_1: 
+0.0099995000374968768 a4_x1
-0.99995000374968768 a4_z1
<= 0

a4_act_2: 
+0.0099995000374968751 a4_x2
-0.99995000374968745 a4_z2
<= 0

coupling_1: 
+0.013507172546125785 a1_x1
+0.03476667658115954 a2_x1
+0.20282698202409918 a3_x1
+0.96772491343303046 a4_x1
+0.10241714156658485 short_1
-0.10241714156658485 surp_1
= 38.521436083617139

coupling_2: 
+0.011817344504345555 a1_x2
+0.046129703222596241 a2_x2
+0.18366199158690066 a3_x2
+0.97380861850975331 a4_x2
+0.088593025154127605 short_2
-0.088593025154127605 surp_2
= 53.327378386363449

coupling_3: 
+0.0036706733657958755 a1_x3
+0.026027559695111873 a2_x3
+0.12641970799169097 a3_x3
+0.98713620831857252 a4_x3
+0.066668043135698019 short_3
-0.066668043135698019 surp_3
= 78.593318531094226

bounds
  0 <= a1_x1 <= 100
  0 <= a1_x2 <= 100
  0 <= a1_x3 <= 100
  0 <= a1_x4 <= 100
  0 <= a1_x5 <= 100
  0 <= a1_x6 <= 100
  0 <= a2_x1 <= 100
  0 <= a2_x2 <= 100
  0 <= a2_x3 <= 100
  0 <= a2_x4 <= 100
  0 <= a2_x5 <= 100
  0 <= a2_x6 <= 100
  0 <= a3_x1 <= 100
  0 <= a3_x2 <= 100
  0 <= a3_x3 <= 100
  0 <= a3_x4 <= 100
  0 <= a3_x5 <= 100
  0 <= a3_x6 <= 100
  0 <= a4_x1 <= 100
  0 <= a4_x2 <= 100
  0 <= a4_x3 <= 100
  0 <= a4_x4 <= 100
  0 <= a4_x5 <= 100
  0 <= a4_x6 <= 100
  0 <= short_1 <= +inf
  0 <= surp_1 <= +inf
  0 <= short_2 <= +inf
  0 <= surp_2 <= +inf
  0 <= short_3 <= +inf
  0 <= surp_3 <= +inf
 0 <= a1_z1 <= 1
 0 <= a1_z2 <= 1
 0 <= a2_z1 <= 1
 0 <= a2_z2 <= 1
 0 <= a3_z1 <= 1
 0 <= a3_z2 <= 1
 0 <= a4_z1 <= 1
 0 <= a4_z2 <= 1

binary
  a1_z1
  a1_z2
  a2_z1
  a2_z2
  a3_z1
  a3_z2
  a4_z1
  a4_z2
end
