min
obj: 
  +4.0092711480649195 a1_x1
  +1.9679731558453351 a1_x2
  +5.1245063990813229 a1_x3
  +5.3289660462088069 a1_x4
  +7.7326436197250805 a1_x5
  +5.1395422066191525 a1_x6
  +7.4601303692563201 a1_z1
  +49.872667351617643 a1_z2
  +9.3684343534405965 a2_x1
  +1.0573707236444929 a2_x2
  +6.6071911877442115 a2_x3
  +2.1574642417771144 a2_x4
  +4.0288495580936399 a2_x5
  +6.5816021448275457 a2_x6
  +37.186317612242192 a2_z1
  +14.569927030673126 a2_z2
  +7.5771846442232071 a3_x1
  +6.3254671996139473 a3_x2
  +1.3182946718516668 a3_x3
  +2.4508427443497842 a3_x4
  +7.5821505201430535 a3_x5
  +8.0396019839617026 a3_x6
  +34.570982164584187 a3_z1
  +17.019236119633661 a3_z2
  +9.6576292080467585 a4_x1
  +1.0103892115093069 a4_x2
  +8.2624531172852755 a4_x3
  +1.8717492610420641 a4_x4
  +5.7231033614351237 a4_x5
  +2.0382344427317065 a4_x6
  +33.41705432517788 a4_z1
  +11.211459891146486 a4_z2
  +1000000 short_1
  +1000000 surp_1
  +1000000 short_2
  +1000000 surp_2
  +1000000 short_3
  +1000000 surp_3

s.t.

a1_local_1: 
+49317.660671276593 a1_x3
+20952.571324793866 a1_x6
+33337.064632404079 a1_x4
<= 3916411.7714776886

a1_local_2: 
+0.0019585904701585385 a1_x4
+0.0010850720875844402 a1_x6
+0.000758313172447402 a1_x2
<= 0.21553211840955064

a1_local_3: 
+3.5073671583835067 a1_x6
+5.9314807322054053 a1_x4
+3.1000498674640209 a1_x1
<= 796.04010838483316

a1_local_4: 
+23827.412134538412 a1_x2
+28129.093939916849 a1_x5
+27629.126140992637 a1_x3
<= 5371751.5668226434

a1_local_5: 
+645.17596272371895 a1_x1
+292.5993473086948 a1_x4
+410.70030258772152 a1_x2
<= 92296.424802887224

a1_local_6: 
+0.00051788117247391751 a1_x1
+0.00053088087037690289 a1_x3
+0.00027060848591755189 a1_x6
<= 0.082365176934769468

a1_local_7: 
+54130.013310029906 a1_x2
+87304.570203943193 a1_x5
+68956.878285655708 a1_x4
<= 11703858.205713416

a1_local_8: 
+0.0080590373836509632 a1_x4
+0.012563975727735328 a1_x5
+0.0050981270996522015 a1_x6
<= 1.332716395973585

a1_act_1: 
+1013.0202625481508 a1_x1
-101302.02625481508 a1_z1
<= 0

a1_act_2: 
+0.00039829861158940987 a1_x2
-0.039829861158940986 a1_z2
<= 0

a2_local_1: 
+0.00043408680548316577 a2_x4
+0.00081894432940534821 a2_x2
+0.00065688936892488578 a2_x6
<= 0.11021317793779267

a2_local_2: 
+59.840556989922824 a2_x1
+82.570133339900323 a2_x4
+52.756285846212172 a2_x5
<= 12536.168590644997

a2_local_3: 
+0.076308647243252287 a2_x4
+0.056405442434813449 a2_x5
+0.11023998488375533 a2_x3
<= 15.521375657960679

a2_local_4: 
+0.00016497763590421499 a2_x2
+0.00011166453524499074 a2_x1
+0.00015834805591600956 a2_x5
<= 0.019885804209734199

a2_local_5: 
+0.050180502713036097 a2_x2
+0.03164060738289657 a2_x3
+0.058768516432717834 a2_x6
<= 7.9265828962601486

a2_local_6: 
+10298.518533836657 a2_x6
+7391.2390675107008 a2_x5
+11799.979234738486 a2_x2
<= 1643053.3070343521

a2_local_7: 
+7.5610354284478403 a2_x2
+5.1599598271136102 a2_x5
+5.4545996266971741 a2_x6
<= 1211.872742394386

a2_local_8: 
+130347.84300278586 a2_x2
+107135.32169579176 a2_x4
+93034.77846545176 a2_x5
<= 21947604.345483642

a2_act_1: 
+5155.5993390668173 a2_x1
-515559.93390668172 a2_z1
<= 0

a2_act_2: 
+675888.71614944481 a2_x2
-67588871.614944488 a2_z2
<= 0

a3_local_1: 
+228.9253154010471 a3_x1
+190.41115049129132 a3_x2
+354.25261345335184 a3_x6
<= 34938.204641385724

a3_local_2: 
+0.0010104960327226675 a3_x2
+0.00083496935722329128 a3_x1
+0.0017237245749591086 a3_x6
<= 0.15366134093544176

a3_local_3: 
+1.8944788994483979 a3_x1
+1.4634457532811649 a3_x5
+2.9530704779115959 a3_x2
<= 326.89140637484496

a3_local_4: 
+0.028686336265256226 a3_x4
+0.043647781670265215 a3_x6
+0.041097249456582344 a3_x5
<= 7.2837446223983635

a3_local_5: 
+0.0029505187079832849 a3_x4
+0.0043334710206065002 a3_x1
+0.0028776612847034844 a3_x5
<= 0.3306935707928319

a3_local_6: 
+0.20871034452587892 a3_x5
+0.11837203112659492 a3_x6
+0.1074168219692013 a3_x1
<= 25.607349883638996

a3_local_7: 
+0.10014310106919767 a3_x6
+0.12362583944199979 a3_x1
+0.14272353661454165 a3_x4
<= 22.990600656912015

a3_local_8: 
+0.0034809027789873882 a3_x3
+0.0044664094639482142 a3_x1
+0.0028571210784456113 a3_x6
<= 0.44011260765181071

a3_act_1: 
+686663.1252002354 a3_x1
-68666312.52002354 a3_z1
<= 0

a3_act_2: 
+0.00012862479913968599 a3_x2
-0.012862479913968598 a3_z2
<= 0

a4_local_1: 
+2676.7265829797066 a4_x3
+2600.3193257249832 a4_x2
+3629.4393384348064 a4_x5
<= 530722.9842042689

a4_local_2: 
+8.9236958228775496 a4_x2
+17.594190662458843 a4_x5
+20.626942858685069 a4_x3
<= 3261.7623858661309

a4_local_3: 
+1.2488611455760135 a4_x4
+0.58353947676732099 a4_x5
+0.59586503076581321 a4_x2
<= 82.31200638329851

a4_local_4: 
+1004733.6047413466 a4_x5
+1023592.5111191182 a4_x3
+848276.96848458215 a4_x1
<= 95187549.874728724

a4_local_5: 
+2888614.7430167156 a4_x5
+4407437.8169734897 a4_x6
+2227049.6363635343 a4_x1
<= 511213132.96162784

a4_local_6: 
+0.14036224202640482 a4_x3
+0.063442720463063595 a4_x2
+0.081325515595465636 a4_x1
<= 13.984681441562895

a4_local_7: 
+1.054531573480223e-05 a4_x1
+9.3125305151856874e-06 a4_x2
+2.0608637414333744e-05 a4_x3
<= 0.0024720718779903724

a4_local_8: 
+0.054374728417934899 a4_x3
+0.03886085680978834 a4_x1
+0.059859247639862133 a4_x4
<= 8.7993364768374533

a4_act_1: 
+0.0018442837864003762 a4_x1
-0.18442837864003761 a4_z1
<= 0

a4_act_2: 
+71551.722792492015 a4_x2
-7155172.2792492015 a4_z2
<= 0

coupling_1: 
+0.074891348782630235 a1_x1
+0.4461667182946622 a2_x1
+2.0947858509878463 a3_x1
+3.9339688329663796 a4_x1
+0.66348925535804648 short_1
-0.66348925535804648 surp_1
= 370.37923669335714

coupling_2: 
+1.4442224761735033e-06 a1_x2
+6.1367171113130422e-06 a2_x2
+2.3308902165173944e-05 a3_x2
+0.00016783669490174653 a4_x2
+1.787045756170789e-05 short_2
-1.787045756170789e-05 surp_2
= 0.010914909709385004

coupling_3: 
+9.4914075802273837e-06 a1_x3
+2.934202168387215e-05 a2_x3
+0.00019495084465955977 a3_x3
+0.0010218209459118425 a4_x3
+0.00011917326850738593 short_3
-0.00011917326850738593 surp_3
= 0.027398711101141122

bounds
  0 <= a1_x1 <= 100
  0 <= a1_x2 <= 100
  0 <= a1_x3 <= 100
  0 <= a1_x4 <= 100
  0 <= a1_x5 <= 100
  0 <= a1_x6 <= 100
  0 <= a2_x1 <= 100
  0 <= a2_x2 <= 100
  0 <= a2_x3 <= 100
  0 <= a2_x4 <= 100
  0 <= a2_x5 <= 100
  0 <= a2_x6 <= 100
  0 <= a3_x1 <= 100
  0 <= a3_x2 <= 100
  0 <= a3_x3 <= 100
  0 <= a3_x4 <= 100
  0 <= a3_x5 <= 100
  0 <= a3_x6 <= 100
  0 <= a4_x1 <= 100
  0 <= a4_x2 <= 100
  0 <= a4_x3 <= 100
  0 <= a4_x4 <= 100
  0 <= a4_x5 <= 100
  0 <= a4_x6 <= 100
  0 <= short_1 <= +inf
  0 <= surp_1 <= +inf
  0 <= short_2 <= +inf
  0 <= surp_2 <= +inf
  0 <= short_3 <= +inf
  0 <= surp_3 <= +inf
 0 <= a1_z1 <= 1
 0 <= a1_z2 <= 1
 0 <= a2_z1 <= 1
 0 <= a2_z2 <= 1
 0 <= a3_z1 <= 1
 0 <= a3_z2 <= 1
 0 <= a4_z1 <= 1
 0 <= a4_z2 <= 1

binary
  a1_z1
  a1_z2
  a2_z1
  a2_z2
  a3_z1
  a3_z2
  a4_z1
  a4_z2
end
