min
obj: 
  +4.6820518769511636 a1_x1
  +5.7129162548306427 a1_x2
  +9.0056358908477314 a1_x3
  +9.0172471176233611 a1_x4
  +9.406385688684578 a1_x5
  +5.7753562095118767 a1_x6
  +36.440798325108226 a1_z1
  +20.355895911925103 a1_z2
  +9.8523773325997031 a2_x1
  +8.6665660995193221 a2_x2
  +1.318348960475541 a2_x3
  +8.2691943978607085 a2_x4
  +6.0635318483155114 a2_x5
  +3.2631581910354219 a2_x6
  +31.015799445658949 a2_z1
  +42.142738976131909 a2_z2
  +3.407000856972263 a3_x1
  +9.4188250932667614 a3_x2
  +9.7490010795163791 a3_x3
  +7.0450820339939781 a3_x4
  +9.9763761898407548 a3_x5
  +5.8473553548384958 a3_x6
  +49.073547744148975 a3_z1
  +13.999141819476126 a3_z2
  +1.9143138950663818 a4_x1
  +6.1042201720531999 a4_x2
  +2.2574896326389386 a4_x3
  +5.6594666769891386 a4_x4
  +4.3520497618016583 a4_x5
  +6.7823412192640848 a4_x6
  +29.956754589694771 a4_z1
  +32.972144993024642 a4_z2
  +1000000 short_1
  +1000000 surp_1
  +1000000 short_2
  +1000000 surp_2
  +1000000 short_3
  +1000000 surp_3

s.t.

a1_local_1: 
+1.362394545421445 a1_x4
+1.1147100401026737 a1_x2
+0.73400176429116459 a1_x6
<= 140.8764437183722

a1_local_2: 
+1.4953012733070599 a1_x3
+0.66876155183655095 a1_x4
+1.3475799601647831 a1_x5
<= 147.51684959336771

a1_local_3: 
+0.75418227837105534 a1_x1
+1.3259394030842011 a1_x3
+0.99171137006251386 a1_x6
<= 159.95219275335523

a1_local_4: 
+0.81799788854876521 a1_x2
+0.71068903451150733 a1_x1
+1.407085168673456 a1_x5
<= 140.44026779512012

a1_local_5: 
+0.7739550951111096 a1_x2
+1.2601501418462637 a1_x3
+1.2920646253468224 a1_x5
<= 141.6539092999638

a1_local_6: 
+1.1923096376581668 a1_x6
+0.83870830899607163 a1_x1
+1.059081320363066 a1_x3
<= 161.21504661483959

a1_local_7: 
+1.1578780300237648 a1_x4
+0.93740203579326953 a1_x2
+0.86364882489347816 a1_x5
<= 155.81105242290019

a1_local_8: 
+1.1196169416042345 a1_x6
+1.092880092976215 a1_x2
+0.89316261914289863 a1_x4
<= 194.26659353418268

a1_act_1: 
+0.099999999999999992 a1_x1
-10 a1_z1
<= 0

a1_act_2: 
+0.072730685835722911 a1_x2
-7.2730685835722912 a1_z2
<= 0

a2_local_1: 
+0.8332273471304853 a2_x2
+1.145130984290861 a2_x6
+1.2001526395453239 a2_x5
<= 105.38925684531952

a2_local_2: 
+0.82255223736599736 a2_x1
+0.96510171389543442 a2_x4
+1.215728259644921 a2_x5
<= 208.55476625915188

a2_local_3: 
+1.5243160512059697 a2_x2
+1.0585583187077072 a2_x5
+0.65603192934224208 a2_x1
<= 204.44163190663795

a2_local_4: 
+0.72182797607453419 a2_x6
+1.3853716302854167 a2_x4
+0.76786776819486413 a2_x5
<= 107.21659889981883

a2_local_5: 
+0.73462857105759249 a2_x5
+1.3612321102082525 a2_x3
+0.95584220545224452 a2_x6
<= 157.71482320689691

a2_local_6: 
+1.1959125218165829 a2_x6
+0.83618156157526236 a2_x4
+1.0923761067433324 a2_x1
<= 164.44811346548471

a2_local_7: 
+0.98123234262351178 a2_x3
+0.89617254994848894 a2_x6
+1.1158565390755149 a2_x1
<= 139.90898803581052

a2_local_8: 
+0.96150893426335293 a2_x5
+0.96362970282087101 a2_x3
+1.0400319376815117 a2_x6
<= 206.24669468009859

a2_act_1: 
+0.099999999999999992 a2_x1
-10 a2_z1
<= 0

a2_act_2: 
+0.099999999999999992 a2_x2
-10 a2_z2
<= 0

a3_local_1: 
+1.2161983589985279 a3_x5
+0.82223429476047383 a3_x2
+0.98414990542296277 a3_x3
<= 117.04475217204606

a3_local_2: 
+1.2335054451200038 a3_x2
+0.81069767787098268 a3_x3
+1.1074753929427097 a3_x4
<= 159.772695275644

a3_local_3: 
+0.7014134656224521 a3_x6
+1.4256926178521174 a3_x4
+1.2238349236324286 a3_x1
<= 229.9304986389113

a3_local_4: 
+1.4006217636003984 a3_x4
+1.5761560028903203 a3_x2
+0.63445496395421641 a3_x1
<= 177.78916628304529

a3_local_5: 
+0.66190003401050879 a3_x3
+1.2945818856195495 a3_x5
+1.5108021583575311 a3_x2
<= 171.50535921488452

a3_local_6: 
+1.1078493380353669 a3_x1
+1.0036516475783528 a3_x6
+0.90264981497698571 a3_x2
<= 136.78727426890237

a3_local_7: 
+0.99801149312313953 a3_x1
+1.3314632932684045 a3_x4
+0.7510533749265097 a3_x6
<= 105.14541317716476

a3_local_8: 
+1.4485876210779114 a3_x4
+0.69032758905939562 a3_x3
+1.1109080029988045 a3_x5
<= 206.57513550200176

a3_act_1: 
+0.10000000000000001 a3_x1
-10 a3_z1
<= 0

a3_act_2: 
+0.099999999999999992 a3_x2
-10 a3_z2
<= 0

a4_local_1: 
+1.1453778440132709 a4_x3
+0.87307433544909196 a4_x5
+0.99980797331340987 a4_x2
<= 192.84852746785492

a4_local_2: 
+1.6735008881546869 a4_x3
+0.78555872959909845 a4_x2
+1.170591546650479 a4_x6
<= 124.70593049463292

a4_local_3: 
+0.73632386902872871 a4_x5
+1.1413321782322303 a4_x6
+1.3580980354732781 a4_x3
<= 189.50462695863698

a4_local_4: 
+0.98904665465250385 a4_x3
+0.93424173670005251 a4_x6
+1.0703867754102059 a4_x1
<= 203.48885401461624

a4_local_5: 
+1.5990408426952314 a4_x3
+1.6476029483083567 a4_x6
+0.60694234677519254 a4_x5
<= 199.14563821842034

a4_local_6: 
+0.84295729347153858 a4_x3
+0.87648915554291307 a4_x4
+1.1862997185559838 a4_x6
<= 170.33109614813623

a4_local_7: 
+0.91987683469109616 a4_x6
+0.82290019375446899 a4_x3
+1.2152141992305481 a4_x1
<= 200.1393735228699

a4_local_8: 
+0.66328798980764081 a4_x1
+1.5076407463521362 a4_x6
+1.1501790034602852 a4_x3
<= 175.86915981325939

a4_act_1: 
+0.099999999999999992 a4_x1
-10 a4_z1
<= 0

a4_act_2: 
+0.10000000000000001 a4_x2
-10.000000000000002 a4_z2
<= 0

coupling_1: 
+0.0074077750129019375 a1_x1
+0.022817106536749402 a2_x1
+0.1019520978381446 a3_x1
+0.9870701976968167 a4_x1
+0.082583655384481897 short_1
-0.082583655384481897 surp_1
= 56.480370318408845

coupling_2: 
+0.0086289830338168051 a1_x2
+0.019010081800449271 a2_x2
+0.091303497829670691 a3_x2
+0.99005621419952217 a4_x2
+0.071396235953866918 short_2
-0.071396235953866918 surp_2
= 26.39118959485765

coupling_3: 
+0.0061299294118747428 a1_x3
+0.047651936640160528 a2_x3
+0.1086009205185391 a3_x3
+0.98600151780783452 a4_x3
+0.079674276605358058 short_3
-0.079674276605358058 surp_3
= 69.052998114002321

bounds
  0 <= a1_x1 <= 100
  0 <= a1_x2 <= 100
  0 <= a1_x3 <= 100
  0 <= a1_x4 <= 100
  0 <= a1_x5 <= 100
  0 <= a1_x6 <= 100
  0 <= a2_x1 <= 100
  0 <= a2_x2 <= 100
  0 <= a2_x3 <= 100
  0 <= a2_x4 <= 100
  0 <= a2_x5 <= 100
  0 <= a2_x6 <= 100
  0 <= a3_x1 <= 100
  0 <= a3_x2 <= 100
  0 <= a3_x3 <= 100
  0 <= a3_x4 <= 100
  0 <= a3_x5 <= 100
  0 <= a3_x6 <= 100
  0 <= a4_x1 <= 100
  0 <= a4_x2 <= 100
  0 <= a4_x3 <= 100
  0 <= a4_x4 <= 100
  0 <= a4_x5 <= 100
  0 <= a4_x6 <= 100
  0 <= short_1 <= +inf
  0 <= surp_1 <= +inf
  0 <= short_2 <= +inf
  0 <= surp_2 <= +inf
  0 <= short_3 <= +inf
  0 <= surp_3 <= +inf
 0 <= a1_z1 <= 1
 0 <= a1_z2 <= 1
 0 <= a2_z1 <= 1
 0 <= a2_z2 <= 1
 0 <= a3_z1 <= 1
 0 <= a3_z2 <= 1
 0 <= a4_z1 <= 1
 0 <= a4_z2 <= 1

binary
  a1_z1
  a1_z2
  a2_z1
  a2_z2
  a3_z1
  a3_z2
  a4_z1
  a4_z2
end
