min
obj: 
  +1.5869078218103445 a1_x1
  +1.8591431952918778 a1_x2
  +3.3231109040519993 a1_x3
  +9.2087059181463786 a1_x4
  +9.6203246603591985 a1_x5
  +2.6522167369866532 a1_x6
  +45.971215901918207 a1_z1
  +15.231591264695247 a1_z2
  +7.3851642913844699 a2_x1
  +8.184615433312981 a2_x2
  +6.3286902635835114 a2_x3
  +1.720840343178456 a2_x4
  +2.5195780412124975 a2_x5
  +8.1969421632275719 a2_x6
  +32.909722818284479 a2_z1
  +29.006081337850453 a2_z2
  +9.6251817518945995 a3_x1
  +3.9009418953480735 a3_x2
  +1.3219510135661245 a3_x3
  +4.7485775019531236 a3_x4
  +3.5558983548633152 a3_x5
  +8.1243659823807501 a3_x6
  +20.822115549059351 a3_z1
  +25.222874624514855 a3_z2
  +3.9740281273618923 a4_x1
  +5.8725760658506196 a4_x2
  +8.5449306619724936 a4_x3
  +7.8945369096479574 a4_x4
  +2.7042977066829055 a4_x5
  +9.2622687133164359 a4_x6
  +13.310232891557296 a4_z1
  +27.542990425232677 a4_z2
  +1000000 short_1
  +1000000 surp_1
  +1000000 short_2
  +1000000 surp_2
  +1000000 short_3
  +1000000 surp_3

s.t.

a1_local_1: 
+0.53246830785528032 a1_x4
+0.69012198110526712 a1_x1
+0.4901113672677625 a1_x3
<= 75.931814365354413

a1_local_2: 
+0.69617846452001109 a1_x2
+0.47322524293868901 a1_x4
+0.53980868368726564 a1_x3
<= 115.09745279685556

a1_local_3: 
+0.39363520896456566 a1_x6
+0.78920363589640463 a1_x4
+0.47139043621112853 a1_x1
<= 71.439889216297018

a1_local_4: 
+0.63759636823170907 a1_x6
+0.5666554469122379 a1_x2
+0.52189316502750516 a1_x1
<= 67.621854702021153

a1_local_5: 
+0.40846880477800951 a1_x1
+0.59511297047828349 a1_x2
+0.69209377102509617 a1_x5
<= 88.502184901274106

a1_local_6: 
+0.42686743713977271 a1_x1
+0.67541372727482651 a1_x2
+0.60133226099923187 a1_x6
<= 61.782549730103099

a1_local_7: 
+0.33550665993360723 a1_x5
+0.71373623814206677 a1_x2
+0.61482994681700887 a1_x4
<= 110.23329386021828

a1_local_8: 
+0.63697201480423715 a1_x1
+0.44880667154185588 a1_x2
+0.62676887601072784 a1_x3
<= 107.30496701647058

a1_act_1: 
+0.0099995000374968751 a1_x1
-0.99995000374968745 a1_z1
<= 0

a1_act_2: 
+0.0099995000374968734 a1_x2
-0.99995000374968745 a1_z2
<= 0

a2_local_1: 
+0.31939001902648456 a2_x1
+0.8129004431689747 a2_x5
+0.48701425568657275 a2_x3
<= 86.681348237909589

a2_local_2: 
+0.31152223204326318 a2_x4
+0.73618456743677296 a2_x2
+0.60082125595780544 a2_x5
<= 75.440842778789474

a2_local_3: 
+0.63861542181410968 a2_x2
+0.56816630194893936 a2_x1
+0.51899652826474008 a2_x5
<= 57.358889792003367

a2_local_4: 
+0.63488124547400782 a2_x6
+0.4330955239608868 a2_x2
+0.63980783933179319 a2_x4
<= 79.787787456841102

a2_local_5: 
+0.38430315262398562 a2_x1
+0.69611865206745316 a2_x6
+0.60640737885274598 a2_x2
<= 79.963330176758049

a2_local_6: 
+0.57487758146634427 a2_x4
+0.60226727613655762 a2_x6
+0.55388617460851852 a2_x5
<= 90.770539510562045

a2_local_7: 
+0.55289946965362835 a2_x4
+0.38156738676092145 a2_x6
+0.74074861175514717 a2_x3
<= 103.06019168697215

a2_local_8: 
+0.67337856361790538 a2_x5
+0.58705384102281077 a2_x1
+0.44936521650017713 a2_x4
<= 111.38710584505171

a2_act_1: 
+0.0099995000374968751 a2_x1
-0.99995000374968745 a2_z1
<= 0

a2_act_2: 
+0.0099995000374968751 a2_x2
-0.99995000374968757 a2_z2
<= 0

a3_local_1: 
+0.61901247814665183 a3_x3
+0.71777423678678243 a3_x5
+0.31878471874274789 a3_x4
<= 57.360397372925959

a3_local_2: 
+0.5976449516254726 a3_x3
+0.6644609502547828 a3_x5
+0.44867823368545251 a3_x2
<= 87.120231492733438

a3_local_3: 
+0.46365429726410096 a3_x5
+0.59152824592302933 a3_x6
+0.65963552580478624 a3_x2
<= 86.025905751169987

a3_local_4: 
+0.71747981080351408 a3_x4
+0.627654598160032 a3_x3
+0.30211326766284546 a3_x1
<= 71.929204771733993

a3_local_5: 
+0.71826790167457422 a3_x1
+0.61124667272427957 a3_x4
+0.33236835966665346 a3_x5
<= 95.346587516316603

a3_local_6: 
+0.39874655304907541 a3_x5
+0.72397073837245551 a3_x4
+0.56290990079401038 a3_x6
<= 68.173856952020856

a3_local_7: 
+0.64657871153568114 a3_x5
+0.49624509506998427 a3_x4
+0.57937619506486504 a3_x2
<= 104.55524219681381

a3_local_8: 
+0.74893859942649499 a3_x6
+0.34223122238462644 a3_x2
+0.56742291521774491 a3_x3
<= 90.497382928690811

a3_act_1: 
+0.0099995000374968751 a3_x1
-0.99995000374968745 a3_z1
<= 0

a3_act_2: 
+0.0099995000374968734 a3_x2
-0.99995000374968734 a3_z2
<= 0

a4_local_1: 
+0.53231102975291911 a4_x3
+0.44628892202161397 a4_x2
+0.71935468698283511 a4_x4
<= 100.50105393825342

a4_local_2: 
+0.64808858862810514 a4_x5
+0.3280427308519947 a4_x4
+0.68729116684648017 a4_x1
<= 66.743244988416052

a4_local_3: 
+0.48683511536909579 a4_x3
+0.58943244357704683 a4_x2
+0.64464018250676136 a4_x6
<= 98.66089488993201

a4_local_4: 
+0.51997354613037339 a4_x1
+0.61544933228311516 a4_x6
+0.59232561207233991 a4_x5
<= 79.817992873673788

a4_local_5: 
+0.56662000448558136 a4_x1
+0.62763989475477266 a4_x2
+0.53386321565451356 a4_x6
<= 67.980090691553883

a4_local_6: 
+0.28357326232914631 a4_x6
+0.83305908349641034 a4_x3
+0.47497238687751731 a4_x5
<= 65.273324420121483

a4_local_7: 
+0.4861128288709673 a4_x1
+0.51038557666546003 a4_x4
+0.70936653483155754 a4_x5
<= 54.928813102811418

a4_local_8: 
+0.52642041201404344 a4_x5
+0.46379354365254521 a4_x1
+0.71258480104558752 a4_x6
<= 97.158698272168849

a4_act_1: 
+0.0099995000374968751 a4_x1
-0.99995000374968757 a4_z1
<= 0

a4_act_2: 
+0.0099995000374968751 a4_x2
-0.99995000374968745 a4_z2
<= 0

coupling_1: 
+0.01029898991321334 a1_x1
+0.032368948340112523 a2_x1
+0.10825648259669426 a3_x1
+0.98858493591554719 a4_x1
+0.070094723220681346 short_1
-0.070094723220681346 surp_1
= 67.730214184076331

coupling_2: 
+0.012251900097095484 a1_x2
+0.02769692140399976 a2_x2
+0.32000759548621033 a3_x2
+0.93444765661718898 a4_x2
+0.10836394087179053 short_2
-0.10836394087179053 surp_2
= 100.61427564454894

coupling_3: 
+0.0073245544154903882 a1_x3
+0.030153217725247247 a2_x3
+0.28641203701550827 a3_x3
+0.9446155951503572 a4_x3
+0.11114552805846925 short_3
-0.11114552805846925 surp_3
= 64.668294870653568

bounds
  0 <= a1_x1 <= 100
  0 <= a1_x2 <= 100
  0 <= a1_x3 <= 100
  0 <= a1_x4 <= 100
  0 <= a1_x5 <= 100
  0 <= a1_x6 <= 100
  0 <= a2_x1 <= 100
  0 <= a2_x2 <= 100
  0 <= a2_x3 <= 100
  0 <= a2_x4 <= 100
  0 <= a2_x5 <= 100
  0 <= a2_x6 <= 100
  0 <= a3_x1 <= 100
  0 <= a3_x2 <= 100
  0 <= a3_x3 <= 100
  0 <= a3_x4 <= 100
  0 <= a3_x5 <= 100
  0 <= a3_x6 <= 100
  0 <= a4_x1 <= 100
  0 <= a4_x2 <= 100
  0 <= a4_x3 <= 100
  0 <= a4_x4 <= 100
  0 <= a4_x5 <= 100
  0 <= a4_x6 <= 100
  0 <= short_1 <= +inf
  0 <= surp_1 <= +inf
  0 <= short_2 <= +inf
  0 <= surp_2 <= +inf
  0 <= short_3 <= +inf
  0 <= surp_3 <= +inf
 0 <= a1_z1 <= 1
 0 <= a1_z2 <= 1
 0 <= a2_z1 <= 1
 0 <= a2_z2 <= 1
 0 <= a3_z1 <= 1
 0 <= a3_z2 <= 1
 0 <= a4_z1 <= 1
 0 <= a4_z2 <= 1

binary
  a1_z1
  a1_z2
  a2_z1
  a2_z2
  a3_z1
  a3_z2
  a4_z1
  a4_z2
end
