min
obj: 
  +2.8670230128866887 a1_x1
  +4.6121734767481746 a1_x2
  +8.3726653944305163 a1_x3
  +3.8874111784256438 a1_x4
  +3.5735214707131471 a1_x5
  +7.9063268225890937 a1_x6
  +32.521673256282952 a1_z1
  +46.9551209495583 a1_z2
  +1.341622492975389 a2_x1
  +5.0417707846324316 a2_x2
  +1.1098914253226899 a2_x3
  +7.5349912767704339 a2_x4
  +4.7451420176434915 a2_x5
  +4.9227196469025021 a2_x6
  +7.3717597202086891 a2_z1
  +32.23919956008293 a2_z2
  +7.1988333719011539 a3_x1
  +9.6965932883206509 a3_x2
  +2.6814504435085222 a3_x3
  +4.7418198986047297 a3_x4
  +5.4039251046059666 a3_x5
  +9.8502537099383343 a3_x6
  +17.992052798317559 a3_z1
  +28.73085531973274 a3_z2
  +5.3817190254650331 a4_x1
  +3.7297540390479749 a4_x2
  +6.6577904747627379 a4_x3
  +5.4304281417402382 a4_x4
  +9.7175944926778737 a4_x5
  +8.0479454867151716 a4_x6
  +7.8471654550187315 a4_z1
  +24.374477793367895 a4_z2
  +1000000 short_1
  +1000000 surp_1
  +1000000 short_2
  +1000000 surp_2
  +1000000 short_3
  +1000000 surp_3

s.t.

a1_local_1: 
+0.75472573801036935 a1_x3
+1.3249846263839231 a1_x1
+1.1772694049299153 a1_x2
<= 195.87654231011962

a1_local_2: 
+1.2031196616718665 a1_x4
+0.9036189190278342 a1_x6
+0.83117251912448209 a1_x2
<= 110.08493802765284

a1_local_3: 
+1.4577882851730786 a1_x3
+0.68597066540514362 a1_x4
+0.73088131078761565 a1_x1
<= 187.59801785197294

a1_local_4: 
+0.66872221773875962 a1_x3
+0.60839304254108095 a1_x6
+1.6436742863187432 a1_x1
<= 160.0441086950772

a1_local_5: 
+0.83167637709024833 a1_x5
+1.2023907706729129 a1_x1
+1.1292276898595288 a1_x3
<= 161.33248219939514

a1_local_6: 
+1.1562019475051257 a1_x6
+0.93250323884611419 a1_x3
+0.86490080920363333 a1_x1
<= 134.95456953701813

a1_local_7: 
+0.85552678483154165 a1_x4
+1.1688704757465962 a1_x3
+1.0681992372289688 a1_x6
<= 107.08219069546787

a1_local_8: 
+0.73519710577199604 a1_x6
+0.90736141033577089 a1_x3
+0.71205411002393382 a1_x2
<= 86.556567666013549

a1_act_1: 
+0.063506231441481889 a1_x1
-6.3506231441481891 a1_z1
<= 0

a1_act_2: 
+0.10000000000000001 a1_x2
-10 a1_z2
<= 0

a2_local_1: 
+0.80143586396699207 a2_x3
+1.2477604821053854 a2_x1
+1.035798582800223 a2_x4
<= 139.46428594288733

a2_local_2: 
+1.2640844113347434 a2_x3
+0.79108641087038056 a2_x4
+0.9166841882701553 a2_x1
<= 193.36213054034607

a2_local_3: 
+0.73450215460200552 a2_x2
+1.0235462810180604 a2_x5
+1.3614663942570133 a2_x6
<= 190.73097966050111

a2_local_4: 
+1.2050575548294171 a2_x3
+1.0610629976529382 a2_x4
+0.82983588293552968 a2_x2
<= 186.30781485113619

a2_local_5: 
+0.72994684638846874 a2_x3
+1.1176634644129733 a2_x5
+1.3699627650255131 a2_x6
<= 201.32238012683081

a2_local_6: 
+0.6553246735198236 a2_x2
+1.5259611615550592 a2_x5
+0.81324738353424664 a2_x1
<= 201.1139263401129

a2_local_7: 
+0.79411719683566373 a2_x6
+1.2592599731937828 a2_x2
+0.85221890163606628 a2_x5
<= 141.52401830525278

a2_local_8: 
+0.89561606987628661 a2_x2
+1.201402183111101 a2_x4
+0.83236073153325041 a2_x6
<= 191.79833654773429

a2_act_1: 
+0.10000000000000001 a2_x1
-10 a2_z1
<= 0

a2_act_2: 
+0.10000000000000001 a2_x2
-10.000000000000002 a2_z2
<= 0

a3_local_1: 
+0.85396775625603782 a3_x6
+1.1710043999602473 a3_x2
+0.85954162289799774 a3_x1
<= 147.74637758957081

a3_local_2: 
+1.2072508971605416 a3_x3
+0.82832823098496233 a3_x1
+0.96282836761533963 a3_x4
<= 172.85837826659773

a3_local_3: 
+1.0224101848897671 a3_x4
+0.82643913357730192 a3_x1
+1.2100104646199741 a3_x6
<= 178.26601003975495

a3_local_4: 
+1.1841687612627605 a3_x1
+1.1921296992425838 a3_x3
+0.83883490247357062 a3_x5
<= 117.93568821226445

a3_local_5: 
+0.59863986406980196 a3_x5
+1.2708544999280316 a3_x4
+1.6704534061624048 a3_x6
<= 152.73533086485193

a3_local_6: 
+0.76733689581740516 a3_x2
+1.2682382204090374 a3_x3
+1.303208545621608 a3_x6
<= 178.51091042586626

a3_local_7: 
+1.2006406859948022 a3_x4
+0.69594678063841831 a3_x1
+1.4368914805276667 a3_x2
<= 179.02285078260149

a3_local_8: 
+1.4574321732654951 a3_x2
+0.68613827685676709 a3_x1
+1.0737263195337503 a3_x5
<= 105.29182547463812

a3_act_1: 
+0.10000000000000001 a3_x1
-10 a3_z1
<= 0

a3_act_2: 
+0.099999999999999992 a3_x2
-10 a3_z2
<= 0

a4_local_1: 
+0.74796130182463105 a4_x1
+1.3369675644455505 a4_x4
+1.0040065975893779 a4_x3
<= 123.78675764172858

a4_local_2: 
+1.1768083834065992 a4_x1
+0.8497560130437054 a4_x6
+0.87646179667627644 a4_x3
<= 136.19792688034914

a4_local_3: 
+1.0771910329680101 a4_x2
+0.67935411715235661 a4_x5
+1.4719863687463794 a4_x1
<= 183.99945455645158

a4_local_4: 
+0.81124402459131406 a4_x5
+0.83831920664339399 a4_x4
+1.2326747189340186 a4_x3
<= 124.58661322045069

a4_local_5: 
+0.69082944963965476 a4_x1
+1.2521136485244229 a4_x4
+1.4475352788182561 a4_x2
<= 137.28956165673949

a4_local_6: 
+1.1374157169987702 a4_x4
+1.3509815986545359 a4_x2
+0.74020253199297148 a4_x6
<= 164.53361483426207

a4_local_7: 
+0.88127640658120232 a4_x2
+0.94058996728456101 a4_x1
+1.1347177713282608 a4_x3
<= 142.33234680476338

a4_local_8: 
+1.1863461384952074 a4_x1
+0.74023993197972604 a4_x2
+1.3509133414696524 a4_x5
<= 213.58129372300104

a4_act_1: 
+0.12433034612835597 a4_x1
-12.433034612835597 a4_z1
<= 0

a4_act_2: 
+0.099999999999999992 a4_x2
-10 a4_z2
<= 0

coupling_1: 
+0.011730619363828588 a1_x1
+0.04531930374918923 a2_x1
+0.20662342290308405 a3_x1
+0.97081019756959175 a4_x1
+0.079507467195645429 short_1
-0.079507467195645429 surp_1
= 30.902998528696539

coupling_2: 
+0.0082562465075068439 a1_x2
+0.045583619776701639 a2_x2
+0.29820729703621429 a3_x2
+0.93734959586164657 a4_x2
+0.12308962412409767 short_2
-0.12308962412409767 surp_2
= 29.257890488154629

coupling_3: 
+0.020774749444271979 a1_x3
+0.093477539547277111 a2_x3
+0.32559051973447717 a3_x3
+0.91915774247333792 a4_x3
+0.14136869755371023 short_3
-0.14136869755371023 surp_3
= 27.981390629563851

bounds
  0 <= a1_x1 <= 100
  0 <= a1_x2 <= 100
  0 <= a1_x3 <= 100
  0 <= a1_x4 <= 100
  0 <= a1_x5 <= 100
  0 <= a1_x6 <= 100
  0 <= a2_x1 <= 100
  0 <= a2_x2 <= 100
  0 <= a2_x3 <= 100
  0 <= a2_x4 <= 100
  0 <= a2_x5 <= 100
  0 <= a2_x6 <= 100
  0 <= a3_x1 <= 100
  0 <= a3_x2 <= 100
  0 <= a3_x3 <= 100
  0 <= a3_x4 <= 100
  0 <= a3_x5 <= 100
  0 <= a3_x6 <= 100
  0 <= a4_x1 <= 100
  0 <= a4_x2 <= 100
  0 <= a4_x3 <= 100
  0 <= a4_x4 <= 100
  0 <= a4_x5 <= 100
  0 <= a4_x6 <= 100
  0 <= short_1 <= +inf
  0 <= surp_1 <= +inf
  0 <= short_2 <= +inf
  0 <= surp_2 <= +inf
  0 <= short_3 <= +inf
  0 <= surp_3 <= +inf
 0 <= a1_z1 <= 1
 0 <= a1_z2 <= 1
 0 <= a2_z1 <= 1
 0 <= a2_z2 <= 1
 0 <= a3_z1 <= 1
 0 <= a3_z2 <= 1
 0 <= a4_z1 <= 1
 0 <= a4_z2 <= 1

binary
  a1_z1
  a1_z2
  a2_z1
  a2_z2
  a3_z1
  a3_z2
  a4_z1
  a4_z2
end
