min
obj: 
  +2.370294118728955 a1_x1
  +4.0871141162290519 a1_x2
  +7.6613663727576089 a1_x3
  +4.8999168943267346 a1_x4
  +9.1856075433138287 a1_x5
  +7.8055232956727103 a1_x6
  +17.430873114549655 a1_z1
  +23.402378726140935 a1_z2
  +7.7696749959897602 a2_x1
  +1.8033642153830525 a2_x2
  +9.5715816001394138 a2_x3
  +5.6582749389411147 a2_x4
  +2.4417372334426313 a2_x5
  +7.2729933705310286 a2_x6
  +31.321727314252385 a2_z1
  +17.358761230317288 a2_z2
  +2.3493759750782877 a3_x1
  +3.4440486133066264 a3_x2
  +8.9723629811002734 a3_x3
  +1.1828241076108115 a3_x4
  +8.9432908674835829 a3_x5
  +1.7190508218957756 a3_x6
  +16.001764697499688 a3_z1
  +34.61198408971174 a3_z2
  +6.5610669509273256 a4_x1
  +3.9905359855651432 a4_x2
  +4.1004087373899605 a4_x3
  +4.8874480478433391 a4_x4
  +2.9132673248674479 a4_x5
  +5.3684179760125765 a4_x6
  +43.700484803270278 a4_z1
  +7.0959851654145574 a4_z2
  +1000000 short_1
  +1000000 surp_1
  +1000000 short_2
  +1000000 surp_2
  +1000000 short_3
  +1000000 surp_3

s.t.

a1_local_1: 
+81719.665709722161 a1_x3
+58729.532006137837 a1_x2
+32649.074821318696 a1_x1
<= 12107967.8043402

a1_local_2: 
+1.8854866904989009e-06 a1_x6
+1.1211956818720179e-06 a1_x3
+1.1029599072880384e-06 a1_x2
<= 0.00012727962100670865

a1_local_3: 
+4530.4498778464203 a1_x4
+5240.4663401621237 a1_x3
+3796.1146331545128 a1_x6
<= 417575.46032494167

a1_local_4: 
+64.081882809391288 a1_x5
+121.01371064436702 a1_x3
+58.246970166336482 a1_x6
<= 13123.13501764337

a1_local_5: 
+55.119769666649034 a1_x3
+41.735044904293247 a1_x5
+22.101848813369859 a1_x4
<= 7210.6980177197738

a1_local_6: 
+0.22131589466802068 a1_x3
+0.15969369605217815 a1_x1
+0.12138887571167219 a1_x6
<= 25.011114358504489

a1_local_7: 
+0.97241999419420888 a1_x6
+1.141196002858692 a1_x1
+1.0972173235099896 a1_x4
<= 147.78022170260431

a1_local_8: 
+3.4141239162707677 a1_x3
+5.2004595972523413 a1_x2
+5.5714799710601515 a1_x4
<= 517.52087909826059

a1_act_1: 
+116.9075444956442 a1_x1
-11690.75444956442 a1_z1
<= 0

a1_act_2: 
+29065.756769153348 a1_x2
-2906575.6769153345 a1_z2
<= 0

a2_local_1: 
+12.202156915875902 a2_x3
+14.269595623088067 a2_x2
+7.0979518390289638 a2_x1
<= 2126.1304725780237

a2_local_2: 
+5.3730491882391567 a2_x6
+12.704903673714771 a2_x2
+14.039598030834414 a2_x1
<= 2051.4752261922713

a2_local_3: 
+0.014343625639640398 a2_x2
+0.023726521806042004 a2_x3
+0.0133474459315816 a2_x1
<= 2.8691412753232393

a2_local_4: 
+0.30416511406582325 a2_x1
+0.29164825978072995 a2_x4
+0.34658015588373881 a2_x5
<= 53.446403467501057

a2_local_5: 
+1.5886638631992593 a2_x1
+2.3905472380097947 a2_x6
+2.1411587674052246 a2_x3
<= 189.40829093304779

a2_local_6: 
+871.50997517948304 a2_x1
+710.41589227865268 a2_x6
+1541.7350950153364 a2_x2
<= 152311.39292209456

a2_local_7: 
+1.6994552763591281e-05 a2_x3
+1.5285935810526845e-05 a2_x2
+2.0199533739188474e-05 a2_x4
<= 0.0021582096742615402

a2_local_8: 
+0.8667268035190101 a2_x4
+0.44642503367872044 a2_x3
+0.76532576550030196 a2_x1
<= 125.64302953598738

a2_act_1: 
+0.0065671735624934805 a2_x1
-0.65671735624934802 a2_z1
<= 0

a2_act_2: 
+33445.525082691755 a2_x2
-3344552.5082691754 a2_z2
<= 0

a3_local_1: 
+211.71974330520689 a3_x5
+142.26862457015713 a3_x4
+374.42283443970751 a3_x2
<= 32695.85349794885

a3_local_2: 
+981947.47942810471 a3_x4
+710146.55649286753 a3_x5
+1005300.1599990274 a3_x3
<= 135777204.02545324

a3_local_3: 
+0.00099325722766042631 a3_x4
+0.00052586370888831481 a3_x3
+0.0011462578192840021 a3_x6
<= 0.11298283410400291

a3_local_4: 
+7193.9087556255681 a3_x4
+7579.8160241028836 a3_x5
+9243.985766120948 a3_x2
<= 1322202.2556471324

a3_local_5: 
+1.2426856460962924e-05 a3_x4
+4.8791651623252516e-06 a3_x6
+1.0668719640394069e-05 a3_x5
<= 0.0011512299317319233

a3_local_6: 
+2.768390932526176 a3_x1
+2.6530132502894985 a3_x5
+2.9898624958461038 a3_x3
<= 278.64853556896674

a3_local_7: 
+0.0040556807429839026 a3_x6
+0.0031764477796285295 a3_x4
+0.0055487336706200596 a3_x1
<= 0.48184359967732887

a3_local_8: 
+5.5922986368771799 a3_x4
+2.7326342476393077 a3_x2
+5.2507327122549849 a3_x1
<= 858.64889739867601

a3_act_1: 
+3801.4132066783945 a3_x1
-380141.32066783943 a3_z1
<= 0

a3_act_2: 
+0.0078713682942155375 a3_x2
-0.78713682942155372 a3_z2
<= 0

a4_local_1: 
+506.14696541797292 a4_x5
+635.45917870133883 a4_x2
+477.91806036941671 a4_x1
<= 108354.79875628873

a4_local_2: 
+0.00027289766278999441 a4_x4
+0.0001496605567194819 a4_x2
+0.00031157632556538513 a4_x6
<= 0.045828141092596489

a4_local_3: 
+136.14801690959754 a4_x1
+97.206931134382273 a4_x3
+102.78948800641768 a4_x6
<= 16651.957913425544

a4_local_4: 
+900.98421365239778 a4_x3
+1187.817430744361 a4_x4
+970.48496881643621 a4_x1
<= 184675.92437426074

a4_local_5: 
+0.056772055481155236 a4_x6
+0.058650938541563648 a4_x3
+0.03103203481423333 a4_x4
<= 7.0056057582874898

a4_local_6: 
+0.554104771737709 a4_x5
+1.1867990259121814 a4_x4
+0.5895975120505893 a4_x2
<= 130.50528150067893

a4_local_7: 
+657250.31006929802 a4_x6
+476670.58655341109 a4_x2
+511788.11271850293 a4_x4
<= 111380884.8098062

a4_local_8: 
+17.354039490090052 a4_x6
+28.539234448983155 a4_x2
+28.025491752191812 a4_x1
<= 2671.3182223018289

a4_act_1: 
+2.2642359365464826e-05 a4_x1
-0.0022642359365464826 a4_z1
<= 0

a4_act_2: 
+392426.06953591196 a4_x2
-39242606.953591198 a4_z2
<= 0

coupling_1: 
+4.5904925519467156e-05 a1_x1
+0.00034582302570624593 a2_x1
+0.0014026362385385451 a3_x1
+0.0072480920230570704 a4_x1
+0.0005379965990882083 short_1
-0.0005379965990882083 surp_1
= 0.1893023224561442

coupling_2: 
+1.037107208436 a1_x2
+7.0106932677668796 a2_x2
+27.909666444976761 a3_x2
+139.87920292769465 a4_x2
+10.805334372250375 short_2
-10.805334372250375 surp_2
= 13809.71108494803

coupling_3: 
+7.8641610162945371e-06 a1_x3
+3.9178977827980048e-05 a2_x3
+0.00036677988441755527 a3_x3
+0.001537479069712669 a4_x3
+0.00012983188798457976 short_3
-0.00012983188798457976 surp_3
= 0.10847434225435994

bounds
  0 <= a1_x1 <= 100
  0 <= a1_x2 <= 100
  0 <= a1_x3 <= 100
  0 <= a1_x4 <= 100
  0 <= a1_x5 <= 100
  0 <= a1_x6 <= 100
  0 <= a2_x1 <= 100
  0 <= a2_x2 <= 100
  0 <= a2_x3 <= 100
  0 <= a2_x4 <= 100
  0 <= a2_x5 <= 100
  0 <= a2_x6 <= 100
  0 <= a3_x1 <= 100
  0 <= a3_x2 <= 100
  0 <= a3_x3 <= 100
  0 <= a3_x4 <= 100
  0 <= a3_x5 <= 100
  0 <= a3_x6 <= 100
  0 <= a4_x1 <= 100
  0 <= a4_x2 <= 100
  0 <= a4_x3 <= 100
  0 <= a4_x4 <= 100
  0 <= a4_x5 <= 100
  0 <= a4_x6 <= 100
  0 <= short_1 <= +inf
  0 <= surp_1 <= +inf
  0 <= short_2 <= +inf
  0 <= surp_2 <= +inf
  0 <= short_3 <= +inf
  0 <= surp_3 <= +inf
 0 <= a1_z1 <= 1
 0 <= a1_z2 <= 1
 0 <= a2_z1 <= 1
 0 <= a2_z2 <= 1
 0 <= a3_z1 <= 1
 0 <= a3_z2 <= 1
 0 <= a4_z1 <= 1
 0 <= a4_z2 <= 1

binary
  a1_z1
  a1_z2
  a2_z1
  a2_z2
  a3_z1
  a3_z2
  a4_z1
  a4_z2
end
