min
obj: 
  +3.043052453503527 a1_x1
  +8.5242104678500681 a1_x2
  +7.6930756521091874 a1_x3
  +6.9189962156082423 a1_x4
  +9.2097073421305335 a1_x5
  +1.6783613276554563 a1_x6
  +29.957301038510835 a1_z1
  +31.080729858907144 a1_z2
  +3.9982275243752419 a2_x1
  +4.0716566341487717 a2_x2
  +8.3479540678562252 a2_x3
  +4.8717105490747867 a2_x4
  +6.0061452108085005 a2_x5
  +2.7882654202354971 a2_x6
  +21.648290212377919 a2_z1
  +42.54057128991149 a2_z2
  +2.9928805955584821 a3_x1
  +5.5354110864277946 a3_x2
  +5.213896919227734 a3_x3
  +2.0650047465660801 a3_x4
  +6.4105355661416237 a3_x5
  +2.6598622040549174 a3_x6
  +31.217971703687525 a3_z1
  +44.913093336265895 a3_z2
  +1.3478391985630118 a4_x1
  +6.3176473690479504 a4_x2
  +9.9894359630934186 a4_x3
  +5.7054129264347031 a4_x4
  +4.4415295718065089 a4_x5
  +5.0613340194576661 a4_x6
  +15.238383211322466 a4_z1
  +39.666499040349478 a4_z2
  +1000000 short_1
  +1000000 surp_1
  +1000000 short_2
  +1000000 surp_2
  +1000000 short_3
  +1000000 surp_3

s.t.

a1_local_1: 
+0.61083524062177041 a1_x4
+0.75992141376050693 a1_x3
+1.6371026645124436 a1_x1
<= 186.84874811651446

a1_local_2: 
+1.2816727312149629 a1_x5
+0.7802303783525526 a1_x2
+0.96459965814708049 a1_x1
<= 118.14080501464849

a1_local_3: 
+0.83814828794477136 a1_x1
+1.1866722829728058 a1_x5
+1.1931062968011381 a1_x4
<= 184.90245738792166

a1_local_4: 
+1.1540634290172078 a1_x4
+0.8665034995967188 a1_x1
+0.92912216983077689 a1_x2
<= 124.03080180922765

a1_local_5: 
+0.76839671045887636 a1_x4
+1.570583058250526 a1_x6
+0.63670621858986609 a1_x3
<= 203.99958733883088

a1_local_6: 
+0.77981160522968485 a1_x5
+1.3320970965516732 a1_x1
+0.75069602853173778 a1_x6
<= 154.87677919563512

a1_local_7: 
+1.2050567091264353 a1_x1
+1.2628206743131363 a1_x2
+0.84501530855955176 a1_x4
<= 188.74266074735039

a1_local_8: 
+1.5175426503233507 a1_x3
+1.611638658767014 a1_x6
+0.62048648098640879 a1_x5
<= 192.24584051903966

a1_act_1: 
+0.099999999999999992 a1_x1
-9.9999999999999982 a1_z1
<= 0

a1_act_2: 
+0.10000000000000001 a1_x2
-10 a1_z2
<= 0

a2_local_1: 
+0.83121414050046549 a2_x5
+1.0130779955759122 a2_x3
+1.2030594178750496 a2_x6
<= 200.08494408220861

a2_local_2: 
+0.80080234873124045 a2_x4
+1.2487475861982178 a2_x3
+0.85059161206027145 a2_x6
<= 141.84245488227072

a2_local_3: 
+1.12753261154026 a2_x3
+0.84431617156280259 a2_x1
+1.1843904377065664 a2_x2
<= 209.15707882093918

a2_local_4: 
+1.1738365543853597 a2_x4
+0.9097836475242862 a2_x5
+0.85190735989953625 a2_x1
<= 91.922379094820187

a2_local_5: 
+1.2218594129167173 a2_x1
+1.3712936057216347 a2_x6
+0.72923843284003087 a2_x2
<= 200.80296991925582

a2_local_6: 
+1.0657790371032196 a2_x1
+0.84355059122910925 a2_x5
+1.1854653537056188 a2_x3
<= 169.19342062257229

a2_local_7: 
+0.74943303332591926 a2_x3
+1.405916983087125 a2_x6
+0.71127955066322002 a2_x1
<= 132.19884138635334

a2_local_8: 
+0.72695623445771262 a2_x4
+1.2748383830115055 a2_x1
+1.3755986297386524 a2_x6
<= 121.4041349181947

a2_act_1: 
+0.10000000000000001 a2_x1
-10 a2_z1
<= 0

a2_act_2: 
+0.099999999999999992 a2_x2
-10 a2_z2
<= 0

a3_local_1: 
+1.6069357663193367 a3_x4
+0.62230240994043318 a3_x2
+1.1489362166329999 a3_x5
<= 180.71658361201324

a3_local_2: 
+1.0413565192452912 a3_x1
+0.96028591699290078 a3_x6
+1.0014092714346958 a3_x3
<= 96.326670460255571

a3_local_3: 
+1.1439014425380363 a3_x2
+0.97424530062977976 a3_x6
+0.8742011879810605 a3_x5
<= 209.12867977639803

a3_local_4: 
+0.83646468463381496 a3_x1
+1.1955077343615257 a3_x5
+1.1212881366714091 a3_x4
<= 100.43263112113523

a3_local_5: 
+1.3318714440171866 a3_x4
+0.75082321532760166 a3_x2
+1.1525023835381898 a3_x6
<= 131.0791788202113

a3_local_6: 
+0.91886614957596924 a3_x5
+0.79450627542706131 a3_x2
+1.258643299528984 a3_x1
<= 148.23468286587337

a3_local_7: 
+1.4269328797408114 a3_x2
+1.3457235300016741 a3_x4
+0.70080381088537291 a3_x5
<= 222.96661119032041

a3_local_8: 
+0.76680311613969054 a3_x3
+0.83279697544284448 a3_x5
+1.3041157227350484 a3_x6
<= 143.65188159243459

a3_act_1: 
+0.10000000000000001 a3_x1
-10 a3_z1
<= 0

a3_act_2: 
+0.099999999999999992 a3_x2
-9.9999999999999982 a3_z2
<= 0

a4_local_1: 
+0.7977388225289137 a4_x6
+1.2535431042830507 a4_x2
+0.97361602930101754 a4_x1
<= 93.364521298471431

a4_local_2: 
+0.97552193232156181 a4_x1
+1.1677949602310087 a4_x6
+0.85631470767966322 a4_x5
<= 99.126498019476841

a4_local_3: 
+1.1088163646805389 a4_x6
+0.89504944078909077 a4_x3
+1.1172567172584156 a4_x2
<= 134.03701841242651

a4_local_4: 
+0.83066174780787494 a4_x4
+1.2038594561974356 a4_x6
+1.113700734711857 a4_x2
<= 122.18659249368858

a4_local_5: 
+1.5178039652775257 a4_x5
+0.65884661186608051 a4_x6
+0.95218348458280577 a4_x1
<= 114.3895966098177

a4_local_6: 
+1.2160102572228435 a4_x5
+1.0453147602173305 a4_x1
+0.82236148425575506 a4_x2
<= 200.88225268007602

a4_local_7: 
+1.3640820842263421 a4_x4
+1.1361642867030537 a4_x2
+0.73309371302766124 a4_x5
<= 154.88574268506829

a4_local_8: 
+1.4019604847134939 a4_x3
+0.71328686571673339 a4_x1
+1.1807311926564823 a4_x2
<= 210.71218896068646

a4_act_1: 
+0.10000000000000001 a4_x1
-10 a4_z1
<= 0

a4_act_2: 
+0.10000000000000001 a4_x2
-10.000000000000002 a4_z2
<= 0

coupling_1: 
+0.11505013692502514 a1_x1
+0.73675542751680489 a2_x1
+2.0907807764149591 a3_x1
+8.6918627541631768 a4_x1
+1.1731459614773858 short_1
-1.1731459614773858 surp_1
= 665.0416545625385

coupling_2: 
+0.089377382212074682 a1_x2
+0.50808829631077657 a2_x2
+1.1215135331394805 a3_x2
+11.188512968831416 a4_x2
+0.83509991663726713 short_2
-0.83509991663726713 surp_2
= 922.52188617101228

coupling_3: 
+0.1018483834699435 a1_x3
+0.26642798311039123 a2_x3
+2.334214500022858 a3_x3
+9.8185161701178156 a4_x3
+0.83837297402899058 short_3
-0.83837297402899058 surp_3
= 307.74846830193167

bounds
  0 <= a1_x1 <= 100
  0 <= a1_x2 <= 100
  0 <= a1_x3 <= 100
  0 <= a1_x4 <= 100
  0 <= a1_x5 <= 100
  0 <= a1_x6 <= 100
  0 <= a2_x1 <= 100
  0 <= a2_x2 <= 100
  0 <= a2_x3 <= 100
  0 <= a2_x4 <= 100
  0 <= a2_x5 <= 100
  0 <= a2_x6 <= 100
  0 <= a3_x1 <= 100
  0 <= a3_x2 <= 100
  0 <= a3_x3 <= 100
  0 <= a3_x4 <= 100
  0 <= a3_x5 <= 100
  0 <= a3_x6 <= 100
  0 <= a4_x1 <= 100
  0 <= a4_x2 <= 100
  0 <= a4_x3 <= 100
  0 <= a4_x4 <= 100
  0 <= a4_x5 <= 100
  0 <= a4_x6 <= 100
  0 <= short_1 <= +inf
  0 <= surp_1 <= +inf
  0 <= short_2 <= +inf
  0 <= surp_2 <= +inf
  0 <= short_3 <= +inf
  0 <= surp_3 <= +inf
 0 <= a1_z1 <= 1
 0 <= a1_z2 <= 1
 0 <= a2_z1 <= 1
 0 <= a2_z2 <= 1
 0 <= a3_z1 <= 1
 0 <= a3_z2 <= 1
 0 <= a4_z1 <= 1
 0 <= a4_z2 <= 1

binary
  a1_z1
  a1_z2
  a2_z1
  a2_z2
  a3_z1
  a3_z2
  a4_z1
  a4_z2
end
