min
obj: 
  +2.370294118728955 a1_x1
  +4.0871141162290519 a1_x2
  +7.6613663727576089 a1_x3
  +4.8999168943267346 a1_x4
  +9.1856075433138287 a1_x5
  +7.8055232956727103 a1_x6
  +17.430873114549655 a1_z1
  +23.402378726140935 a1_z2
  +7.7696749959897602 a2_x1
  +1.8033642153830525 a2_x2
  +9.5715816001394138 a2_x3
  +5.6582749389411147 a2_x4
  +2.4417372334426313 a2_x5
  +7.2729933705310286 a2_x6
  +31.321727314252385 a2_z1
  +17.358761230317288 a2_z2
  +2.3493759750782877 a3_x1
  +3.4440486133066264 a3_x2
  +8.9723629811002734 a3_x3
  +1.1828241076108115 a3_x4
  +8.9432908674835829 a3_x5
  +1.7190508218957756 a3_x6
  +16.001764697499688 a3_z1
  +34.61198408971174 a3_z2
  +6.5610669509273256 a4_x1
  +3.9905359855651432 a4_x2
  +4.1004087373899605 a4_x3
  +4.8874480478433391 a4_x4
  +2.9132673248674479 a4_x5
  +5.3684179760125765 a4_x6
  +43.700484803270278 a4_z1
  +7.0959851654145574 a4_z2
  +1000000 short_1
  +1000000 surp_1
  +1000000 short_2
  +1000000 surp_2
  +1000000 short_3
  +1000000 surp_3

s.t.

a1_local_1: 
+1.582077853325204 a1_x3
+1.1369930495446261 a1_x2
+0.63208014567564075 a1_x1
<= 234.4080527698766

a1_local_2: 
+1.307470420816182 a1_x6
+0.77748105960196801 a1_x3
+0.76483565829026956 a1_x2
<= 88.260681169238154

a1_local_3: 
+1.0157497001689093 a1_x4
+1.1749389701437916 a1_x3
+0.85110803659667345 a1_x6
<= 93.622523161999396

a1_local_4: 
+0.7632754688028246 a1_x5
+1.4413870609636974 a1_x3
+0.69377617371659317 a1_x6
<= 156.30887535792823

a1_local_5: 
+1.5792082172325965 a1_x3
+1.1957293409974104 a1_x5
+0.63322872125906182 a1_x4
<= 206.59000627964957

a1_local_6: 
+1.3502583084461559 a1_x3
+0.97429848056948454 a1_x1
+0.74059903482525158 a1_x6
<= 152.59394277453802

a1_local_7: 
+0.97241999419420888 a1_x6
+1.141196002858692 a1_x1
+1.0972173235099896 a1_x4
<= 147.78022170260431

a1_local_8: 
+0.78280637379220064 a1_x3
+1.192385812353477 a1_x2
+1.277455107008945 a1_x4
<= 118.65961888435805

a1_act_1: 
+0.10000000000000001 a1_x1
-10 a1_z1
<= 0

a1_act_2: 
+0.10000000000000001 a1_x2
-10 a1_z2
<= 0

a2_local_1: 
+1.2124511461739818 a2_x3
+1.4178794526189256 a2_x2
+0.70527857509531411 a2_x1
<= 211.26013590586672

a2_local_2: 
+0.61863298338434214 a2_x6
+1.462795553869964 a2_x2
+1.6164673188443999 a2_x1
<= 236.19925949985631

a2_local_3: 
+0.80601443189449951 a2_x2
+1.3332695285547655 a2_x3
+0.75003589190550057 a2_x1
<= 161.22627103872867

a2_local_4: 
+0.95670459642878791 a2_x1
+0.91733475592568969 a2_x4
+1.0901145885297807 a2_x5
<= 168.10744393546852

a2_local_5: 
+1.5886638631992593 a2_x1
+2.3905472380097947 a2_x6
+2.1411587674052246 a2_x3
<= 189.40829093304779

a2_local_6: 
+0.83274330347580938 a2_x1
+0.67881503806769872 a2_x6
+1.4731553426491253 a2_x2
<= 145.53624870768203

a2_local_7: 
+0.96714825325243492 a2_x3
+0.86991204323730498 a2_x2
+1.1495415056889928 a2_x4
<= 122.82222107582346

a2_local_8: 
+0.8667268035190101 a2_x4
+0.44642503367872044 a2_x3
+0.76532576550030196 a2_x1
<= 125.64302953598738

a2_act_1: 
+0.099999999999999992 a2_x1
-10 a2_z1
<= 0

a2_act_2: 
+0.10000000000000001 a2_x2
-10 a2_z2
<= 0

a3_local_1: 
+0.91733006822027341 a3_x5
+0.61641529054006317 a3_x4
+1.622282924104405 a3_x2
<= 141.66316778760171

a3_local_2: 
+1.1621612512084034 a3_x4
+0.84047754887639736 a3_x5
+1.1897997767303385 a3_x3
<= 160.69597266821305

a3_local_3: 
+1.2793341068849486 a3_x4
+0.67732240915929154 a3_x3
+1.4764017644731753 a3_x6
<= 145.52402855626741

a3_local_4: 
+0.88217110480703187 a3_x4
+0.92949395153058523 a3_x5
+1.1335669401898427 a3_x2
<= 162.13836792556759

a3_local_5: 
+1.5959081083068978 a3_x4
+0.62660249346116936 a3_x6
+1.3701209338695963 a3_x5
<= 147.84569117282689

a3_local_6: 
+0.98295152504275141 a3_x1
+0.94198524843132214 a3_x5
+1.0615877495590182 a3_x3
<= 98.937617433427803

a3_local_7: 
+0.96604189395861917 a3_x6
+0.75661321084049016 a3_x4
+1.3216792750540816 a3_x1
<= 114.77261972096333

a3_local_8: 
+1.4305545538477726 a3_x4
+0.6990296156901481 a3_x2
+1.3431792685428443 a3_x1
<= 219.64923014482824

a3_act_1: 
+0.099999999999999992 a3_x1
-10 a3_z1
<= 0

a3_act_2: 
+0.10000000000000001 a3_x2
-10 a3_z2
<= 0

a4_local_1: 
+0.91845120334564068 a4_x5
+1.1531003586543533 a4_x2
+0.86722720402843434 a4_x1
<= 196.61995844192467

a4_local_2: 
+1.2637579839632156 a4_x4
+0.69306098668998728 a4_x2
+1.44287446444783 a4_x6
<= 212.22490000044434

a4_local_3: 
+1.1834694286351188 a4_x1
+0.84497324206615798 a4_x3
+0.89349973214392187 a4_x6
<= 144.74748560269742

a4_local_4: 
+0.87093098926996493 a4_x3
+1.1481965991797165 a4_x4
+0.93811347763415986 a4_x1
<= 178.51587527556021

a4_local_5: 
+1.3307363145395685 a4_x6
+1.3747773114361608 a4_x3
+0.72739053203849469 a4_x4
<= 164.21131679819479

a4_local_6: 
+0.554104771737709 a4_x5
+1.1867990259121814 a4_x4
+0.5895975120505893 a4_x2
<= 130.50528150067893

a4_local_7: 
+1.17423824900847 a4_x6
+0.85161593130218904 a4_x2
+0.91435662811412177 a4_x4
<= 198.99221521598241

a4_local_8: 
+0.7797926386837869 a4_x6
+1.2823922032502142 a4_x2
+1.2593075045341477 a4_x1
<= 120.03397171721065

a4_act_1: 
+0.099999999999999992 a4_x1
-10 a4_z1
<= 0

a4_act_2: 
+0.099999999999999992 a4_x2
-10 a4_z2
<= 0

coupling_1: 
+0.079582539640779437 a1_x1
+0.59953206198516584 a2_x1
+2.4316639835903873 a3_x1
+12.56557034386954 a4_x1
+0.93269153993910758 short_1
-0.93269153993910758 surp_1
= 328.18176721730964

coupling_2: 
+0.086106364245024908 a1_x2
+0.58206644714660771 a2_x2
+2.3172145418721386 a3_x2
+11.613543421185367 a4_x2
+0.89711849428698087 short_2
-0.89711849428698087 surp_2
= 1146.5584301475549

coupling_3: 
+0.071519026175639738 a1_x3
+0.35630531152761036 a2_x3
+3.3356056799962643 a3_x3
+13.982293292754765 a4_x3
+1.1807299184188165 short_3
-1.1807299184188165 surp_3
= 986.49802655367091

bounds
  0 <= a1_x1 <= 100
  0 <= a1_x2 <= 100
  0 <= a1_x3 <= 100
  0 <= a1_x4 <= 100
  0 <= a1_x5 <= 100
  0 <= a1_x6 <= 100
  0 <= a2_x1 <= 100
  0 <= a2_x2 <= 100
  0 <= a2_x3 <= 100
  0 <= a2_x4 <= 100
  0 <= a2_x5 <= 100
  0 <= a2_x6 <= 100
  0 <= a3_x1 <= 100
  0 <= a3_x2 <= 100
  0 <= a3_x3 <= 100
  0 <= a3_x4 <= 100
  0 <= a3_x5 <= 100
  0 <= a3_x6 <= 100
  0 <= a4_x1 <= 100
  0 <= a4_x2 <= 100
  0 <= a4_x3 <= 100
  0 <= a4_x4 <= 100
  0 <= a4_x5 <= 100
  0 <= a4_x6 <= 100
  0 <= short_1 <= +inf
  0 <= surp_1 <= +inf
  0 <= short_2 <= +inf
  0 <= surp_2 <= +inf
  0 <= short_3 <= +inf
  0 <= surp_3 <= +inf
 0 <= a1_z1 <= 1
 0 <= a1_z2 <= 1
 0 <= a2_z1 <= 1
 0 <= a2_z2 <= 1
 0 <= a3_z1 <= 1
 0 <= a3_z2 <= 1
 0 <= a4_z1 <= 1
 0 <= a4_z2 <= 1

binary
  a1_z1
  a1_z2
  a2_z1
  a2_z2
  a3_z1
  a3_z2
  a4_z1
  a4_z2
end
