min
obj: 
  +1.5770974257819579 a1_x1
  +5.2436233239928463 a1_x2
  +8.0695966456126804 a1_x3
  +3.4781022885686368 a1_x4
  +9.412058306823841 a1_x5
  +8.3165688602967034 a1_x6
  +34.001400959855452 a1_z1
  +10.410503430419741 a1_z2
  +6.4773554290647395 a2_x1
  +9.5833935756226563 a2_x2
  +2.026827474230366 a2_x3
  +2.5146383338919818 a2_x4
  +5.9719159164755045 a2_x5
  +2.1752834405324757 a2_x6
  +46.820939487606068 a2_z1
  +31.119838842287344 a2_z2
  +4.2898026117145012 a3_x1
  +6.2971939246586208 a3_x2
  +7.0812452369118279 a3_x3
  +4.947199835085236 a3_x4
  +8.0650994710678727 a3_x5
  +5.8436848317688934 a3_x6
  +45.408472421232204 a3_z1
  +47.685437857449642 a3_z2
  +7.6745490131872192 a4_x1
  +9.5447276615633179 a4_x2
  +6.4685946234911675 a4_x3
  +6.1047180091187832 a4_x4
  +9.0091726197219533 a4_x5
  +9.2042443028710519 a4_x6
  +10.38795682780167 a4_z1
  +22.655186795949191 a4_z2
  +1000000 short_1
  +1000000 surp_1
  +1000000 short_2
  +1000000 surp_2
  +1000000 short_3
  +1000000 surp_3

s.t.

a1_local_1: 
+1.2525172836979448 a1_x1
+1.2804747506447109 a1_x6
+0.7809603426358126 a1_x5
<= 174.32419763247341

a1_local_2: 
+1.0791845523965877 a1_x5
+0.59517578531382465 a1_x4
+1.6801758819417012 a1_x1
<= 104.85681522484602

a1_local_3: 
+0.89270406332237739 a1_x2
+1.2747380882235064 a1_x3
+0.78447487310402308 a1_x5
<= 116.12772131325383

a1_local_4: 
+1.6520243963786572 a1_x2
+1.3204078717738379 a1_x4
+0.60531793730895478 a1_x1
<= 179.89053224872004

a1_local_5: 
+1.172243465633571 a1_x1
+0.7467581154732762 a1_x3
+1.3391217039084011 a1_x2
<= 126.48859834837602

a1_local_6: 
+1.2083917506497222 a1_x3
+0.96587917193756201 a1_x4
+0.82754619887327519 a1_x2
<= 126.01684076705149

a1_local_7: 
+1.2662087841130116 a1_x1
+0.78975917127324868 a1_x4
+1.0908889042874164 a1_x3
<= 174.42061074419132

a1_local_8: 
+1.2459527386243716 a1_x3
+0.80259866124944446 a1_x2
+1.1040826118019003 a1_x5
<= 144.06629023227052

a1_act_1: 
+0.10000000000000001 a1_x1
-10 a1_z1
<= 0

a1_act_2: 
+0.10000000000000001 a1_x2
-10 a1_z2
<= 0

a2_local_1: 
+0.68054141092408726 a2_x3
+1.1723713095459181 a2_x6
+1.1724580926369059 a2_x4
<= 168.0930267312477

a2_local_2: 
+1.5548926250266668 a2_x6
+0.64313122585094884 a2_x4
+1.4470071225202901 a2_x2
<= 195.86404912045771

a2_local_3: 
+0.76130476611049114 a2_x4
+1.0882847904716024 a2_x5
+1.3135344010901231 a2_x2
<= 142.98480390460617

a2_local_4: 
+1.0453318990184335 a2_x6
+1.1874033479468107 a2_x5
+0.84217380869705494 a2_x1
<= 102.27083894036095

a2_local_5: 
+1.0165824662721563 a2_x6
+1.0280709884393013 a2_x5
+0.9726954765235466 a2_x2
<= 118.81398921822266

a2_local_6: 
+0.84864798074129189 a2_x1
+0.5870828625005805 a2_x6
+1.0306751220125936 a2_x3
<= 126.46980366823276

a2_local_7: 
+0.80454931070370916 a2_x2
+0.89037752881170584 a2_x4
+1.2429318957781934 a2_x5
<= 154.76738912987943

a2_local_8: 
+0.89370985112736967 a2_x4
+0.91182239385060426 a2_x3
+1.1189313833103112 a2_x2
<= 94.186182812119526

a2_act_1: 
+0.10000000000000001 a2_x1
-10 a2_z1
<= 0

a2_act_2: 
+0.099999999999999992 a2_x2
-9.9999999999999982 a2_z2
<= 0

a3_local_1: 
+0.99491844976276522 a3_x3
+0.87679432982304117 a3_x4
+1.1405183245218122 a3_x2
<= 167.36035613867077

a3_local_2: 
+0.75336589426491984 a3_x3
+0.9075363743417536 a3_x4
+1.3273762558308109 a3_x6
<= 195.39711740661147

a3_local_3: 
+0.80466499375644918 a3_x2
+1.2833772731155855 a3_x3
+0.77919410055653737 a3_x5
<= 107.9136393762339

a3_local_4: 
+0.7811896405842369 a3_x2
+1.2800989005078447 a3_x5
+1.1277805149638249 a3_x3
<= 167.41371675394873

a3_local_5: 
+1.3784213239651573 a3_x2
+0.67828926617813468 a3_x5
+1.4742972502492417 a3_x3
<= 220.63589166539728

a3_local_6: 
+1.0794771875715232 a3_x5
+0.92637437040210047 a3_x6
+1.0413297956701688 a3_x1
<= 160.77113007230628

a3_local_7: 
+0.93910889416367194 a3_x3
+1.0852195843150181 a3_x5
+0.9214724968598792 a3_x2
<= 173.36241756313214

a3_local_8: 
+0.80923264578732934 a3_x5
+1.2357385792648872 a3_x3
+0.82535701501189274 a3_x2
<= 159.86597848900561

a3_act_1: 
+0.099999999999999992 a3_x1
-10 a3_z1
<= 0

a3_act_2: 
+0.099999999999999992 a3_x2
-9.9999999999999982 a3_z2
<= 0

a4_local_1: 
+0.95020154027090087 a4_x6
+1.0597408698062436 a4_x1
+0.94362690775796321 a4_x3
<= 110.32898374056589

a4_local_2: 
+0.77431874008728196 a4_x2
+1.2914578302564124 a4_x4
+0.85866900393110546 a4_x6
<= 164.29578002588187

a4_local_3: 
+0.94068920870850525 a4_x3
+0.7140815209420599 a4_x2
+1.4004003333971435 a4_x1
<= 92.225516132273469

a4_local_4: 
+0.80334177925406447 a4_x3
+1.2119016078222344 a4_x5
+1.2448001906841448 a4_x2
<= 200.47814259734079

a4_local_5: 
+1.0958005848874761 a4_x3
+1.1302081674264524 a4_x2
+0.88479275660965762 a4_x1
<= 171.56751917356766

a4_local_6: 
+1.6550341780681221 a4_x5
+0.60421712932072102 a4_x1
+1.5137459625436032 a4_x6
<= 179.45035555719605

a4_local_7: 
+1.3615289192489262 a4_x6
+0.73446842432964266 a4_x3
+1.1495283889235046 a4_x2
<= 216.73546035018413

a4_local_8: 
+0.75677666254288767 a4_x2
+0.8973053768294611 a4_x6
+1.3213938133872203 a4_x5
<= 151.05691871104898

a4_act_1: 
+0.099999999999999992 a4_x1
-10 a4_z1
<= 0

a4_act_2: 
+0.10000000000000001 a4_x2
-10 a4_z2
<= 0

coupling_1: 
+0.0069294898565800157 a1_x1
+0.047780264283725039 a2_x1
+0.1949327620118991 a3_x1
+0.97469611098730302 a4_x1
+0.069418074144793201 short_1
-0.069418074144793201 surp_1
= 90.296682270936302

coupling_2: 
+0.0078111397459985701 a1_x2
+0.030063534205508554 a2_x2
+0.22563455684954914 a3_x2
+0.96608758061387245 a4_x2
+0.08602035615447301 short_2
-0.08602035615447301 surp_2
= 44.292783372649254

coupling_3: 
+0.01412136672864398 a1_x3
+0.043334445646231526 a2_x3
+0.16152073685155835 a3_x3
+0.97260260340623517 a4_x3
+0.11374959392585166 short_3
-0.11374959392585166 surp_3
= 69.554704252749559

bounds
  0 <= a1_x1 <= 100
  0 <= a1_x2 <= 100
  0 <= a1_x3 <= 100
  0 <= a1_x4 <= 100
  0 <= a1_x5 <= 100
  0 <= a1_x6 <= 100
  0 <= a2_x1 <= 100
  0 <= a2_x2 <= 100
  0 <= a2_x3 <= 100
  0 <= a2_x4 <= 100
  0 <= a2_x5 <= 100
  0 <= a2_x6 <= 100
  0 <= a3_x1 <= 100
  0 <= a3_x2 <= 100
  0 <= a3_x3 <= 100
  0 <= a3_x4 <= 100
  0 <= a3_x5 <= 100
  0 <= a3_x6 <= 100
  0 <= a4_x1 <= 100
  0 <= a4_x2 <= 100
  0 <= a4_x3 <= 100
  0 <= a4_x4 <= 100
  0 <= a4_x5 <= 100
  0 <= a4_x6 <= 100
  0 <= short_1 <= +inf
  0 <= surp_1 <= +inf
  0 <= short_2 <= +inf
  0 <= surp_2 <= +inf
  0 <= short_3 <= +inf
  0 <= surp_3 <= +inf
 0 <= a1_z1 <= 1
 0 <= a1_z2 <= 1
 0 <= a2_z1 <= 1
 0 <= a2_z2 <= 1
 0 <= a3_z1 <= 1
 0 <= a3_z2 <= 1
 0 <= a4_z1 <= 1
 0 <= a4_z2 <= 1

binary
  a1_z1
  a1_z2
  a2_z1
  a2_z2
  a3_z1
  a3_z2
  a4_z1
  a4_z2
end
