min
obj: 
  +7.7820756929973847 a1_x1
  +2.6204029212029933 a1_x2
  +1.0229393332967094 a1_x3
  +7.1910932224071349 a1_x4
  +4.2632745770435907 a1_x5
  +6.0246265469097295 a1_x6
  +42.771027111197313 a1_z1
  +28.114118371176183 a1_z2
  +5.7911212590182997 a2_x1
  +5.4348931719458209 a2_x2
  +9.4259627235885386 a2_x3
  +8.9213052519907556 a2_x4
  +6.1484548986939966 a2_x5
  +2.146409388681831 a2_x6
  +31.660946131309107 a2_z1
  +6.9899613369063101 a2_z2
  +2.8186252614454075 a3_x1
  +1.3641205917884647 a3_x2
  +2.33366974601915 a3_x3
  +2.4556775991065138 a3_x4
  +5.2278265061317715 a3_x5
  +6.6696189442115292 a3_x6
  +49.857919593613119 a3_z1
  +30.640944798186169 a3_z2
  +7.0994894146457632 a4_x1
  +9.5674915626052641 a4_x2
  +9.235478138695818 a4_x3
  +8.9478139676632793 a4_x4
  +7.4338997063934436 a4_x5
  +1.7960169742966061 a4_x6
  +7.4304140982629434 a4_z1
  +14.530204301669533 a4_z2
  +1000000 short_1
  +1000000 surp_1
  +1000000 short_2
  +1000000 surp_2
  +1000000 short_3
  +1000000 surp_3

s.t.

a1_local_1: 
+3782.7781679787781 a1_x4
+5812.157876387354 a1_x6
+2700.5136760635191 a1_x3
<= 614609.00172317296

a1_local_2: 
+0.0065995451659656848 a1_x6
+0.0046267328841045202 a1_x5
+0.0067327355899333575 a1_x4
<= 0.95158128995443181

a1_local_3: 
+629.2966868493246 a1_x4
+830.29331815531475 a1_x2
+883.4283882256409 a1_x3
<= 135912.45661571462

a1_local_4: 
+0.0020933779954202254 a1_x4
+0.0013938074700896757 a1_x5
+0.0021921973878004505 a1_x2
<= 0.28940741972385203

a1_local_5: 
+12.355887652284446 a1_x2
+30.066444317247011 a1_x5
+14.664476456939555 a1_x4
<= 3158.057513845431

a1_local_6: 
+676.31746507896912 a1_x2
+779.9306667588595 a1_x3
+397.90595847448401 a1_x1
<= 100502.28470733097

a1_local_7: 
+10665.966882020377 a1_x5
+22278.519696571009 a1_x2
+10720.105490549971 a1_x6
<= 2395946.685741948

a1_local_8: 
+38.982050289274639 a1_x5
+69.546091574024274 a1_x1
+50.602461741944616 a1_x6
<= 9777.7521451666053

a1_act_1: 
+7.5211378705497252 a1_x1
-752.11378705497248 a1_z1
<= 0

a1_act_2: 
+133684.08856022861 a1_x2
-13368408.856022861 a1_z2
<= 0

a2_local_1: 
+3.3527297151455817e-06 a2_x6
+5.0046721577887988e-06 a2_x4
+4.9787252125957825e-06 a2_x3
<= 0.00083920846295959528

a2_local_2: 
+3.7241089907270051 a2_x5
+5.1637189186777528 a2_x4
+7.7577671284038221 a2_x6
<= 755.21885216996884

a2_local_3: 
+0.012764112863825052 a2_x4
+0.0086340488777825967 a2_x5
+0.017008497854905946 a2_x3
<= 1.189781595097603

a2_local_4: 
+0.24963117209817026 a2_x5
+0.24651234127808794 a2_x6
+0.70894168111643163 a2_x4
<= 45.023300334250493

a2_local_5: 
+18.501904704676146 a2_x4
+11.520834925630743 a2_x2
+23.081834047115017 a2_x3
<= 2529.1893685593859

a2_local_6: 
+0.03608467486046979 a2_x5
+0.031897376698508006 a2_x4
+0.032862155557052915 a2_x3
<= 3.8157232186926286

a2_local_7: 
+214697.09395861274 a2_x1
+344381.98950838554 a2_x6
+230085.54278796274 a2_x4
<= 55105371.401002564

a2_local_8: 
+1.8211704724574441e-05 a2_x4
+1.6914990805403811e-05 a2_x3
+1.1374807085521102e-05 a2_x5
<= 0.0017820593437180979

a2_act_1: 
+421.10662114422365 a2_x1
-42110.662114422368 a2_z1
<= 0

a2_act_2: 
+0.00032430849539005925 a2_x2
-0.032430849539005928 a2_z2
<= 0

a3_local_1: 
+8353.8275164986826 a3_x6
+12781.624571264323 a3_x2
+10528.139720882011 a3_x1
<= 2114629.1082856734

a3_local_2: 
+9.2975983076738107 a3_x1
+6.255371841286717 a3_x6
+5.1843883448855941 a3_x2
<= 1422.4667844876387

a3_local_3: 
+0.053770993467787395 a3_x6
+0.12872796508092285 a3_x5
+0.060590818130357514 a3_x3
<= 12.889722488821814

a3_local_4: 
+3699.7799692019385 a3_x2
+1702.4405485929958 a3_x6
+4060.7483588004711 a3_x4
<= 401370.98037729005

a3_local_5: 
+9.6022590320722121e-06 a3_x1
+1.2804272550461055e-05 a3_x5
+8.5764555855796654e-06 a3_x3
<= 0.0015358861222888865

a3_local_6: 
+38543.79853778403 a3_x5
+45625.447795842221 a3_x2
+37748.416430839097 a3_x3
<= 6282367.1453204835

a3_local_7: 
+0.70790540794073165 a3_x2
+0.57887892531735796 a3_x3
+0.84218047523525597 a3_x1
<= 113.69835346731725

a3_local_8: 
+22.156652672565638 a3_x6
+10.300069934493395 a3_x1
+18.041170890399322 a3_x2
<= 2297.1816821241914

a3_act_1: 
+0.00096353767655552752 a3_x1
-0.096353767655552758 a3_z1
<= 0

a3_act_2: 
+0.00038953720416156734 a3_x2
-0.038953720416156731 a3_z2
<= 0

a4_local_1: 
+160028.88067796154 a4_x1
+367688.66759776161 a4_x6
+194050.63579190552 a4_x5
<= 45591479.404151291

a4_local_2: 
+70281.696907015881 a4_x2
+33407.282377224008 a4_x5
+65520.038008749689 a4_x4
<= 11376037.067473415

a4_local_3: 
+45807.557625647489 a4_x6
+35631.113768796706 a4_x2
+20986.958461455273 a4_x5
<= 5964849.151765177

a4_local_4: 
+2736.6393727357786 a4_x6
+1662.2723953113466 a4_x3
+2870.8036338047741 a4_x4
<= 460320.70251704013

a4_local_5: 
+143.66369190748475 a4_x5
+146.14716381919197 a4_x2
+250.41530958476918 a4_x3
<= 21645.333300539758

a4_local_6: 
+52032.84502975137 a4_x1
+44372.706617543801 a4_x5
+53267.583604250198 a4_x4
<= 8253672.730201833

a4_local_7: 
+0.00042017830588908891 a4_x6
+0.00080895459704312671 a4_x3
+0.00066972415205509054 a4_x2
<= 0.11416992236184006

a4_local_8: 
+1689.9658366706501 a4_x3
+2677.9595435809952 a4_x6
+1343.5627691118125 a4_x4
<= 205847.67778324458

a4_act_1: 
+270.67735686498156 a4_x1
-27067.735686498156 a4_z1
<= 0

a4_act_2: 
+0.83645193683873353 a4_x2
-83.645193683873359 a4_z2
<= 0

coupling_1: 
+302.07103395789557 a1_x1
+1753.5264115084472 a2_x1
+6550.6509994035096 a3_x1
+19930.732144241585 a4_x1
+3067.0209961217961 short_1
-3067.0209961217961 surp_1
= 2020810.1364139523

coupling_2: 
+0.00050413325550352462 a1_x2
+0.0020801781906981615 a2_x2
+0.01015640215500207 a3_x2
+0.035616028464068049 a4_x2
+0.0036086311050635951 short_2
-0.0036086311050635951 surp_2
= 1.3541071858244109

coupling_3: 
+0.13042866560825331 a1_x3
+0.42614923099454272 a2_x3
+1.2682380591626539 a3_x3
+5.8160884106861683 a4_x3
+1.1154625157093416 short_3
-1.1154625157093416 surp_3
= 171.36543286725134

bounds
  0 <= a1_x1 <= 100
  0 <= a1_x2 <= 100
  0 <= a1_x3 <= 100
  0 <= a1_x4 <= 100
  0 <= a1_x5 <= 100
  0 <= a1_x6 <= 100
  0 <= a2_x1 <= 100
  0 <= a2_x2 <= 100
  0 <= a2_x3 <= 100
  0 <= a2_x4 <= 100
  0 <= a2_x5 <= 100
  0 <= a2_x6 <= 100
  0 <= a3_x1 <= 100
  0 <= a3_x2 <= 100
  0 <= a3_x3 <= 100
  0 <= a3_x4 <= 100
  0 <= a3_x5 <= 100
  0 <= a3_x6 <= 100
  0 <= a4_x1 <= 100
  0 <= a4_x2 <= 100
  0 <= a4_x3 <= 100
  0 <= a4_x4 <= 100
  0 <= a4_x5 <= 100
  0 <= a4_x6 <= 100
  0 <= short_1 <= +inf
  0 <= surp_1 <= +inf
  0 <= short_2 <= +inf
  0 <= surp_2 <= +inf
  0 <= short_3 <= +inf
  0 <= surp_3 <= +inf
 0 <= a1_z1 <= 1
 0 <= a1_z2 <= 1
 0 <= a2_z1 <= 1
 0 <= a2_z2 <= 1
 0 <= a3_z1 <= 1
 0 <= a3_z2 <= 1
 0 <= a4_z1 <= 1
 0 <= a4_z2 <= 1

binary
  a1_z1
  a1_z2
  a2_z1
  a2_z2
  a3_z1
  a3_z2
  a4_z1
  a4_z2
end
