min
obj: 
  +4.0092711480649195 a1_x1
  +1.9679731558453351 a1_x2
  +5.1245063990813229 a1_x3
  +5.3289660462088069 a1_x4
  +7.7326436197250805 a1_x5
  +5.1395422066191525 a1_x6
  +7.4601303692563201 a1_z1
  +49.872667351617643 a1_z2
  +9.3684343534405965 a2_x1
  +1.0573707236444929 a2_x2
  +6.6071911877442115 a2_x3
  +2.1574642417771144 a2_x4
  +4.0288495580936399 a2_x5
  +6.5816021448275457 a2_x6
  +37.186317612242192 a2_z1
  +14.569927030673126 a2_z2
  +7.5771846442232071 a3_x1
  +6.3254671996139473 a3_x2
  +1.3182946718516668 a3_x3
  +2.4508427443497842 a3_x4
  +7.5821505201430535 a3_x5
  +8.0396019839617026 a3_x6
  +34.570982164584187 a3_z1
  +17.019236119633661 a3_z2
  +9.6576292080467585 a4_x1
  +1.0103892115093069 a4_x2
  +8.2624531172852755 a4_x3
  +1.8717492610420641 a4_x4
  +5.7231033614351237 a4_x5
  +2.0382344427317065 a4_x6
  +33.41705432517788 a4_z1
  +11.211459891146486 a4_z2
  +1000000 short_1
  +1000000 surp_1
  +1000000 short_2
  +1000000 surp_2
  +1000000 short_3
  +1000000 surp_3

s.t.

a1_local_1: 
+0.78148208496250937 a1_x3
+0.33201208048706404 a1_x6
+0.52825536371465331 a1_x4
<= 62.059018921159932

a1_local_2: 
+0.82850689794525345 a1_x4
+0.45899830670512554 a1_x6
+0.32077542689389565 a1_x2
<= 91.172631314095725

a1_local_3: 
+0.46417792727740476 a1_x6
+0.78499407322668369 a1_x4
+0.41027205221344565 a1_x1
<= 105.35088881600052

a1_local_4: 
+0.51721050820825076 a1_x2
+0.61058510634536678 a1_x5
+0.59973253881057687 a1_x3
<= 116.6021027444082

a1_local_5: 
+0.78788977519871028 a1_x1
+0.35732272634753814 a1_x4
+0.50154777576307552 a1_x2
<= 112.71252122071357

a1_local_6: 
+0.65598510136492905 a1_x1
+0.67245144267999746 a1_x3
+0.34277194171173619 a1_x6
<= 104.32958719544153

a1_local_7: 
+0.43751232582857641 a1_x2
+0.70564966142939811 a1_x5
+0.55735224057380928 a1_x4
<= 94.597837902262967

a1_local_8: 
+0.51093370724646558 a1_x4
+0.79654162038621512 a1_x5
+0.32321539844488512 a1_x6
<= 84.492687710359363

a1_act_1: 
+0.0099995000374968751 a1_x1
-0.99995000374968745 a1_z1
<= 0

a1_act_2: 
+0.0099995000374968751 a1_x2
-0.99995000374968757 a1_z2
<= 0

a2_local_1: 
+0.38210255802832649 a2_x4
+0.72087130775669539 a2_x2
+0.57822330703748115 a2_x6
<= 97.01455258836441

a2_local_2: 
+0.52120176967801135 a2_x1
+0.71917277819711212 a2_x4
+0.45949889051526138 a2_x5
<= 109.18804207531659

a2_local_3: 
+0.52461682870637982 a2_x4
+0.38778363135704452 a2_x5
+0.75789249784491508 a2_x3
<= 106.70841600536653

a2_local_4: 
+0.64829000143276183 a2_x2
+0.43879281768829265 a2_x1
+0.62223864970562448 a2_x5
<= 78.14251894787175

a2_local_5: 
+0.6009339641661483 a2_x2
+0.37891042526939894 a2_x3
+0.70377926961066539 a2_x6
<= 94.924375496616079

a2_local_6: 
+0.59465521118310694 a2_x6
+0.42678360136503862 a2_x5
+0.68135228583946394 a2_x2
<= 94.872889539348151

a2_local_7: 
+0.70956674119344976 a2_x2
+0.4842373658822724 a2_x5
+0.51188789131557522 a2_x6
<= 113.72841731790142

a2_local_8: 
+0.67651343220211602 a2_x2
+0.55603899934845002 a2_x4
+0.48285630083254322 a2_x5
<= 113.90943495750734

a2_act_1: 
+0.0099995000374968751 a2_x1
-0.99995000374968745 a2_z1
<= 0

a2_act_2: 
+0.0099995000374968734 a2_x2
-0.99995000374968745 a2_z2
<= 0

a3_local_1: 
+0.49468250114607071 a3_x1
+0.41145761448933238 a3_x2
+0.7655010480323432 a3_x6
<= 75.497628679798211

a3_local_2: 
+0.46662846550291315 a3_x2
+0.38557347806034403 a3_x1
+0.7959842763515157 a3_x6
<= 70.957978463933387

a3_local_3: 
+0.49835127935034823 a3_x1
+0.38496605246954757 a3_x5
+0.77681860225916632 a3_x2
<= 85.990269209633837

a3_local_4: 
+0.43162885350286873 a3_x4
+0.65674618696769382 a3_x6
+0.61836961336016005 a3_x5
<= 109.59483677186164

a3_local_5: 
+0.49336283095547812 a3_x4
+0.72460937963388772 a3_x1
+0.48118017828895326 a3_x5
<= 55.296011451709674

a3_local_6: 
+0.79391229039661271 a3_x5
+0.45027480819936777 a3_x6
+0.40860234000581414 a3_x1
<= 97.407676860916027

a3_local_7: 
+0.4685419669597306 a3_x6
+0.57841122714162518 a3_x1
+0.66776408821830624 a3_x4
<= 107.5666834596211

a3_local_8: 
+0.54881279298141439 a3_x3
+0.70419164456558425 a3_x1
+0.45046492203495347 a3_x6
<= 69.389880949788747

a3_act_1: 
+0.0099995000374968751 a3_x1
-0.99995000374968745 a3_z1
<= 0

a3_act_2: 
+0.0099995000374968751 a3_x2
-0.99995000374968757 a3_z2
<= 0

a4_local_1: 
+0.51419106913609913 a4_x3
+0.49951346644504341 a4_x2
+0.69720430381684517 a4_x5
<= 101.95027777521906

a4_local_2: 
+0.31264890934173262 a4_x2
+0.61642671719781394 a4_x5
+0.72268164623999642 a4_x3
<= 114.27848648297957

a4_local_3: 
+1.2488611455760135 a4_x4
+0.58353947676732099 a4_x5
+0.59586503076581321 a4_x2
<= 82.31200638329851

a4_local_4: 
+0.60294574131329648 a4_x5
+0.61426306685376231 a4_x3
+0.50905531893063449 a4_x1
<= 57.122532333124887

a4_local_5: 
+0.50491806736059974 a4_x5
+0.77040214169723142 a4_x6
+0.38927918685842394 a4_x1
<= 89.357969154022555

a4_local_6: 
+0.80582327724305713 a4_x3
+0.36422630603993733 a4_x2
+0.46689189738285369 a4_x1
<= 80.286419394187391

a4_local_7: 
+0.42261030873506089 a4_x1
+0.37320564837512737 a4_x2
+0.82590439578183472 a4_x3
<= 99.069870058505757

a4_local_8: 
+0.60604053711379935 a4_x3
+0.43312868347014039 a4_x1
+0.66716895231286089 a4_x4
<= 98.074137744266267

a4_act_1: 
+0.0099995000374968751 a4_x1
-0.99995000374968745 a4_z1
<= 0

a4_act_2: 
+0.0099995000374968751 a4_x2
-0.99995000374968745 a4_z2
<= 0

coupling_1: 
+0.016362377076669481 a1_x1
+0.097479190887407557 a2_x1
+0.45767203483301078 a3_x1
+0.85949956168756536 a4_x1
+0.14496015306116272 short_1
-0.14496015306116272 surp_1
= 80.921025334121168

coupling_2: 
+0.0084241785568557881 a1_x2
+0.035795593512424104 a2_x2
+0.13596129200534479 a3_x2
+0.97899479447997562 a4_x2
+0.10423873598159901 short_2
-0.10423873598159901 surp_2
= 63.666886397890252

coupling_3: 
+0.0090028477082913991 a1_x3
+0.027831673062232616 a2_x3
+0.18491596217288811 a3_x3
+0.96922382517327266 a4_x3
+0.11303895425441332 short_3
-0.11303895425441332 surp_3
= 25.988392276073466

bounds
  0 <= a1_x1 <= 100
  0 <= a1_x2 <= 100
  0 <= a1_x3 <= 100
  0 <= a1_x4 <= 100
  0 <= a1_x5 <= 100
  0 <= a1_x6 <= 100
  0 <= a2_x1 <= 100
  0 <= a2_x2 <= 100
  0 <= a2_x3 <= 100
  0 <= a2_x4 <= 100
  0 <= a2_x5 <= 100
  0 <= a2_x6 <= 100
  0 <= a3_x1 <= 100
  0 <= a3_x2 <= 100
  0 <= a3_x3 <= 100
  0 <= a3_x4 <= 100
  0 <= a3_x5 <= 100
  0 <= a3_x6 <= 100
  0 <= a4_x1 <= 100
  0 <= a4_x2 <= 100
  0 <= a4_x3 <= 100
  0 <= a4_x4 <= 100
  0 <= a4_x5 <= 100
  0 <= a4_x6 <= 100
  0 <= short_1 <= +inf
  0 <= surp_1 <= +inf
  0 <= short_2 <= +inf
  0 <= surp_2 <= +inf
  0 <= short_3 <= +inf
  0 <= surp_3 <= +inf
 0 <= a1_z1 <= 1
 0 <= a1_z2 <= 1
 0 <= a2_z1 <= 1
 0 <= a2_z2 <= 1
 0 <= a3_z1 <= 1
 0 <= a3_z2 <= 1
 0 <= a4_z1 <= 1
 0 <= a4_z2 <= 1

binary
  a1_z1
  a1_z2
  a2_z1
  a2_z2
  a3_z1
  a3_z2
  a4_z1
  a4_z2
end
