min
obj: 
  +9.9278906915658744 a1_x1
  +4.1029321056614965 a1_x2
  +3.3290118192963942 a1_x3
  +9.1017647242801925 a1_x4
  +1.0276781995025082 a1_x5
  +7.5015228430107515 a1_x6
  +48.476105885704612 a1_z1
  +46.462393702811802 a1_z2
  +3.1850077691017789 a2_x1
  +1.0794293017939207 a2_x2
  +3.499564475939096 a2_x3
  +4.2123952542391079 a2_x4
  +5.825176560091875 a2_x5
  +3.8934254066749405 a2_x6
  +48.499085817086311 a2_z1
  +41.1366386984797 a2_z2
  +2.6719241979528361 a3_x1
  +3.8682188322270532 a3_x2
  +5.9140343670384405 a3_x3
  +8.8118059009872773 a3_x4
  +5.9790956134935263 a3_x5
  +2.6868556403382673 a3_x6
  +5.1863767770133045 a3_z1
  +6.8806666184499186 a3_z2
  +1.2856225251920637 a4_x1
  +5.2994894770405514 a4_x2
  +9.0295106348529277 a4_x3
  +3.0822666442565567 a4_x4
  +2.1929853575171814 a4_x5
  +7.0676293507155048 a4_x6
  +41.576942647234446 a4_z1
  +44.440960753164354 a4_z2
  +1000000 short_1
  +1000000 surp_1
  +1000000 short_2
  +1000000 surp_2
  +1000000 short_3
  +1000000 surp_3

s.t.

a1_local_1: 
+1.2150186794697522 a1_x4
+1.1816463149053791 a1_x6
+0.8230326141458264 a1_x1
<= 128.3735455034824

a1_local_2: 
+0.7912772818185142 a1_x6
+0.95132572721491093 a1_x5
+1.2637794904231283 a1_x4
<= 134.08183250302153

a1_local_3: 
+1.2314885684734131 a1_x3
+0.99607567280722864 a1_x1
+0.81202540210310448 a1_x6
<= 180.52106698494032

a1_local_4: 
+1.2928577326049484 a1_x5
+1.36477642842819 a1_x2
+0.73272074397687093 a1_x4
<= 142.91338333331129

a1_local_5: 
+0.71301792026251265 a1_x4
+1.4024892945633523 a1_x2
+0.86469824810218676 a1_x5
<= 177.74214838946796

a1_local_6: 
+1.4259813184398666 a1_x3
+1.3454616734476368 a1_x4
+0.70127145921804723 a1_x1
<= 133.72484378742823

a1_local_7: 
+1.1577714136341215 a1_x1
+0.86372835624012023 a1_x2
+0.99437982447742601 a1_x5
<= 159.20056922293952

a1_local_8: 
+1.0911945770574754 a1_x5
+1.1807609242233661 a1_x2
+0.84691149536282317 a1_x4
<= 141.59798379707559

a1_act_1: 
+0.099999999999999992 a1_x1
-10 a1_z1
<= 0

a1_act_2: 
+0.099999999999999992 a1_x2
-9.9999999999999982 a1_z2
<= 0

a2_local_1: 
+1.2072161634962164 a2_x6
+0.73594304576041814 a2_x4
+1.7357981190582852 a2_x1
<= 243.82743197201304

a2_local_2: 
+1.0769540369010855 a2_x2
+1.0399443164295963 a2_x1
+0.92854473425577266 a2_x4
<= 169.61908749502484

a2_local_3: 
+1.3661582270586312 a2_x3
+1.4051186717543707 a2_x4
+0.7116836606771747 a2_x5
<= 242.04265309659422

a2_local_4: 
+0.7596640202539594 a2_x4
+1.301968508593967 a2_x3
+1.3163714133330882 a2_x2
<= 125.0504893786958

a2_local_5: 
+1.1979166843162841 a2_x1
+0.78884095717804736 a2_x4
+1.2676826563079844 a2_x2
<= 141.26076286243261

a2_local_6: 
+0.69602168714649215 a2_x3
+1.4367368409161785 a2_x5
+1.084507447984373 a2_x1
<= 204.14759172879508

a2_local_7: 
+0.80721460123616007 a2_x3
+1.0370496967943301 a2_x6
+1.2388279380335914 a2_x4
<= 202.91017335852419

a2_local_8: 
+0.73919813831602577 a2_x1
+1.3528172599001793 a2_x6
+1.2775450426164823 a2_x5
<= 197.86453458560698

a2_act_1: 
+0.099999999999999992 a2_x1
-9.9999999999999982 a2_z1
<= 0

a2_act_2: 
+0.099999999999999992 a2_x2
-10 a2_z2
<= 0

a3_local_1: 
+1.5351660412828598 a3_x1
+1.3591369364393542 a3_x4
+0.65139533647080361 a3_x2
<= 136.54611506689665

a3_local_2: 
+0.74418733476839072 a3_x6
+1.3437476738450869 a3_x4
+1.15016229358445 a3_x1
<= 125.99921405949328

a3_local_3: 
+1.3962420443705423 a3_x2
+0.85747778462066948 a3_x3
+0.71620819902384669 a3_x5
<= 155.36918079975089

a3_local_4: 
+0.74498068518282523 a3_x5
+1.3423166800016979 a3_x1
+1.1088145958657547 a3_x6
<= 142.95209130378001

a3_local_5: 
+1.0530529378288007 a3_x6
+0.73385772437237728 a3_x3
+1.3626619531125568 a3_x1
<= 119.95744514390121

a3_local_6: 
+0.90186303545680047 a3_x2
+1.1088158186830359 a3_x6
+0.94211412005498985 a3_x4
<= 121.81862817287379

a3_local_7: 
+1.4123031394288179 a3_x2
+0.66640384915273376 a3_x5
+1.5005915726198171 a3_x4
<= 189.93885819847262

a3_local_8: 
+1.1519545091647596 a3_x2
+1.2402672083296453 a3_x1
+0.8062778676111011 a3_x5
<= 198.72861027724036

a3_act_1: 
+0.099999999999999992 a3_x1
-9.9999999999999982 a3_z1
<= 0

a3_act_2: 
+0.099999999999999992 a3_x2
-10 a3_z2
<= 0

a4_local_1: 
+1.4926136450452159 a4_x2
+0.66996573649151314 a4_x6
+1.4440750339305362 a4_x5
<= 237.10847516680198

a4_local_2: 
+0.6282334357944982 a4_x3
+1.5917650080743402 a4_x5
+1.2851473160769953 a4_x1
<= 201.80157071851752

a4_local_3: 
+0.83522432276703851 a4_x4
+1.1972831402790947 a4_x3
+1.0462431312050047 a4_x6
<= 188.99023877330134

a4_local_4: 
+0.63308140474702723 a4_x5
+0.41444629678850892 a4_x1
+0.41705162780163169 a4_x4
<= 70.626873884941105

a4_local_5: 
+0.76408964291946702 a4_x5
+1.3705629837085012 a4_x6
+0.72962717648639308 a4_x1
<= 176.37369760672306

a4_local_6: 
+1.0761206922296818 a4_x4
+1.0759171606021949 a4_x3
+0.92926379654315283 a4_x2
<= 128.63783926236405

a4_local_7: 
+0.903074992008286 a4_x3
+1.4413667018637968 a4_x6
+0.69378597320648783 a4_x1
<= 184.74101657474725

a4_local_8: 
+0.94438556672081342 a4_x3
+0.97891764358082123 a4_x2
+1.0588895417708428 a4_x6
<= 113.36400182943727

a4_act_1: 
+0.15616070134083881 a4_x1
-15.616070134083881 a4_z1
<= 0

a4_act_2: 
+0.099999999999999992 a4_x2
-10 a4_z2
<= 0

coupling_1: 
+0.008215439829598473 a1_x1
+0.049000319213163411 a2_x1
+0.20270816432369326 a3_x1
+0.9706488583933488 a4_x1
+0.084503458750578755 short_1
-0.084503458750578755 surp_1
= 35.925670593395139

coupling_2: 
+0.011334412618571769 a1_x2
+0.040393094220749035 a2_x2
+0.43578739855360121 a3_x2
+0.87086233240893851 a4_x2
+0.15800011120726179 short_2
-0.15800011120726179 surp_2
= 76.371490513425911

coupling_3: 
+0.005287922558246603 a1_x3
+0.018288698672392054 a2_x3
+0.14714311030745339 a3_x3
+0.98421990769378842 a4_x3
+0.068182254891459265 short_3
-0.068182254891459265 surp_3
= 40.960769843264671

bounds
  0 <= a1_x1 <= 100
  0 <= a1_x2 <= 100
  0 <= a1_x3 <= 100
  0 <= a1_x4 <= 100
  0 <= a1_x5 <= 100
  0 <= a1_x6 <= 100
  0 <= a2_x1 <= 100
  0 <= a2_x2 <= 100
  0 <= a2_x3 <= 100
  0 <= a2_x4 <= 100
  0 <= a2_x5 <= 100
  0 <= a2_x6 <= 100
  0 <= a3_x1 <= 100
  0 <= a3_x2 <= 100
  0 <= a3_x3 <= 100
  0 <= a3_x4 <= 100
  0 <= a3_x5 <= 100
  0 <= a3_x6 <= 100
  0 <= a4_x1 <= 100
  0 <= a4_x2 <= 100
  0 <= a4_x3 <= 100
  0 <= a4_x4 <= 100
  0 <= a4_x5 <= 100
  0 <= a4_x6 <= 100
  0 <= short_1 <= +inf
  0 <= surp_1 <= +inf
  0 <= short_2 <= +inf
  0 <= surp_2 <= +inf
  0 <= short_3 <= +inf
  0 <= surp_3 <= +inf
 0 <= a1_z1 <= 1
 0 <= a1_z2 <= 1
 0 <= a2_z1 <= 1
 0 <= a2_z2 <= 1
 0 <= a3_z1 <= 1
 0 <= a3_z2 <= 1
 0 <= a4_z1 <= 1
 0 <= a4_z2 <= 1

binary
  a1_z1
  a1_z2
  a2_z1
  a2_z2
  a3_z1
  a3_z2
  a4_z1
  a4_z2
end
