min
obj: 
  +9.9278906915658744 a1_x1
  +4.1029321056614965 a1_x2
  +3.3290118192963942 a1_x3
  +9.1017647242801925 a1_x4
  +1.0276781995025082 a1_x5
  +7.5015228430107515 a1_x6
  +48.476105885704612 a1_z1
  +46.462393702811802 a1_z2
  +3.1850077691017789 a2_x1
  +1.0794293017939207 a2_x2
  +3.499564475939096 a2_x3
  +4.2123952542391079 a2_x4
  +5.825176560091875 a2_x5
  +3.8934254066749405 a2_x6
  +48.499085817086311 a2_z1
  +41.1366386984797 a2_z2
  +2.6719241979528361 a3_x1
  +3.8682188322270532 a3_x2
  +5.9140343670384405 a3_x3
  +8.8118059009872773 a3_x4
  +5.9790956134935263 a3_x5
  +2.6868556403382673 a3_x6
  +5.1863767770133045 a3_z1
  +6.8806666184499186 a3_z2
  +1.2856225251920637 a4_x1
  +5.2994894770405514 a4_x2
  +9.0295106348529277 a4_x3
  +3.0822666442565567 a4_x4
  +2.1929853575171814 a4_x5
  +7.0676293507155048 a4_x6
  +41.576942647234446 a4_z1
  +44.440960753164354 a4_z2
  +1000000 short_1
  +1000000 surp_1
  +1000000 short_2
  +1000000 surp_2
  +1000000 short_3
  +1000000 surp_3

s.t.

a1_local_1: 
+0.0040307988315652684 a1_x4
+0.0039200867162985714 a1_x6
+0.0027303933309789858 a1_x1
<= 0.42587652845398871

a1_local_2: 
+36017.760013467807 a1_x6
+43302.926198914007 a1_x5
+57525.354817962412 a1_x4
<= 6103204.750376571

a1_local_3: 
+3.7112171299084844 a1_x3
+3.0017762196443103 a1_x1
+2.4471218485946729 a1_x6
<= 544.01875360837437

a1_local_4: 
+0.011900900910258201 a1_x5
+0.012562920598118884 a1_x2
+0.0067447768993032309 a1_x4
<= 1.3155337752225729

a1_local_5: 
+66191.981187144804 a1_x4
+130198.05304014064 a1_x2
+80273.003727401883 a1_x5
<= 16500433.73107199

a1_local_6: 
+11332.962057063267 a1_x3
+10693.033560283577 a1_x4
+5573.3428876296066 a1_x1
<= 1062775.9011511516

a1_local_7: 
+0.0088402406917662511 a1_x1
+0.006595055355097303 a1_x2
+0.0075926533371765501 a1_x5
<= 1.2155865429250761

a1_local_8: 
+2490.5551110189335 a1_x5
+2694.9823766958193 a1_x2
+1933.0005827599227 a1_x4
<= 323184.87432989472

a1_act_1: 
+0.00021364355531851764 a1_x1
-0.021364355531851766 a1_z1
<= 0

a1_act_2: 
+9.6661992293179748e-06 a1_x2
-0.00096661992293179744 a1_z2
<= 0

a2_local_1: 
+1.2072161634962164 a2_x6
+0.73594304576041814 a2_x4
+1.7357981190582852 a2_x1
<= 243.82743197201304

a2_local_2: 
+0.011760540381670405 a2_x2
+0.011356387282089929 a2_x1
+0.010139882919075228 a2_x4
<= 1.8522722972721835

a2_local_3: 
+0.093926386557433891 a2_x3
+0.096605002925920239 a2_x4
+0.04892981888583621 a2_x5
<= 16.640965407853816

a2_local_4: 
+28.149469234727825 a2_x4
+48.244646975643469 a2_x3
+48.778348866262256 a2_x2
<= 4633.7654669711328

a2_local_5: 
+20.212852737288184 a2_x1
+13.310379853071204 a2_x4
+21.390037541878218 a2_x2
<= 2383.5405539284247

a2_local_6: 
+4.6966996253826584e-07 a2_x3
+9.6949872498502184e-07 a2_x5
+7.3181709977391157e-07 a2_x1
<= 0.00013775718994135311

a2_local_7: 
+9.7270347572695271e-07 a2_x3
+1.2496575793211005e-06 a2_x6
+1.4928028300127191e-06 a2_x4
<= 0.00024450924275148445

a2_local_8: 
+2.8868128074106472 a2_x1
+5.2831980893009076 a2_x6
+4.9892352265266595 a2_x5
<= 772.72634083647506

a2_act_1: 
+0.00093385961436545943 a2_x1
-0.093385961436545942 a2_z1
<= 0

a2_act_2: 
+19833.151613301219 a2_x2
-1983315.161330122 a2_z2
<= 0

a3_local_1: 
+89385.883354944512 a3_x1
+79136.492338277443 a3_x4
+37927.850146475343 a3_x2
<= 7950472.3174706977

a3_local_2: 
+442.34452743609148 a3_x6
+798.72285110219434 a3_x4
+683.65581146145905 a3_x1
<= 74893.860989735345

a3_local_3: 
+1271732.8877548554 a3_x2
+781012.65007593611 a3_x3
+652340.70614806737 a3_x5
<= 141514215.07697877

a3_local_4: 
+0.0075958403753388993 a3_x5
+0.013686292057284092 a3_x1
+0.011305499382142039 a3_x6
<= 1.4575428443462386

a3_local_5: 
+718343.19059374253 a3_x6
+500603.22727404971 a3_x3
+929543.90034540906 a3_x1
<= 81829327.647868901

a3_local_6: 
+6.1982925391421962e-06 a3_x2
+7.620630346319495e-06 a3_x6
+6.4749287771835649e-06 a3_x4
<= 0.00083723078166743304

a3_local_7: 
+0.002017509603306958 a3_x2
+0.00095197420993492401 a3_x5
+0.0021436317911368344 a3_x4
<= 0.27133230802811725

a3_local_8: 
+28.751102188501122 a3_x2
+30.955258184273024 a3_x1
+20.123518055258554 a3_x5
<= 4959.9758813414637

a3_act_1: 
+826.00074869091873 a3_x1
-82600.07486909187 a3_z1
<= 0

a3_act_2: 
+8.4199435669067511e-05 a3_x2
-0.0084199435669067516 a3_z2
<= 0

a4_local_1: 
+5779.4576254486337 a4_x2
+2594.1331820250707 a4_x6
+5591.5142503718744 a4_x5
<= 918093.16457090224

a4_local_2: 
+160446.95363726752 a4_x3
+406526.98805969069 a4_x5
+328218.71631027607 a4_x1
<= 51538879.365843043

a4_local_3: 
+5.5105759160969665 a4_x4
+7.8993384863519669 a4_x3
+6.9028188524249527 a4_x6
<= 1246.9046096638283

a4_local_4: 
+0.63308140474702723 a4_x5
+0.41444629678850892 a4_x1
+0.41705162780163169 a4_x4
<= 70.626873884941105

a4_local_5: 
+1069.8628317943626 a4_x5
+1919.0345118412413 a4_x6
+1021.609184764373 a4_x1
<= 246954.87672702209

a4_local_6: 
+3015.2448638468468 a4_x4
+3014.6745767974089 a4_x3
+2603.7580263232471 a4_x2
<= 360437.80863328429

a4_local_7: 
+0.020033664619102817 a4_x3
+0.031975037902518641 a4_x6
+0.015390832021322435 a4_x1
<= 4.098263821058886

a4_local_8: 
+7944921.1997717666 a4_x3
+8235432.4477039687 a4_x2
+8908219.5504570175 a4_x6
<= 953707990.8506521

a4_act_1: 
+0.15616070134083881 a4_x1
-15.616070134083881 a4_z1
<= 0

a4_act_2: 
+777614.7724960933 a4_x2
-77761477.249609336 a4_z2
<= 0

coupling_1: 
+1.8859113631988188e-06 a1_x1
+1.124836414376013e-05 a2_x1
+4.6533069250159775e-05 a3_x1
+0.00022281919771658114 a4_x1
+1.939835680046702e-05 short_1
-1.939835680046702e-05 surp_1
= 0.0082469875999241458

coupling_2: 
+10790.3925221469 a1_x2
+38454.33870227915 a2_x2
+414870.82258623128 a3_x2
+829063.37678651686 a4_x2
+150416.54789201118 short_2
-150416.54789201118 surp_2
= 72705872.626430348

coupling_3: 
+1.1298106421340306 a1_x3
+3.9075395229885004 a2_x3
+31.438405179138332 a3_x3
+210.28714276052716 a4_x3
+14.56773171931791 short_3
-14.56773171931791 surp_3
= 8751.6247012263666

bounds
  0 <= a1_x1 <= 100
  0 <= a1_x2 <= 100
  0 <= a1_x3 <= 100
  0 <= a1_x4 <= 100
  0 <= a1_x5 <= 100
  0 <= a1_x6 <= 100
  0 <= a2_x1 <= 100
  0 <= a2_x2 <= 100
  0 <= a2_x3 <= 100
  0 <= a2_x4 <= 100
  0 <= a2_x5 <= 100
  0 <= a2_x6 <= 100
  0 <= a3_x1 <= 100
  0 <= a3_x2 <= 100
  0 <= a3_x3 <= 100
  0 <= a3_x4 <= 100
  0 <= a3_x5 <= 100
  0 <= a3_x6 <= 100
  0 <= a4_x1 <= 100
  0 <= a4_x2 <= 100
  0 <= a4_x3 <= 100
  0 <= a4_x4 <= 100
  0 <= a4_x5 <= 100
  0 <= a4_x6 <= 100
  0 <= short_1 <= +inf
  0 <= surp_1 <= +inf
  0 <= short_2 <= +inf
  0 <= surp_2 <= +inf
  0 <= short_3 <= +inf
  0 <= surp_3 <= +inf
 0 <= a1_z1 <= 1
 0 <= a1_z2 <= 1
 0 <= a2_z1 <= 1
 0 <= a2_z2 <= 1
 0 <= a3_z1 <= 1
 0 <= a3_z2 <= 1
 0 <= a4_z1 <= 1
 0 <= a4_z2 <= 1

binary
  a1_z1
  a1_z2
  a2_z1
  a2_z2
  a3_z1
  a3_z2
  a4_z1
  a4_z2
end
