min
obj: 
  +1.57709742578195788 a1_x1
  +5.24362332399284625 a1_x2
  +8.06959664561268042 a1_x3
  +3.47810228856863679 a1_x4
  +9.41205830682384104 a1_x5
  +8.31656886029670339 a1_x6
  +34.00140095985545230 a1_z1
  +10.41050343041974102 a1_z2
  +6.47735542906473949 a2_x1
  +9.58339357562265626 a2_x2
  +2.02682747423036602 a2_x3
  +2.51463833389198177 a2_x4
  +5.97191591647550446 a2_x5
  +2.17528344053247569 a2_x6
  +46.82093948760606850 a2_z1
  +31.11983884228734354 a2_z2
  +4.28980261171450117 a3_x1
  +6.29719392465862082 a3_x2
  +7.08124523691182794 a3_x3
  +4.94719983508523597 a3_x4
  +8.06509947106787273 a3_x5
  +5.84368483176889342 a3_x6
  +45.40847242123220440 a3_z1
  +47.68543785744964225 a3_z2
  +7.67454901318721916 a4_x1
  +9.54472766156331787 a4_x2
  +6.46859462349116754 a4_x3
  +6.10471800911878315 a4_x4
  +9.00917261972195327 a4_x5
  +9.20424430287105189 a4_x6
  +10.38795682780166985 a4_z1
  +22.65518679594919149 a4_z2
  +1000000.00000000000000000 short_1
  +1000000.00000000000000000 surp_1
  +1000000.00000000000000000 short_2
  +1000000.00000000000000000 surp_2
  +1000000.00000000000000000 short_3
  +1000000.00000000000000000 surp_3

s.t.

a1_local_1: 
+2.98559073407970077 a1_x1
+3.05223217316481188 a1_x6
+1.86155352345579495 a1_x5
<= 415.531758

a1_local_2: 
+0.00009216256838051 a1_x5
+0.00005082812656148 a1_x4
+0.00014348734353810 a1_x1
<= 0.008955

a1_local_3: 
+0.00077491337424903 a1_x2
+0.00110653869945736 a1_x3
+0.00068096483023523 a1_x5
<= 0.100805

a1_local_4: 
+2.14852460846921689 a1_x2
+1.71724389297233482 a1_x4
+0.78724048331670138 a1_x1
<= 233.954920

a1_local_5: 
+6.36047170209371249 a1_x1
+4.05183223538761883 a1_x3
+7.26593574890640426 a1_x2
<= 686.314041

a1_local_6: 
+0.09229477468039164 a1_x3
+0.07377210287518858 a1_x4
+0.06320648078039000 a1_x2
<= 9.624938

a1_local_7: 
+0.91867646843279493 a1_x1
+0.57299647220972350 a1_x4
+0.79147608089396959 a1_x3
<= 126.547938

a1_local_8: 
+0.00023680042710837 a1_x3
+0.00015253845502223 a1_x2
+0.00020983720002596 a1_x5
<= 0.027381

a1_act_1: 
+6.30076698994516793 a1_x1
-630.07669899451684614 a1_z1
<= 0.000000

a1_act_2: 
+3.04718404360156780 a1_x2
-304.71840436015679643 a1_z2
<= 0.000000

a2_local_1: 
+0.22330067590539446 a2_x3
+0.38468093437285050 a2_x6
+0.38470940982278451 a2_x4
<= 55.155037

a2_local_2: 
+290.10281182073759965 a2_x6
+119.99167915911768034 a2_x4
+269.97416298155724235 a2_x2
<= 36543.173766

a2_local_3: 
+2.84247550801910931 a2_x4
+4.06331734722947679 a2_x5
+4.90432942264982508 a2_x2
<= 533.860842

a2_local_4: 
+0.00103165005940653 a2_x6
+0.00117186200440176 a2_x5
+0.00083115100628688 a2_x1
<= 0.100932

a2_local_5: 
+0.74469744263230053 a2_x6
+0.75311335905949461 a2_x5
+0.71254803014984103 a2_x2
<= 87.037183

a2_local_6: 
+0.30815616091133247 a2_x1
+0.21317814353012110 a2_x6
+0.37425280676304618 a2_x3
<= 45.922986

a2_local_7: 
+3.23155909970595756 a2_x2
+3.57629739672326519 a2_x4
+4.99237004454533917 a2_x5
<= 621.639914

a2_local_8: 
+0.00024994052486865 a2_x4
+0.00025500599262560 a2_x3
+0.00031292739683221 a2_x2
<= 0.026341

a2_act_1: 
+73.55455242971146390 a2_x1
-7355.45524297114661749 a2_z1
<= 0.000000

a2_act_2: 
+4.61932106060446124 a2_x2
-461.93210606044613087 a2_z2
<= 0.000000

a3_local_1: 
+0.01747809194785396 a3_x3
+0.01540296284550581 a3_x4
+0.02003589756422527 a3_x2
<= 2.940080

a3_local_2: 
+3.92461354605180102 a3_x3
+4.72775523207307291 a3_x4
+6.91488541490734221 a3_x6
<= 1017.909332

a3_local_3: 
+1418.87631490382773336 a3_x2
+2262.99594245890511957 a3_x3
+1373.96315556271360947 a3_x5
<= 190285.532680

a3_local_4: 
+0.70684448663599753 a3_x2
+1.15827297645174432 a3_x5
+1.02045060216300465 a3_x3
<= 151.481096

a3_local_5: 
+1201.86968101174556978 a3_x2
+591.41228432984701158 a3_x5
+1285.46557940389129726 a3_x3
<= 192376.296075

a3_local_6: 
+513.65422534469269067 a3_x5
+440.80237645275911973 a3_x6
+495.50231879065790963 a3_x1
<= 76500.709071

a3_local_7: 
+22.05823108165782642 a3_x3
+25.49014764307970893 a3_x5
+21.64397909278550003 a3_x2
<= 4072.017943

a3_local_8: 
+25.39146594810770807 a3_x5
+38.77403391905851748 a3_x3
+25.89740373278751662 a3_x2
<= 5016.149027

a3_act_1: 
+1.33416542392707460 a3_x1
-133.41654239270746984 a3_z1
<= 0.000000

a3_act_2: 
+418.75174341166410841 a3_x2
-41875.17434116641379660 a3_z2
<= 0.000000

a4_local_1: 
+0.16879406184972415 a4_x6
+0.18825265834841493 a4_x1
+0.16762614232950149 a4_x3
<= 19.598871

a4_local_2: 
+11877.29856896419732948 a4_x2
+19809.71071093160571763 a4_x4
+13171.14981674759474117 a4_x6
<= 2520137.937987

a4_local_3: 
+264.14875323950815300 a4_x3
+200.51653800428192653 a4_x2
+393.23721233170186906 a4_x1
<= 25897.240957

a4_local_4: 
+821.18807977878191195 a4_x3
+1238.82409692726537287 a4_x5
+1272.45352438328654898 a4_x2
<= 204931.780232

a4_local_5: 
+283.72901260289472702 a4_x3
+292.63795968183688956 a4_x2
+229.09403284980916737 a4_x1
<= 44422.939248

a4_local_6: 
+9399.71671232762855652 a4_x5
+3431.63296783399482592 a4_x1
+8597.27455232886131853 a4_x6
<= 1019182.883663

a4_local_7: 
+2023.62343810394031607 a4_x6
+1091.63125146150468936 a4_x3
+1708.52969606748979459 a4_x2
<= 322131.209431

a4_local_8: 
+0.48751508369058344 a4_x2
+0.57804359929800875 a4_x6
+0.85124112225802451 a4_x5
<= 97.310779

a4_act_1: 
+160.28468589001914779 a4_x1
-16028.46858900191546127 a4_z1
<= 0.000000

a4_act_2: 
+0.06186442283902916 a4_x2
-6.18644228390291584 a4_z2
<= 0.000000

coupling_1: 
+0.05562833939120475 a1_x1
+1.78036909363963769 a2_x1
+33.71421111278478122 a3_x1
+782.46345961243957845 a4_x1
+5.57272218927272434 short_1
-5.57272218927272434 surp_1
= 60329.649535

coupling_2: 
+0.00004191838448070 a1_x2
+0.00074885344102826 a2_x2
+0.02608729665097097 a3_x2
+0.51844970085123643 a4_x2
+0.00461627173460457 short_2
-0.00461627173460457 surp_2
= 19.643906

coupling_3: 
+0.00010315445273172 a1_x3
+0.00146930230375999 a2_x3
+0.02541984324781362 a3_x3
+0.71047152310198070 a4_x3
+0.00830923616343402 short_3
-0.00830923616343402 surp_3
= 43.047143

bounds
  0.000000 <= a1_x1 <= 100.000000
  0.000000 <= a1_x2 <= 100.000000
  0.000000 <= a1_x3 <= 100.000000
  0.000000 <= a1_x4 <= 100.000000
  0.000000 <= a1_x5 <= 100.000000
  0.000000 <= a1_x6 <= 100.000000
  0.000000 <= a2_x1 <= 100.000000
  0.000000 <= a2_x2 <= 100.000000
  0.000000 <= a2_x3 <= 100.000000
  0.000000 <= a2_x4 <= 100.000000
  0.000000 <= a2_x5 <= 100.000000
  0.000000 <= a2_x6 <= 100.000000
  0.000000 <= a3_x1 <= 100.000000
  0.000000 <= a3_x2 <= 100.000000
  0.000000 <= a3_x3 <= 100.000000
  0.000000 <= a3_x4 <= 100.000000
  0.000000 <= a3_x5 <= 100.000000
  0.000000 <= a3_x6 <= 100.000000
  0.000000 <= a4_x1 <= 100.000000
  0.000000 <= a4_x2 <= 100.000000
  0.000000 <= a4_x3 <= 100.000000
  0.000000 <= a4_x4 <= 100.000000
  0.000000 <= a4_x5 <= 100.000000
  0.000000 <= a4_x6 <= 100.000000
  0.000000 <= short_1 <= +inf
  0.000000 <= surp_1 <= +inf
  0.000000 <= short_2 <= +inf
  0.000000 <= surp_2 <= +inf
  0.000000 <= short_3 <= +inf
  0.000000 <= surp_3 <= +inf
 0 <= a1_z1 <= 1
 0 <= a1_z2 <= 1
 0 <= a2_z1 <= 1
 0 <= a2_z2 <= 1
 0 <= a3_z1 <= 1
 0 <= a3_z2 <= 1
 0 <= a4_z1 <= 1
 0 <= a4_z2 <= 1

binary
  a1_z1
  a1_z2
  a2_z1
  a2_z2
  a3_z1
  a3_z2
  a4_z1
  a4_z2
end
