min
obj: 
  +3.04305245350352704 a1_x1
  +8.52421046785006808 a1_x2
  +7.69307565210918742 a1_x3
  +6.91899621560824230 a1_x4
  +9.20970734213053355 a1_x5
  +1.67836132765545631 a1_x6
  +29.95730103851083470 a1_z1
  +31.08072985890714435 a1_z2
  +3.99822752437524187 a2_x1
  +4.07165663414877166 a2_x2
  +8.34795406785622518 a2_x3
  +4.87171054907478673 a2_x4
  +6.00614521080850050 a2_x5
  +2.78826542023549706 a2_x6
  +21.64829021237791906 a2_z1
  +42.54057128991149028 a2_z2
  +2.99288059555848207 a3_x1
  +5.53541108642779456 a3_x2
  +5.21389691922773402 a3_x3
  +2.06500474656608013 a3_x4
  +6.41053556614162368 a3_x5
  +2.65986220405491736 a3_x6
  +31.21797170368752461 a3_z1
  +44.91309333626589506 a3_z2
  +1.34783919856301182 a4_x1
  +6.31764736904795043 a4_x2
  +9.98943596309341864 a4_x3
  +5.70541292643470310 a4_x4
  +4.44152957180650887 a4_x5
  +5.06133401945766614 a4_x6
  +15.23838321132246598 a4_z1
  +39.66649904034947838 a4_z2
  +1000000.00000000000000000 short_1
  +1000000.00000000000000000 surp_1
  +1000000.00000000000000000 short_2
  +1000000.00000000000000000 surp_2
  +1000000.00000000000000000 short_3
  +1000000.00000000000000000 surp_3

s.t.

a1_local_1: 
+0.00003131392854407 a1_x4
+0.00003895669939636 a1_x3
+0.00008392462066149 a1_x1
<= 0.009579

a1_local_2: 
+0.00001219250579125 a1_x5
+0.00000742230303797 a1_x2
+0.00000917620124995 a1_x1
<= 0.001124

a1_local_3: 
+1.63384951892888353 a1_x1
+2.31324691173158570 a1_x5
+2.32578909615097995 a1_x4
<= 360.440742

a1_local_4: 
+0.41224393941978749 a1_x4
+0.30952442232658023 a1_x1
+0.33189248862992005 a1_x2
<= 44.305144

a1_local_5: 
+6.79659058990507958 a1_x4
+13.89205587305954559 a1_x6
+5.63176733437295240 a1_x3
<= 1804.408656

a1_local_6: 
+0.00002133007511411 a1_x5
+0.00003643666103221 a1_x1
+0.00002053368091609 a1_x6
<= 0.004236

a1_local_7: 
+0.03602556909363594 a1_x1
+0.03775244194799680 a1_x2
+0.02526201227970444 a1_x4
<= 5.642524

a1_local_8: 
+0.00412398910665302 a1_x3
+0.00437969916114046 a1_x6
+0.00168619938811485 a1_x5
<= 0.522437

a1_act_1: 
+0.15953917916736107 a1_x1
-15.95391791673610804 a1_z1
<= 0.000000

a1_act_2: 
+0.14005234318508408 a1_x2
-14.00523431850840872 a1_z2
<= 0.000000

a2_local_1: 
+7.69381599453555065 a2_x5
+9.37716925915266586 a2_x3
+11.13565968217368507 a2_x6
<= 1852.009811

a2_local_2: 
+52.04166818371379577 a2_x4
+81.15224390775560437 a2_x3
+55.27731843547222468 a2_x6
<= 9217.902499

a2_local_3: 
+0.00081837609681195 a2_x3
+0.00061281435755094 a2_x1
+0.00085964415892825 a2_x2
<= 0.151809

a2_local_4: 
+23.78433412180254436 a2_x4
+18.43408110816602630 a2_x5
+17.26138891566791145 a2_x1
<= 1862.535776

a2_local_5: 
+40.80227012718288648 a2_x1
+45.79241403130760801 a2_x6
+24.35188795807111717 a2_x2
<= 6705.531696

a2_local_6: 
+0.12953251345945455 a2_x1
+0.10252334161976297 a2_x5
+0.14407893337999508 a2_x3
<= 20.563408

a2_local_7: 
+31.52046267877806685 a2_x3
+59.13157256785324023 a2_x6
+29.91576236152901913 a2_x1
<= 5560.161430

a2_local_8: 
+0.09934146853498721 a2_x4
+0.17421174908501100 a2_x1
+0.18798103863142965 a2_x6
<= 16.590359

a2_act_1: 
+0.09054818119099818 a2_x1
-9.05481811909981893 a2_z1
<= 0.000000

a2_act_2: 
+56.38114797045748361 a2_x2
-5638.11479704574867355 a2_z2
<= 0.000000

a3_local_1: 
+0.01251926144853939 a3_x4
+0.00484821281185686 a3_x2
+0.00895109386772204 a3_x5
<= 1.407921

a3_local_2: 
+64.19665988250534383 a3_x1
+59.19888843431924386 a3_x6
+61.73402596842803547 a3_x3
<= 5938.264549

a3_local_3: 
+14.56021400748532635 a3_x2
+12.40073623955133364 a3_x6
+11.12731911095470849 a3_x5
<= 2661.906192

a3_local_4: 
+329.21602711682851350 a3_x1
+470.52830074498928070 a3_x5
+441.31692872341227485 a3_x4
<= 39528.305759

a3_local_5: 
+1007.58390832040663554 a3_x4
+568.01081902895487019 a3_x2
+871.88809488358447197 a3_x6
<= 99163.678213

a3_local_6: 
+80.10675118401364614 a3_x5
+69.26505731998454962 a3_x2
+109.72852321453189006 a3_x1
<= 12923.099695

a3_local_7: 
+0.01632813603846625 a3_x2
+0.01539887207029918 a3_x4
+0.00801917183553190 a3_x5
<= 2.551367

a3_local_8: 
+0.84399194227668461 a3_x3
+0.91662895211566975 a3_x5
+1.43539213471871840 a3_x6
<= 158.112334

a3_act_1: 
+0.01787370605515850 a3_x1
-1.78737060551585025 a3_z1
<= 0.000000

a3_act_2: 
+25.21760322397549459 a3_x2
-2521.76032239754931652 a3_z2
<= 0.000000

a4_local_1: 
+2002.56487886406375765 a4_x6
+3146.77100309792785993 a4_x2
+2444.06967633399290207 a4_x1
<= 234373.088038

a4_local_2: 
+17608.74970488087274134 a4_x1
+21079.39194395356025780 a4_x6
+15456.98856842210261675 a4_x5
<= 1789292.106014

a4_local_3: 
+156.63714057005589098 a4_x6
+126.43931812318010088 a4_x3
+157.82946847512124577 a4_x2
<= 18934.763197

a4_local_4: 
+0.19138993071600788 a4_x4
+0.27737713759118382 a4_x6
+0.25660397510464095 a4_x2
<= 28.152595

a4_local_5: 
+0.57687461060536016 a4_x5
+0.25040907216197128 a4_x6
+0.36189816963162635 a4_x1
<= 43.476269

a4_local_6: 
+2.82710541007622629 a4_x5
+2.43025500507877856 a4_x1
+1.91191035385460872 a4_x2
<= 467.031672

a4_local_7: 
+419.33322479556545659 a4_x4
+349.26888913064163944 a4_x2
+225.36074208143864439 a4_x5
<= 47613.511464

a4_local_8: 
+0.33559031385143068 a4_x3
+0.17074101998024585 a4_x1
+0.28263417966358684 a4_x2
<= 50.438632

a4_act_1: 
+1.27955912666454785 a4_x1
-127.95591266645477901 a4_z1
<= 0.000000

a4_act_2: 
+0.51068065813316343 a4_x2
-51.06806581331634476 a4_z2
<= 0.000000

coupling_1: 
+3.38216015371508538 a1_x1
+100.53031407104116113 a2_x1
+1324.18559905624852036 a3_x1
+25551.70524294839196955 a4_x1
+344.87290771207568696 short_1
-344.87290771207568696 surp_1
= 1542203.923079

coupling_2: 
+0.04579897795775612 a1_x2
+1.20846482517103992 a2_x2
+12.38129319235471648 a3_x2
+573.32453262471074140 a4_x2
+4.27923952659995432 short_2
-4.27923952659995432 surp_2
= 41951.102616

coupling_3: 
+0.05441983920775156 a1_x3
+0.66076893595138886 a2_x3
+26.87059046097705561 a3_x3
+524.62498964866153983 a4_x3
+4.47961183951891506 short_3
-4.47961183951891506 surp_3
= 13572.551937

bounds
  0.000000 <= a1_x1 <= 100.000000
  0.000000 <= a1_x2 <= 100.000000
  0.000000 <= a1_x3 <= 100.000000
  0.000000 <= a1_x4 <= 100.000000
  0.000000 <= a1_x5 <= 100.000000
  0.000000 <= a1_x6 <= 100.000000
  0.000000 <= a2_x1 <= 100.000000
  0.000000 <= a2_x2 <= 100.000000
  0.000000 <= a2_x3 <= 100.000000
  0.000000 <= a2_x4 <= 100.000000
  0.000000 <= a2_x5 <= 100.000000
  0.000000 <= a2_x6 <= 100.000000
  0.000000 <= a3_x1 <= 100.000000
  0.000000 <= a3_x2 <= 100.000000
  0.000000 <= a3_x3 <= 100.000000
  0.000000 <= a3_x4 <= 100.000000
  0.000000 <= a3_x5 <= 100.000000
  0.000000 <= a3_x6 <= 100.000000
  0.000000 <= a4_x1 <= 100.000000
  0.000000 <= a4_x2 <= 100.000000
  0.000000 <= a4_x3 <= 100.000000
  0.000000 <= a4_x4 <= 100.000000
  0.000000 <= a4_x5 <= 100.000000
  0.000000 <= a4_x6 <= 100.000000
  0.000000 <= short_1 <= +inf
  0.000000 <= surp_1 <= +inf
  0.000000 <= short_2 <= +inf
  0.000000 <= surp_2 <= +inf
  0.000000 <= short_3 <= +inf
  0.000000 <= surp_3 <= +inf
 0 <= a1_z1 <= 1
 0 <= a1_z2 <= 1
 0 <= a2_z1 <= 1
 0 <= a2_z2 <= 1
 0 <= a3_z1 <= 1
 0 <= a3_z2 <= 1
 0 <= a4_z1 <= 1
 0 <= a4_z2 <= 1

binary
  a1_z1
  a1_z2
  a2_z1
  a2_z2
  a3_z1
  a3_z2
  a4_z1
  a4_z2
end
