min
obj: 
  +1.57709742578195788 a1_x1
  +5.24362332399284625 a1_x2
  +8.06959664561268042 a1_x3
  +3.47810228856863679 a1_x4
  +9.41205830682384104 a1_x5
  +8.31656886029670339 a1_x6
  +34.00140095985545230 a1_z1
  +10.41050343041974102 a1_z2
  +6.47735542906473949 a2_x1
  +9.58339357562265626 a2_x2
  +2.02682747423036602 a2_x3
  +2.51463833389198177 a2_x4
  +5.97191591647550446 a2_x5
  +2.17528344053247569 a2_x6
  +46.82093948760606850 a2_z1
  +31.11983884228734354 a2_z2
  +4.28980261171450117 a3_x1
  +6.29719392465862082 a3_x2
  +7.08124523691182794 a3_x3
  +4.94719983508523597 a3_x4
  +8.06509947106787273 a3_x5
  +5.84368483176889342 a3_x6
  +45.40847242123220440 a3_z1
  +47.68543785744964225 a3_z2
  +7.67454901318721916 a4_x1
  +9.54472766156331787 a4_x2
  +6.46859462349116754 a4_x3
  +6.10471800911878315 a4_x4
  +9.00917261972195327 a4_x5
  +9.20424430287105189 a4_x6
  +10.38795682780166985 a4_z1
  +22.65518679594919149 a4_z2
  +1000000.00000000000000000 short_1
  +1000000.00000000000000000 surp_1
  +1000000.00000000000000000 short_2
  +1000000.00000000000000000 surp_2
  +1000000.00000000000000000 short_3
  +1000000.00000000000000000 surp_3

s.t.

a1_local_1: 
+1.25251728369794457 a1_x1
+1.28047475064471095 a1_x6
+0.78096034263581249 a1_x5
<= 174.324198

a1_local_2: 
+1.07918455239658750 a1_x5
+0.59517578531382465 a1_x4
+1.68017588194170120 a1_x1
<= 104.856815

a1_local_3: 
+0.89270406332237739 a1_x2
+1.27473808822350620 a1_x3
+0.78447487310402308 a1_x5
<= 116.127721

a1_local_4: 
+2.14852460846921689 a1_x2
+1.71724389297233482 a1_x4
+0.78724048331670138 a1_x1
<= 233.954920

a1_local_5: 
+1.17224346563357118 a1_x1
+0.74675811547327609 a1_x3
+1.33912170390840113 a1_x2
<= 126.488598

a1_local_6: 
+1.20839175064972215 a1_x3
+0.96587917193756190 a1_x4
+0.82754619887327507 a1_x2
<= 126.016841

a1_local_7: 
+0.91867646843279493 a1_x1
+0.57299647220972350 a1_x4
+0.79147608089396959 a1_x3
<= 126.547938

a1_local_8: 
+1.24595273862437206 a1_x3
+0.80259866124944457 a1_x2
+1.10408261180190070 a1_x5
<= 144.066290

a1_act_1: 
+0.09999999999999999 a1_x1
-10.00000000000000000 a1_z1
<= 0.000000

a1_act_2: 
+0.09999999999999999 a1_x2
-10.00000000000000000 a1_z2
<= 0.000000

a2_local_1: 
+0.76186603796907804 a2_x3
+1.31246955775921359 a2_x6
+1.31256671142044912 a2_x4
<= 188.180126

a2_local_2: 
+1.55489262502666681 a2_x6
+0.64313122585094873 a2_x4
+1.44700712252029007 a2_x2
<= 195.864049

a2_local_3: 
+0.76130476611049103 a2_x4
+1.08828479047160220 a2_x5
+1.31353440109012332 a2_x2
<= 142.984804

a2_local_4: 
+1.04533189901843326 a2_x6
+1.18740334794681068 a2_x5
+0.84217380869705505 a2_x1
<= 102.270839

a2_local_5: 
+0.74469744263230053 a2_x6
+0.75311335905949461 a2_x5
+0.71254803014984103 a2_x2
<= 87.037183

a2_local_6: 
+1.09098048950777105 a2_x1
+0.75472511954018340 a2_x6
+1.32498571216133687 a2_x3
<= 162.583417

a2_local_7: 
+0.80454931070370916 a2_x2
+0.89037752881170618 a2_x4
+1.24293189577819363 a2_x5
<= 154.767389

a2_local_8: 
+0.89370985112736967 a2_x4
+0.91182239385060437 a2_x3
+1.11893138331031117 a2_x2
<= 94.186183

a2_act_1: 
+0.09999999999999999 a2_x1
-10.00000000000000000 a2_z1
<= 0.000000

a2_act_2: 
+0.09999999999999999 a2_x2
-10.00000000000000000 a2_z2
<= 0.000000

a3_local_1: 
+0.99491844976276544 a3_x3
+0.87679432982304129 a3_x4
+1.14051832452181223 a3_x2
<= 167.360356

a3_local_2: 
+0.75336589426491984 a3_x3
+0.90753637434175360 a3_x4
+1.32737625583081087 a3_x6
<= 195.397117

a3_local_3: 
+0.80466499375644929 a3_x2
+1.28337727311558525 a3_x3
+0.77919410055653737 a3_x5
<= 107.913639

a3_local_4: 
+0.70684448663599753 a3_x2
+1.15827297645174432 a3_x5
+1.02045060216300465 a3_x3
<= 151.481096

a3_local_5: 
+1.37842132396515704 a3_x2
+0.67828926617813468 a3_x5
+1.47429725024924174 a3_x3
<= 220.635892

a3_local_6: 
+1.07947718757152344 a3_x5
+0.92637437040210047 a3_x6
+1.04132979567016903 a3_x1
<= 160.771130

a3_local_7: 
+0.93910889416367205 a3_x3
+1.08521958431501808 a3_x5
+0.92147249685987909 a3_x2
<= 173.362418

a3_local_8: 
+0.80923264578732945 a3_x5
+1.23573857926488717 a3_x3
+0.82535701501189307 a3_x2
<= 159.865978

a3_act_1: 
+0.10000000000000001 a3_x1
-10.00000000000000178 a3_z1
<= 0.000000

a3_act_2: 
+0.10000000000000001 a3_x2
-10.00000000000000178 a3_z2
<= 0.000000

a4_local_1: 
+0.95020154027090098 a4_x6
+1.05974086980624360 a4_x1
+0.94362690775796321 a4_x3
<= 110.328984

a4_local_2: 
+0.77431874008728185 a4_x2
+1.29145783025641214 a4_x4
+0.85866900393110535 a4_x6
<= 164.295780

a4_local_3: 
+0.94068920870850503 a4_x3
+0.71408152094205990 a4_x2
+1.40040033339714354 a4_x1
<= 92.225516

a4_local_4: 
+0.80334177925406469 a4_x3
+1.21190160782223466 a4_x5
+1.24480019068414527 a4_x2
<= 200.478143

a4_local_5: 
+1.09580058488747589 a4_x3
+1.13020816742645236 a4_x2
+0.88479275660965750 a4_x1
<= 171.567519

a4_local_6: 
+1.65503417806812214 a4_x5
+0.60421712932072114 a4_x1
+1.51374596254360316 a4_x6
<= 179.450356

a4_local_7: 
+1.36152891924892594 a4_x6
+0.73446842432964266 a4_x3
+1.14952838892350440 a4_x2
<= 216.735460

a4_local_8: 
+0.48751508369058344 a4_x2
+0.57804359929800875 a4_x6
+0.85124112225802451 a4_x5
<= 97.310779

a4_act_1: 
+0.09999999999999999 a4_x1
-10.00000000000000000 a4_z1
<= 0.000000

a4_act_2: 
+0.06186442283902916 a4_x2
-6.18644228390291584 a4_z2
<= 0.000000

coupling_1: 
+0.00005588398568829 a1_x1
+0.00178855098026811 a2_x1
+0.03386914856596723 a3_x1
+0.78605935854168085 a4_x1
+0.00559833226154791 short_1
-0.00559833226154791 surp_1
= 60.606901

coupling_2: 
+0.00004191838448070 a1_x2
+0.00074885344102826 a2_x2
+0.02608729665097097 a3_x2
+0.51844970085123643 a4_x2
+0.00461627173460457 short_2
-0.00461627173460457 surp_2
= 19.643906

coupling_3: 
+0.00010315445273172 a1_x3
+0.00146930230375999 a2_x3
+0.02541984324781362 a3_x3
+0.71047152310198070 a4_x3
+0.00830923616343402 short_3
-0.00830923616343402 surp_3
= 43.047143

bounds
  0.000000 <= a1_x1 <= 100.000000
  0.000000 <= a1_x2 <= 100.000000
  0.000000 <= a1_x3 <= 100.000000
  0.000000 <= a1_x4 <= 100.000000
  0.000000 <= a1_x5 <= 100.000000
  0.000000 <= a1_x6 <= 100.000000
  0.000000 <= a2_x1 <= 100.000000
  0.000000 <= a2_x2 <= 100.000000
  0.000000 <= a2_x3 <= 100.000000
  0.000000 <= a2_x4 <= 100.000000
  0.000000 <= a2_x5 <= 100.000000
  0.000000 <= a2_x6 <= 100.000000
  0.000000 <= a3_x1 <= 100.000000
  0.000000 <= a3_x2 <= 100.000000
  0.000000 <= a3_x3 <= 100.000000
  0.000000 <= a3_x4 <= 100.000000
  0.000000 <= a3_x5 <= 100.000000
  0.000000 <= a3_x6 <= 100.000000
  0.000000 <= a4_x1 <= 100.000000
  0.000000 <= a4_x2 <= 100.000000
  0.000000 <= a4_x3 <= 100.000000
  0.000000 <= a4_x4 <= 100.000000
  0.000000 <= a4_x5 <= 100.000000
  0.000000 <= a4_x6 <= 100.000000
  0.000000 <= short_1 <= +inf
  0.000000 <= surp_1 <= +inf
  0.000000 <= short_2 <= +inf
  0.000000 <= surp_2 <= +inf
  0.000000 <= short_3 <= +inf
  0.000000 <= surp_3 <= +inf
 0 <= a1_z1 <= 1
 0 <= a1_z2 <= 1
 0 <= a2_z1 <= 1
 0 <= a2_z2 <= 1
 0 <= a3_z1 <= 1
 0 <= a3_z2 <= 1
 0 <= a4_z1 <= 1
 0 <= a4_z2 <= 1

binary
  a1_z1
  a1_z2
  a2_z1
  a2_z2
  a3_z1
  a3_z2
  a4_z1
  a4_z2
end
