min
obj: 
  +1.58690782181034451 a1_x1
  +1.85914319529187777 a1_x2
  +3.32311090405199927 a1_x3
  +9.20870591814637862 a1_x4
  +9.62032466035919853 a1_x5
  +2.65221673698665317 a1_x6
  +45.97121590191820673 a1_z1
  +15.23159126469524693 a1_z2
  +7.38516429138446995 a2_x1
  +8.18461543331298103 a2_x2
  +6.32869026358351139 a2_x3
  +1.72084034317845602 a2_x4
  +2.51957804121249751 a2_x5
  +8.19694216322757185 a2_x6
  +32.90972281828447876 a2_z1
  +29.00608133785045339 a2_z2
  +9.62518175189459946 a3_x1
  +3.90094189534807345 a3_x2
  +1.32195101356612454 a3_x3
  +4.74857750195312356 a3_x4
  +3.55589835486331518 a3_x5
  +8.12436598238075014 a3_x6
  +20.82211554905935103 a3_z1
  +25.22287462451485496 a3_z2
  +3.97402812736189226 a4_x1
  +5.87257606585061964 a4_x2
  +8.54493066197249362 a4_x3
  +7.89453690964795740 a4_x4
  +2.70429770668290548 a4_x5
  +9.26226871331643586 a4_x6
  +13.31023289155729650 a4_z1
  +27.54299042523267715 a4_z2
  +1000000.00000000000000000 short_1
  +1000000.00000000000000000 surp_1
  +1000000.00000000000000000 short_2
  +1000000.00000000000000000 surp_2
  +1000000.00000000000000000 short_3
  +1000000.00000000000000000 surp_3

s.t.

a1_local_1: 
+0.53246830785528043 a1_x4
+0.69012198110526712 a1_x1
+0.49011136726776255 a1_x3
<= 75.931814

a1_local_2: 
+0.92429768641700294 a1_x2
+0.62828860628994887 a1_x4
+0.71668967494412572 a1_x3
<= 152.811836

a1_local_3: 
+0.39363520896456561 a1_x6
+0.78920363589640452 a1_x4
+0.47139043621112853 a1_x1
<= 71.439889

a1_local_4: 
+0.63759636823170895 a1_x6
+0.56665544691223790 a1_x2
+0.52189316502750516 a1_x1
<= 67.621855

a1_local_5: 
+0.40846880477800940 a1_x1
+0.59511297047828338 a1_x2
+0.69209377102509606 a1_x5
<= 88.502185

a1_local_6: 
+0.42686743713977265 a1_x1
+0.67541372727482651 a1_x2
+0.60133226099923198 a1_x6
<= 61.782550

a1_local_7: 
+0.33550665993360723 a1_x5
+0.71373623814206655 a1_x2
+0.61482994681700887 a1_x4
<= 110.233294

a1_local_8: 
+0.63697201480423715 a1_x1
+0.44880667154185594 a1_x2
+0.62676887601072784 a1_x3
<= 107.304967

a1_act_1: 
+0.00999950003749688 a1_x1
-0.99995000374968757 a1_z1
<= 0.000000

a1_act_2: 
+0.00999950003749688 a1_x2
-0.99995000374968768 a1_z2
<= 0.000000

a2_local_1: 
+0.53414568675018748 a2_x1
+1.35948914997252412 a2_x5
+0.81447931545808461 a2_x3
<= 144.965295

a2_local_2: 
+0.59598573706145574 a2_x4
+1.40842436560399720 a2_x2
+1.14945535901422646 a2_x5
<= 144.328917

a2_local_3: 
+0.63861542181410980 a2_x2
+0.56816630194893958 a2_x1
+0.51899652826474008 a2_x5
<= 57.358890

a2_local_4: 
+0.63488124547400782 a2_x6
+0.43309552396088674 a2_x2
+0.63980783933179308 a2_x4
<= 79.787787

a2_local_5: 
+0.38430315262398568 a2_x1
+0.69611865206745305 a2_x6
+0.60640737885274598 a2_x2
<= 79.963330

a2_local_6: 
+0.57487758146634427 a2_x4
+0.60226727613655739 a2_x6
+0.55388617460851841 a2_x5
<= 90.770540

a2_local_7: 
+0.97331577736427399 a2_x4
+0.67170539681421759 a2_x6
+1.30400253654364584 a2_x3
<= 181.425587

a2_local_8: 
+0.67337856361790527 a2_x5
+0.58705384102281077 a2_x1
+0.44936521650017708 a2_x4
<= 111.387106

a2_act_1: 
+0.00999950003749688 a2_x1
-0.99995000374968757 a2_z1
<= 0.000000

a2_act_2: 
+0.00999950003749688 a2_x2
-0.99995000374968745 a2_z2
<= 0.000000

a3_local_1: 
+0.61901247814665172 a3_x3
+0.71777423678678243 a3_x5
+0.31878471874274789 a3_x4
<= 57.360397

a3_local_2: 
+0.59764495162547260 a3_x3
+0.66446095025478280 a3_x5
+0.44867823368545245 a3_x2
<= 87.120231

a3_local_3: 
+0.46365429726410096 a3_x5
+0.59152824592302933 a3_x6
+0.65963552580478624 a3_x2
<= 86.025906

a3_local_4: 
+0.61059069376005559 a3_x4
+0.53414751294956686 a3_x3
+0.25710486472056515 a3_x1
<= 61.213295

a3_local_5: 
+0.71826790167457422 a3_x1
+0.61124667272427946 a3_x4
+0.33236835966665351 a3_x5
<= 95.346588

a3_local_6: 
+0.39874655304907530 a3_x5
+0.72397073837245529 a3_x4
+0.56290990079401027 a3_x6
<= 68.173857

a3_local_7: 
+0.64657871153568125 a3_x5
+0.49624509506998427 a3_x4
+0.57937619506486504 a3_x2
<= 104.555242

a3_local_8: 
+0.74893859942649499 a3_x6
+0.34223122238462639 a3_x2
+0.56742291521774491 a3_x3
<= 90.497383

a3_act_1: 
+0.00550313549370440 a3_x1
-0.55031354937043997 a3_z1
<= 0.000000

a3_act_2: 
+0.00999950003749688 a3_x2
-0.99995000374968757 a3_z2
<= 0.000000

a4_local_1: 
+0.32759595817054060 a4_x3
+0.27465605418401834 a4_x2
+0.44270675371125706 a4_x4
<= 61.850567

a4_local_2: 
+0.64808858862810526 a4_x5
+0.32804273085199470 a4_x4
+0.68729116684648006 a4_x1
<= 66.743245

a4_local_3: 
+0.48683511536909579 a4_x3
+0.58943244357704672 a4_x2
+0.64464018250676147 a4_x6
<= 98.660895

a4_local_4: 
+0.51997354613037328 a4_x1
+0.61544933228311505 a4_x6
+0.59232561207233980 a4_x5
<= 79.817993

a4_local_5: 
+0.56662000448558125 a4_x1
+0.62763989475477278 a4_x2
+0.53386321565451345 a4_x6
<= 67.980091

a4_local_6: 
+0.28357326232914631 a4_x6
+0.83305908349641022 a4_x3
+0.47497238687751719 a4_x5
<= 65.273324

a4_local_7: 
+0.48611282887096735 a4_x1
+0.51038557666546003 a4_x4
+0.70936653483155743 a4_x5
<= 54.928813

a4_local_8: 
+0.29222802585820140 a4_x5
+0.25746241706096146 a4_x1
+0.39557214141718355 a4_x6
<= 53.935018

a4_act_1: 
+0.00999950003749688 a4_x1
-0.99995000374968745 a4_z1
<= 0.000000

a4_act_2: 
+0.00999950003749688 a4_x2
-0.99995000374968757 a4_z2
<= 0.000000

coupling_1: 
+0.00010414477569683 a1_x1
+0.00151928101990911 a2_x1
+0.02358468616782647 a3_x1
+0.99967042667064299 a4_x1
+0.00708807299440432 short_1
-0.00708807299440432 surp_1
= 60.916782

coupling_2: 
+0.00013074080123748 a1_x2
+0.00137184757715469 a2_x2
+0.07357009472305227 a3_x2
+0.99715500756960118 a4_x2
+0.01156358470323061 short_2
-0.01156358470323061 surp_2
= 83.344463

coupling_3: 
+0.00007736439439219 a1_x3
+0.00147829208180423 a2_x3
+0.06517552224873306 a3_x3
+0.99773459662846753 a4_x3
+0.01173956254520904 short_3
-0.01173956254520904 surp_3
= 54.266372

bounds
  0.000000 <= a1_x1 <= 100.000000
  0.000000 <= a1_x2 <= 100.000000
  0.000000 <= a1_x3 <= 100.000000
  0.000000 <= a1_x4 <= 100.000000
  0.000000 <= a1_x5 <= 100.000000
  0.000000 <= a1_x6 <= 100.000000
  0.000000 <= a2_x1 <= 100.000000
  0.000000 <= a2_x2 <= 100.000000
  0.000000 <= a2_x3 <= 100.000000
  0.000000 <= a2_x4 <= 100.000000
  0.000000 <= a2_x5 <= 100.000000
  0.000000 <= a2_x6 <= 100.000000
  0.000000 <= a3_x1 <= 100.000000
  0.000000 <= a3_x2 <= 100.000000
  0.000000 <= a3_x3 <= 100.000000
  0.000000 <= a3_x4 <= 100.000000
  0.000000 <= a3_x5 <= 100.000000
  0.000000 <= a3_x6 <= 100.000000
  0.000000 <= a4_x1 <= 100.000000
  0.000000 <= a4_x2 <= 100.000000
  0.000000 <= a4_x3 <= 100.000000
  0.000000 <= a4_x4 <= 100.000000
  0.000000 <= a4_x5 <= 100.000000
  0.000000 <= a4_x6 <= 100.000000
  0.000000 <= short_1 <= +inf
  0.000000 <= surp_1 <= +inf
  0.000000 <= short_2 <= +inf
  0.000000 <= surp_2 <= +inf
  0.000000 <= short_3 <= +inf
  0.000000 <= surp_3 <= +inf
 0 <= a1_z1 <= 1
 0 <= a1_z2 <= 1
 0 <= a2_z1 <= 1
 0 <= a2_z2 <= 1
 0 <= a3_z1 <= 1
 0 <= a3_z2 <= 1
 0 <= a4_z1 <= 1
 0 <= a4_z2 <= 1

binary
  a1_z1
  a1_z2
  a2_z1
  a2_z2
  a3_z1
  a3_z2
  a4_z1
  a4_z2
end
