min
obj: 
  +3.05711040055168581 a1_x1
  +8.05560131874530505 a1_x2
  +1.97423451738110156 a1_x3
  +4.43855917145081946 a1_x4
  +2.09177435273224699 a1_x5
  +8.36067334918018190 a1_x6
  +15.66642560195388789 a1_z1
  +12.32473257168471292 a1_z2
  +3.90447270498543908 a2_x1
  +3.19064241710492480 a2_x2
  +7.25662050376060552 a2_x3
  +4.24034203150857802 a2_x4
  +1.72165381936256479 a2_x5
  +9.86521199550605488 a2_x6
  +47.43293385770623871 a2_z1
  +10.01849972745584338 a2_z2
  +7.66342890098139051 a3_x1
  +6.60319515439368221 a3_x2
  +5.66277254283255616 a3_x3
  +4.15025934339557701 a3_x4
  +2.04336446202724131 a3_x5
  +3.95648142420414572 a3_x6
  +26.64691344464440093 a3_z1
  +25.19269856348255487 a3_z2
  +2.43191733608034033 a4_x1
  +1.25980278183489802 a4_x2
  +6.71866199762658312 a4_x3
  +9.23282830324045278 a4_x4
  +5.85378359150520033 a4_x5
  +9.83498899970064500 a4_x6
  +10.08347259986509314 a4_z1
  +40.29173016694412013 a4_z2
  +1000000.00000000000000000 short_1
  +1000000.00000000000000000 surp_1
  +1000000.00000000000000000 short_2
  +1000000.00000000000000000 surp_2
  +1000000.00000000000000000 short_3
  +1000000.00000000000000000 surp_3

s.t.

a1_local_1: 
+0.00422759138654061 a1_x5
+0.00695844903321326 a1_x1
+0.00292914192826803 a1_x6
<= 0.552207

a1_local_2: 
+0.00632665663233452 a1_x6
+0.01262061652453619 a1_x4
+0.01100589861033120 a1_x2
<= 1.281945

a1_local_3: 
+1.57664127672275245 a1_x4
+0.70114536123867288 a1_x5
+1.22165145358717542 a1_x1
<= 231.322623

a1_local_4: 
+3.79799830812689843 a1_x3
+1.35037614314853660 a1_x1
+1.67314456880474949 a1_x4
<= 300.763903

a1_local_5: 
+0.20985032740236759 a1_x4
+0.24823442334625090 a1_x5
+0.28043574796886944 a1_x1
<= 22.811319

a1_local_6: 
+0.01819670081485136 a1_x2
+0.02367209725613822 a1_x5
+0.03042513181503585 a1_x6
<= 2.742027

a1_local_7: 
+0.00003163750363394 a1_x1
+0.00003537097551801 a1_x3
+0.00002852482163056 a1_x5
<= 0.005601

a1_local_8: 
+0.23766822025133669 a1_x3
+0.20865167544575527 a1_x4
+0.15311984970876819 a1_x1
<= 21.279581

a1_act_1: 
+0.00727149134468315 a1_x1
-0.72714913446831475 a1_z1
<= 0.000000

a1_act_2: 
+3.35918456317260938 a1_x2
-335.91845631726096144 a1_z2
<= 0.000000

a2_local_1: 
+8.32444357132920665 a2_x2
+4.77342573670638082 a2_x6
+12.24708565887813805 a2_x4
<= 1724.643795

a2_local_2: 
+0.00792329448021527 a2_x2
+0.00859199701495874 a2_x5
+0.00893066464026499 a2_x3
<= 1.543935

a2_local_3: 
+0.14571094794462125 a2_x3
+0.11548131620223213 a2_x5
+0.12122253935556312 a2_x2
<= 17.514450

a2_local_4: 
+0.00377307484014182 a2_x1
+0.00806175041357169 a2_x5
+0.00546363728766843 a2_x6
<= 1.110280

a2_local_5: 
+3.85320534551998861 a2_x2
+4.66276269722022629 a2_x6
+2.62687582522616969 a2_x1
<= 667.166789

a2_local_6: 
+0.00082143942932823 a2_x1
+0.00105265605749324 a2_x5
+0.00061449499128157 a2_x4
<= 0.163024

a2_local_7: 
+0.67969372047248089 a2_x6
+0.46054545972900518 a2_x3
+0.76064852471245892 a2_x4
<= 60.372055

a2_local_8: 
+0.05535785061987293 a2_x3
+0.06221618106801954 a2_x1
+0.03716784205362237 a2_x4
<= 8.253037

a2_act_1: 
+16.62545177961943921 a2_x1
-1662.54517796194386392 a2_z1
<= 0.000000

a2_act_2: 
+0.23479626078916677 a2_x2
-23.47962607891667730 a2_z2
<= 0.000000

a3_local_1: 
+10.05504520332589458 a3_x5
+9.26846503350951956 a3_x6
+5.31897635013623482 a3_x2
<= 1140.441660

a3_local_2: 
+293.35494022097986999 a3_x3
+221.58206754659545368 a3_x1
+381.51943723526579788 a3_x5
<= 57846.819900

a3_local_3: 
+3.42558378393973362 a3_x6
+6.40857670464337392 a3_x2
+7.24108451095321293 a3_x3
<= 833.783309

a3_local_4: 
+123.52004487686789957 a3_x5
+168.83758832637965952 a3_x6
+152.68560590356182161 a3_x3
<= 18442.402852

a3_local_5: 
+0.02359487695674609 a3_x5
+0.01673620164037791 a3_x6
+0.01357435924788847 a3_x4
<= 2.038779

a3_local_6: 
+0.17480381246210000 a3_x3
+0.14221964182404398 a3_x6
+0.18733114600663284 a3_x2
<= 16.212742

a3_local_7: 
+1250.39410222309015808 a3_x4
+1245.87537860702082071 a3_x6
+1325.05239431335826339 a3_x3
<= 133056.784453

a3_local_8: 
+7.61111216176375560 a3_x6
+4.60288242322266949 a3_x3
+3.58268390334425701 a3_x5
<= 826.051961

a3_act_1: 
+0.00362329230163447 a3_x1
-0.36232923016344681 a3_z1
<= 0.000000

a3_act_2: 
+3.00426796121032647 a3_x2
-300.42679612103262343 a3_z2
<= 0.000000

a4_local_1: 
+2577.55113582377452985 a4_x4
+5131.82003929988695745 a4_x1
+2016.67605763410483632 a4_x6
<= 625288.788021

a4_local_2: 
+1092.67111490680258612 a4_x2
+1203.53228022284724830 a4_x6
+514.97122583344446412 a4_x1
<= 149416.925443

a4_local_3: 
+25712.38318293763222755 a4_x4
+37362.94947315323224757 a4_x3
+28038.08045163881979533 a4_x5
<= 3749367.781468

a4_local_4: 
+79.85221491678534278 a4_x1
+152.04951788776230615 a4_x6
+92.22971087260465595 a4_x4
<= 22352.757313

a4_local_5: 
+28576.91956949067025562 a4_x3
+27998.22777863587907632 a4_x6
+30218.50652398170495871 a4_x4
<= 5373307.528664

a4_local_6: 
+6.87020060853842196 a4_x3
+4.09409226619057698 a4_x1
+5.19194740307994973 a4_x5
<= 694.137491

a4_local_7: 
+936.52710638978692259 a4_x5
+1582.40670555883502857 a4_x4
+903.01892209375159837 a4_x3
<= 196956.786401

a4_local_8: 
+0.36363433392006461 a4_x1
+0.47440699838168976 a4_x4
+0.37313607211695254 a4_x6
<= 47.957559

a4_act_1: 
+1.15367258113184401 a4_x1
-115.36725811318440549 a4_z1
<= 0.000000

a4_act_2: 
+0.02732099206595226 a4_x2
-2.73209920659522654 a4_z2
<= 0.000000

coupling_1: 
+0.00023492407852229 a1_x1
+0.00280668018463189 a2_x1
+0.07600149692139781 a3_x1
+1.68311971121244830 a4_x1
+0.01781294532608765 short_1
-0.01781294532608765 surp_1
= 55.693804

coupling_2: 
+0.00122161117609245 a1_x2
+0.02213402662648179 a2_x2
+0.40903994709409242 a3_x2
+10.06669045917390726 a4_x2
+0.09158252906338167 short_2
-0.09158252906338167 surp_2
= 460.655422

coupling_3: 
+0.00000619988354696 a1_x3
+0.00020405061565773 a2_x3
+0.00460029738826821 a3_x3
+0.16673043135869584 a4_x3
+0.00112604435904430 short_3
-0.00112604435904430 surp_3
= 11.792631

bounds
  0.000000 <= a1_x1 <= 100.000000
  0.000000 <= a1_x2 <= 100.000000
  0.000000 <= a1_x3 <= 100.000000
  0.000000 <= a1_x4 <= 100.000000
  0.000000 <= a1_x5 <= 100.000000
  0.000000 <= a1_x6 <= 100.000000
  0.000000 <= a2_x1 <= 100.000000
  0.000000 <= a2_x2 <= 100.000000
  0.000000 <= a2_x3 <= 100.000000
  0.000000 <= a2_x4 <= 100.000000
  0.000000 <= a2_x5 <= 100.000000
  0.000000 <= a2_x6 <= 100.000000
  0.000000 <= a3_x1 <= 100.000000
  0.000000 <= a3_x2 <= 100.000000
  0.000000 <= a3_x3 <= 100.000000
  0.000000 <= a3_x4 <= 100.000000
  0.000000 <= a3_x5 <= 100.000000
  0.000000 <= a3_x6 <= 100.000000
  0.000000 <= a4_x1 <= 100.000000
  0.000000 <= a4_x2 <= 100.000000
  0.000000 <= a4_x3 <= 100.000000
  0.000000 <= a4_x4 <= 100.000000
  0.000000 <= a4_x5 <= 100.000000
  0.000000 <= a4_x6 <= 100.000000
  0.000000 <= short_1 <= +inf
  0.000000 <= surp_1 <= +inf
  0.000000 <= short_2 <= +inf
  0.000000 <= surp_2 <= +inf
  0.000000 <= short_3 <= +inf
  0.000000 <= surp_3 <= +inf
 0 <= a1_z1 <= 1
 0 <= a1_z2 <= 1
 0 <= a2_z1 <= 1
 0 <= a2_z2 <= 1
 0 <= a3_z1 <= 1
 0 <= a3_z2 <= 1
 0 <= a4_z1 <= 1
 0 <= a4_z2 <= 1

binary
  a1_z1
  a1_z2
  a2_z1
  a2_z2
  a3_z1
  a3_z2
  a4_z1
  a4_z2
end
