min
obj: 
  +9.92789069156587445 a1_x1
  +4.10293210566149646 a1_x2
  +3.32901181929639423 a1_x3
  +9.10176472428019245 a1_x4
  +1.02767819950250816 a1_x5
  +7.50152284301075145 a1_x6
  +48.47610588570461232 a1_z1
  +46.46239370281180214 a1_z2
  +3.18500776910177885 a2_x1
  +1.07942930179392071 a2_x2
  +3.49956447593909603 a2_x3
  +4.21239525423910788 a2_x4
  +5.82517656009187501 a2_x5
  +3.89342540667494053 a2_x6
  +48.49908581708631061 a2_z1
  +41.13663869847970034 a2_z2
  +2.67192419795283609 a3_x1
  +3.86821883222705321 a3_x2
  +5.91403436703844054 a3_x3
  +8.81180590098727734 a3_x4
  +5.97909561349352625 a3_x5
  +2.68685564033826729 a3_x6
  +5.18637677701330446 a3_z1
  +6.88066661844991856 a3_z2
  +1.28562252519206366 a4_x1
  +5.29948947704055140 a4_x2
  +9.02951063485292771 a4_x3
  +3.08226664425655672 a4_x4
  +2.19298535751718138 a4_x5
  +7.06762935071550480 a4_x6
  +41.57694264723444633 a4_z1
  +44.44096075316435446 a4_z2
  +1000000.00000000000000000 short_1
  +1000000.00000000000000000 surp_1
  +1000000.00000000000000000 short_2
  +1000000.00000000000000000 surp_2
  +1000000.00000000000000000 short_3
  +1000000.00000000000000000 surp_3

s.t.

a1_local_1: 
+0.64487030906653131 a1_x4
+0.62715795005958985 a1_x6
+0.43682398075367790 a1_x1
<= 68.134169

a1_local_2: 
+0.44737937552888840 a1_x6
+0.53786898669433558 a1_x5
+0.71452686968636159 a1_x4
<= 75.808377

a1_local_3: 
+0.69187850913634241 a1_x3
+0.55961814760745210 a1_x1
+0.45621448624926003 a1_x6
<= 101.420874

a1_local_4: 
+0.64076899997732251 a1_x5
+0.67641350257041100 a1_x2
+0.36315267066137685 a1_x4
<= 70.831046

a1_local_5: 
+0.39715983147360523 a1_x4
+0.78120394458983666 a1_x2
+0.48164765671716581 a1_x5
<= 99.004583

a1_local_6: 
+0.68485032841912152 a1_x3
+0.64617948147040316 a1_x4
+0.33679683102853286 a1_x1
<= 64.223494

a1_local_7: 
+0.66021050181277308 a1_x1
+0.49253464439347378 a1_x2
+0.56703766838572633 a1_x5
<= 90.782936

a1_local_8: 
+0.60048625924283983 a1_x5
+0.64977477468682576 a1_x2
+0.46605685773436040 a1_x4
<= 77.921615

a1_act_1: 
+0.01461655073259480 a1_x1
-1.46165507325948019 a1_z1
<= 0.000000

a1_act_2: 
+0.00999950003749688 a1_x2
-0.99995000374968745 a1_z2
<= 0.000000

a2_local_1: 
+0.32044464506320330 a2_x6
+0.19534944545676564 a2_x4
+0.46075195891357151 a2_x1
<= 64.721793

a2_local_2: 
+0.61132284953184857 a2_x2
+0.59031462912152299 a2_x1
+0.52707970202368792 a2_x4
<= 96.282683

a2_local_3: 
+0.65523060180262294 a2_x3
+0.67391663327311346 a2_x4
+0.34133448384129672 a2_x5
<= 116.087398

a2_local_4: 
+0.37959269927598360 a2_x4
+0.65057410562144435 a2_x3
+0.65777102075967919 a2_x2
<= 62.485851

a2_local_5: 
+0.62579411179431610 a2_x1
+0.41209212010096363 a2_x4
+0.66223999742861783 a2_x2
<= 73.794910

a2_local_6: 
+0.36063709666573490 a2_x3
+0.74443169307690982 a2_x5
+0.56192734303569458 a2_x1
<= 105.777156

a2_local_7: 
+0.44695403758900681 a2_x3
+0.57421353435983591 a2_x6
+0.68593797477677987 a2_x4
<= 112.351190

a2_local_8: 
+0.45417675825293097 a2_x1
+0.83119548841097990 a2_x6
+0.78494687134830554 a2_x5
<= 121.571563

a2_act_1: 
+0.00999950003749688 a2_x1
-0.99995000374968745 a2_z1
<= 0.000000

a2_act_2: 
+0.00999950003749688 a2_x2
-0.99995000374968757 a2_z2
<= 0.000000

a3_local_1: 
+0.71358288090222233 a3_x1
+0.63176022955442346 a3_x4
+0.30278455118553715 a3_x2
<= 63.469988

a3_local_2: 
+0.38781087529701169 a3_x6
+0.70025373615686692 a3_x4
+0.59937253023450654 a3_x1
<= 65.660706

a3_local_3: 
+0.78080195138319808 a3_x2
+0.47951594796831620 a3_x3
+0.40051562810986191 a3_x5
<= 86.885050

a3_local_4: 
+0.24486722064174715 a3_x5
+0.44120520328981389 a3_x1
+0.36445555394502310 a3_x6
<= 46.986831

a3_local_5: 
+0.56253379692003902 a3_x6
+0.39202186068769773 a3_x3
+0.72792485056197920 a3_x1
<= 64.080460

a3_local_6: 
+0.52683728921957140 a3_x2
+0.64773196948122647 a3_x6
+0.55035058499082656 a3_x4
<= 71.162242

a3_local_7: 
+0.65210837055157034 a3_x2
+0.30770131147342566 a3_x5
+0.69287414151064242 a3_x4
<= 87.701228

a3_local_8: 
+0.61440012342858352 a3_x2
+0.66150209910170155 a3_x1
+0.43003193045980231 a3_x5
<= 105.992799

a3_act_1: 
+0.00999950003749687 a3_x1
-0.99995000374968745 a3_z1
<= 0.000000

a3_act_2: 
+0.00917602504732128 a3_x2
-0.91760250473212812 a3_z2
<= 0.000000

a4_local_1: 
+0.68398731547087077 a4_x2
+0.30701050273891412 a4_x6
+0.66174459082258530 a4_x5
<= 108.654500

a4_local_2: 
+0.29355431155367590 a4_x3
+0.74378320935682118 a4_x5
+0.60051011952099065 a4_x1
<= 94.295715

a4_local_3: 
+0.46504008228414995 a4_x4
+0.66662887429837736 a4_x3
+0.58253211569906527 a4_x6
<= 105.226864

a4_local_4: 
+0.73273612164256785 a4_x5
+0.47968518718265607 a4_x1
+0.48270062900077970 a4_x4
<= 81.744403

a4_local_5: 
+0.44154259406591378 a4_x5
+0.79200384505297183 a4_x6
+0.42162785373697981 a4_x1
<= 101.920633

a4_local_6: 
+0.60353779186966161 a4_x4
+0.60342364200718224 a4_x3
+0.52117371581065075 a4_x2
<= 72.145994

a4_local_7: 
+0.49161390536252247 a4_x3
+0.78464791920210564 a4_x6
+0.37768162643424236 a4_x1
<= 100.568893

a4_local_8: 
+0.54785981381314153 a4_x3
+0.56789266677678474 a4_x2
+0.61428620644597076 a4_x6
<= 65.765068

a4_act_1: 
+0.00999950003749688 a4_x1
-0.99995000374968757 a4_z1
<= 0.000000

a4_act_2: 
+0.00999950003749688 a4_x2
-0.99995000374968757 a4_z2
<= 0.000000

coupling_1: 
+0.00004281922530553 a1_x1
+0.00118542358162602 a2_x1
+0.02276211224512359 a3_x1
+0.50590635464652078 a4_x1
+0.00440435657054093 short_1
-0.00440435657054093 surp_1
= 15.469946

coupling_2: 
+0.00012935937464519 a1_x2
+0.00213979751089250 a2_x2
+0.10715363045609239 a3_x2
+0.99391305499049087 a4_x2
+0.01803251413853837 short_2
-0.01803251413853837 surp_2
= 62.032402

coupling_3: 
+0.00005369660146540 a1_x3
+0.00086200777755902 a2_x3
+0.03219103782852389 a3_x3
+0.99943339857216718 a4_x3
+0.00692361759763204 short_3
-0.00692361759763204 surp_3
= 36.619783

bounds
  0.000000 <= a1_x1 <= 100.000000
  0.000000 <= a1_x2 <= 100.000000
  0.000000 <= a1_x3 <= 100.000000
  0.000000 <= a1_x4 <= 100.000000
  0.000000 <= a1_x5 <= 100.000000
  0.000000 <= a1_x6 <= 100.000000
  0.000000 <= a2_x1 <= 100.000000
  0.000000 <= a2_x2 <= 100.000000
  0.000000 <= a2_x3 <= 100.000000
  0.000000 <= a2_x4 <= 100.000000
  0.000000 <= a2_x5 <= 100.000000
  0.000000 <= a2_x6 <= 100.000000
  0.000000 <= a3_x1 <= 100.000000
  0.000000 <= a3_x2 <= 100.000000
  0.000000 <= a3_x3 <= 100.000000
  0.000000 <= a3_x4 <= 100.000000
  0.000000 <= a3_x5 <= 100.000000
  0.000000 <= a3_x6 <= 100.000000
  0.000000 <= a4_x1 <= 100.000000
  0.000000 <= a4_x2 <= 100.000000
  0.000000 <= a4_x3 <= 100.000000
  0.000000 <= a4_x4 <= 100.000000
  0.000000 <= a4_x5 <= 100.000000
  0.000000 <= a4_x6 <= 100.000000
  0.000000 <= short_1 <= +inf
  0.000000 <= surp_1 <= +inf
  0.000000 <= short_2 <= +inf
  0.000000 <= surp_2 <= +inf
  0.000000 <= short_3 <= +inf
  0.000000 <= surp_3 <= +inf
 0 <= a1_z1 <= 1
 0 <= a1_z2 <= 1
 0 <= a2_z1 <= 1
 0 <= a2_z2 <= 1
 0 <= a3_z1 <= 1
 0 <= a3_z2 <= 1
 0 <= a4_z1 <= 1
 0 <= a4_z2 <= 1

binary
  a1_z1
  a1_z2
  a2_z1
  a2_z2
  a3_z1
  a3_z2
  a4_z1
  a4_z2
end
