min
obj: 
  +4.68205187695116365 a1_x1
  +5.71291625483064269 a1_x2
  +9.00563589084773142 a1_x3
  +9.01724711762336106 a1_x4
  +9.40638568868457803 a1_x5
  +5.77535620951187667 a1_x6
  +36.44079832510822570 a1_z1
  +20.35589591192510284 a1_z2
  +9.85237733259970305 a2_x1
  +8.66656609951932211 a2_x2
  +1.31834896047554095 a2_x3
  +8.26919439786070853 a2_x4
  +6.06353184831551140 a2_x5
  +3.26315819103542193 a2_x6
  +31.01579944565894920 a2_z1
  +42.14273897613190911 a2_z2
  +3.40700085697226296 a3_x1
  +9.41882509326676143 a3_x2
  +9.74900107951637906 a3_x3
  +7.04508203399397814 a3_x4
  +9.97637618984075480 a3_x5
  +5.84735535483849578 a3_x6
  +49.07354774414897491 a3_z1
  +13.99914181947612590 a3_z2
  +1.91431389506638183 a4_x1
  +6.10422017205319989 a4_x2
  +2.25748963263893865 a4_x3
  +5.65946667698913863 a4_x4
  +4.35204976180165826 a4_x5
  +6.78234121926408484 a4_x6
  +29.95675458969477134 a4_z1
  +32.97214499302464219 a4_z2
  +1000000.00000000000000000 short_1
  +1000000.00000000000000000 surp_1
  +1000000.00000000000000000 short_2
  +1000000.00000000000000000 surp_2
  +1000000.00000000000000000 short_3
  +1000000.00000000000000000 surp_3

s.t.

a1_local_1: 
+0.00007155418495222 a1_x4
+0.00005854557231285 a1_x2
+0.00003855043179221 a1_x6
<= 0.007399

a1_local_2: 
+0.00497290520746747 a1_x3
+0.00222409213651427 a1_x4
+0.00448163023800631 a1_x5
<= 0.490595

a1_local_3: 
+0.19304074150227110 a1_x1
+0.33938788128421282 a1_x3
+0.25383876514122045 a1_x6
<= 40.941415

a1_local_4: 
+0.00005332292326452 a1_x2
+0.00004632776854647 a1_x1
+0.00009172382413961 a1_x5
<= 0.009155

a1_local_5: 
+0.39348222751484507 a1_x2
+0.64066596104730300 a1_x3
+0.65689142701698289 a1_x5
<= 72.017480

a1_local_6: 
+0.00005055073856825 a1_x6
+0.00003555898830639 a1_x1
+0.00004490221437222 a1_x3
<= 0.006835

a1_local_7: 
+0.45816015602561272 a1_x4
+0.37092012443569417 a1_x2
+0.34173675473953996 a1_x5
<= 61.652794

a1_local_8: 
+0.00002659074265494 a1_x6
+0.00002595574631391 a1_x2
+0.00002121248479914 a1_x4
<= 0.004614

a1_act_1: 
+0.00443037256837444 a1_x1
-0.44303725683744438 a1_z1
<= 0.000000

a1_act_2: 
+0.26968627298348519 a1_x2
-26.96862729834851891 a1_z2
<= 0.000000

a2_local_1: 
+106.41444725341649757 a2_x2
+146.24877729437920948 a2_x6
+153.27578985107913923 a2_x5
<= 13459.639260

a2_local_2: 
+0.74102737782510697 a2_x1
+0.86944847985895712 a2_x4
+1.09523490845688820 a2_x5
<= 187.884470

a2_local_3: 
+10.92789816668127045 a2_x2
+7.58885763958152193 a2_x5
+4.70312578042567697 a2_x1
<= 1465.652305

a2_local_4: 
+1.21610172795716265 a2_x6
+2.33400877950865571 a2_x4
+1.29366739818347209 a2_x5
<= 180.633469

a2_local_5: 
+0.00061396704487985 a2_x5
+0.00113765199044321 a2_x3
+0.00079884670617711 a2_x6
<= 0.131810

a2_local_6: 
+12.05594735119027305 a2_x6
+8.42951361281385303 a2_x4
+11.01220080093420606 a2_x1
<= 1657.794999

a2_local_7: 
+20.71116513328281883 a2_x3
+18.91578259668094475 a2_x6
+23.55271839496812092 a2_x1
<= 2953.100942

a2_local_8: 
+0.73230032493250408 a2_x5
+0.73391553561691336 a2_x3
+0.79210467918101501 a2_x6
<= 157.080726

a2_act_1: 
+0.60307165466123980 a2_x1
-60.30716546612397622 a2_z1
<= 0.000000

a2_act_2: 
+0.00289253188097310 a2_x2
-0.28925318809731049 a2_z2
<= 0.000000

a3_local_1: 
+50.96082813530507138 a3_x5
+34.45304811687629609 a3_x2
+41.23759403107125365 a3_x3
<= 4904.378842

a3_local_2: 
+16.67761761167642121 a3_x2
+10.96104271261721941 a3_x3
+14.97362755139091384 a3_x4
<= 2160.207664

a3_local_3: 
+0.48779483946538571 a3_x6
+0.99149151782394573 a3_x4
+0.85111049240498637 a3_x1
<= 159.904131

a3_local_4: 
+0.03335593802409465 a3_x4
+0.03753630231588621 a3_x2
+0.01510960418202802 a3_x1
<= 4.234066

a3_local_5: 
+4.83801853623312894 a3_x3
+9.46247293771792641 a3_x5
+11.04288936567528090 a3_x2
<= 1253.582209

a3_local_6: 
+0.51119856333051328 a3_x1
+0.46311828035770103 a3_x6
+0.41651267258513985 a3_x2
<= 63.118202

a3_local_7: 
+432.92539789410324147 a3_x1
+577.57278347143744668 a3_x4
+325.79793260922866693 a3_x6
<= 45610.817260

a3_local_8: 
+33.41909027409156607 a3_x4
+15.92594033097229378 a3_x3
+25.62878095755248253 a3_x5
<= 4765.713169

a3_act_1: 
+0.02262243700343038 a3_x1
-2.26224370034303757 a3_z1
<= 0.000000

a3_act_2: 
+1.88264544411057333 a3_x2
-188.26454441105732940 a3_z2
<= 0.000000

a4_local_1: 
+532.85052511404796860 a4_x3
+406.16999930571103050 a4_x5
+465.12878381388503612 a4_x2
<= 89716.629028

a4_local_2: 
+43.69905393871830768 a4_x3
+20.51279060546812971 a4_x2
+30.56690528183255751 a4_x6
<= 3256.365875

a4_local_3: 
+0.47794076805095798 a4_x5
+0.74082778083118472 a4_x6
+0.88152842175115009 a4_x3
<= 123.005638

a4_local_4: 
+255.55010816343946090 a4_x3
+241.38960052231297482 a4_x6
+276.56678777089558707 a4_x1
<= 52577.498148

a4_local_5: 
+1.08589781350541870 a4_x3
+1.11887601074497667 a4_x6
+0.41217043973444389 a4_x5
<= 135.238455

a4_local_6: 
+116.60192255430916930 a4_x3
+121.24021160480923243 a4_x4
+164.09470441806428198 a4_x6
<= 23561.019562

a4_local_7: 
+2.38646419523563402 a4_x6
+2.13487477299825379 a4_x3
+3.15266682085707295 a4_x1
<= 519.227608

a4_local_8: 
+0.45107858237145948 a4_x1
+1.02529287585501927 a4_x6
+0.78219585206833919 a4_x3
<= 119.602364

a4_act_1: 
+0.01996051782142931 a4_x1
-1.99605178214293066 a4_z1
<= 0.000000

a4_act_2: 
+0.04817236456580058 a4_x2
-4.81723645658005850 a4_z2
<= 0.000000

coupling_1: 
+7.32923382071874929 a1_x1
+104.78473761896076155 a2_x1
+2173.20298697956877731 a3_x1
+97660.47515999013558030 a4_x1
+817.08059306382097020 short_1
-817.08059306382097020 surp_1
= 5043546.650096

coupling_2: 
+0.00650558285346241 a1_x2
+0.06652383068438378 a2_x2
+1.48302115498249831 a3_x2
+74.64254716712960658 a4_x2
+0.53827215397569872 short_2
-0.53827215397569872 surp_2
= 1813.321783

coupling_3: 
+0.09620907893834205 a1_x3
+3.47142515164259802 a2_x3
+36.72209274974349569 a3_x3
+1547.52675742618157528 a4_x3
+12.50485650361812873 short_3
-12.50485650361812873 surp_3
= 95476.303782

bounds
  0.000000 <= a1_x1 <= 100.000000
  0.000000 <= a1_x2 <= 100.000000
  0.000000 <= a1_x3 <= 100.000000
  0.000000 <= a1_x4 <= 100.000000
  0.000000 <= a1_x5 <= 100.000000
  0.000000 <= a1_x6 <= 100.000000
  0.000000 <= a2_x1 <= 100.000000
  0.000000 <= a2_x2 <= 100.000000
  0.000000 <= a2_x3 <= 100.000000
  0.000000 <= a2_x4 <= 100.000000
  0.000000 <= a2_x5 <= 100.000000
  0.000000 <= a2_x6 <= 100.000000
  0.000000 <= a3_x1 <= 100.000000
  0.000000 <= a3_x2 <= 100.000000
  0.000000 <= a3_x3 <= 100.000000
  0.000000 <= a3_x4 <= 100.000000
  0.000000 <= a3_x5 <= 100.000000
  0.000000 <= a3_x6 <= 100.000000
  0.000000 <= a4_x1 <= 100.000000
  0.000000 <= a4_x2 <= 100.000000
  0.000000 <= a4_x3 <= 100.000000
  0.000000 <= a4_x4 <= 100.000000
  0.000000 <= a4_x5 <= 100.000000
  0.000000 <= a4_x6 <= 100.000000
  0.000000 <= short_1 <= +inf
  0.000000 <= surp_1 <= +inf
  0.000000 <= short_2 <= +inf
  0.000000 <= surp_2 <= +inf
  0.000000 <= short_3 <= +inf
  0.000000 <= surp_3 <= +inf
 0 <= a1_z1 <= 1
 0 <= a1_z2 <= 1
 0 <= a2_z1 <= 1
 0 <= a2_z2 <= 1
 0 <= a3_z1 <= 1
 0 <= a3_z2 <= 1
 0 <= a4_z1 <= 1
 0 <= a4_z2 <= 1

binary
  a1_z1
  a1_z2
  a2_z1
  a2_z2
  a3_z1
  a3_z2
  a4_z1
  a4_z2
end
