min
obj: 
  +7.78207569299738466 a1_x1
  +2.62040292120299334 a1_x2
  +1.02293933329670939 a1_x3
  +7.19109322240713489 a1_x4
  +4.26327457704359070 a1_x5
  +6.02462654690972954 a1_x6
  +42.77102711119731282 a1_z1
  +28.11411837117618262 a1_z2
  +5.79112125901829966 a2_x1
  +5.43489317194582089 a2_x2
  +9.42596272358853859 a2_x3
  +8.92130525199075564 a2_x4
  +6.14845489869399664 a2_x5
  +2.14640938868183095 a2_x6
  +31.66094613130910673 a2_z1
  +6.98996133690631005 a2_z2
  +2.81862526144540748 a3_x1
  +1.36412059178846468 a3_x2
  +2.33366974601915000 a3_x3
  +2.45567759910651384 a3_x4
  +5.22782650613177147 a3_x5
  +6.66961894421152923 a3_x6
  +49.85791959361311854 a3_z1
  +30.64094479818616890 a3_z2
  +7.09948941464576322 a4_x1
  +9.56749156260526412 a4_x2
  +9.23547813869581802 a4_x3
  +8.94781396766327930 a4_x4
  +7.43389970639344355 a4_x5
  +1.79601697429660612 a4_x6
  +7.43041409826294341 a4_z1
  +14.53020430166953325 a4_z2
  +1000000.00000000000000000 short_1
  +1000000.00000000000000000 surp_1
  +1000000.00000000000000000 short_2
  +1000000.00000000000000000 surp_2
  +1000000.00000000000000000 short_3
  +1000000.00000000000000000 surp_3

s.t.

a1_local_1: 
+1.83153975859849250 a1_x4
+2.81412172777310499 a1_x6
+1.30753058908344988 a1_x3
<= 297.580448

a1_local_2: 
+0.00302151629320619 a1_x6
+0.00211828973695479 a1_x5
+0.00308249580406593 a1_x4
<= 0.435669

a1_local_3: 
+0.81859749366799972 a1_x4
+1.08005658293568252 a1_x2
+1.14917538825343102 a1_x3
<= 176.796730

a1_local_4: 
+0.00158124421421701 a1_x4
+0.00105281989331761 a1_x5
+0.00165588796837681 a1_x2
<= 0.218605

a1_local_5: 
+0.08334127075357615 a1_x2
+0.20280013439404482 a1_x5
+0.09891285330935182 a1_x4
<= 21.301305

a1_local_6: 
+0.88251366933261954 a1_x2
+1.01771654598041383 a1_x3
+0.51921984215153683 a1_x1
<= 131.143501

a1_local_7: 
+2.50114379024417754 a1_x5
+5.22425972359256008 a1_x2
+2.51383916479709457 a1_x6
<= 561.843782

a1_local_8: 
+0.17121502323958712 a1_x5
+0.30545688584125491 a1_x1
+0.22225361669884044 a1_x6
<= 42.945357

a1_act_1: 
+2.74246930166040803 a1_x1
-274.24693016604078366 a1_z1
<= 0.000000

a1_act_2: 
+365.62834758840654104 a1_x2
-36562.83475884065410355 a1_z2
<= 0.000000

a2_local_1: 
+0.00044155448648516 a2_x6
+0.00065911529780534 a2_x4
+0.00065569808525498 a2_x3
<= 0.110524

a2_local_2: 
+0.43785517794419615 a2_x5
+0.60711463376105013 a2_x4
+0.91210502026520601 a2_x6
<= 88.793450

a2_local_3: 
+0.03705802944037685 a2_x4
+0.02506722095895325 a2_x5
+0.04938074592164075 a2_x3
<= 3.454291

a2_local_4: 
+0.11273724052496270 a2_x5
+0.11132872901029492 a2_x6
+0.32016886413033185 a2_x4
<= 20.333208

a2_local_5: 
+1.47587061068020642 a2_x4
+0.91900060824219409 a2_x2
+1.84120505723527339 a2_x3
<= 201.749837

a2_local_6: 
+0.06871411417594930 a2_x5
+0.06074046649580948 a2_x4
+0.06257764321686735 a2_x3
<= 7.266077

a2_local_7: 
+130.82585728155288507 a2_x1
+209.84945897053631825 a2_x6
+140.20282169785332371 a2_x4
<= 33578.505053

a2_local_8: 
+0.00144918050701509 a2_x4
+0.00134599562875921 a2_x3
+0.00090514034510734 a2_x5
<= 0.141806

a2_act_1: 
+20.52088256250748088 a2_x1
-2052.08825625074814525 a2_z1
<= 0.000000

a2_act_2: 
+0.01800856727755041 a2_x2
-1.80085672775504069 a2_z2
<= 0.000000

a3_local_1: 
+283.61839392671953419 a3_x6
+433.94525749026507810 a3_x2
+357.43784184859021025 a3_x1
<= 71793.164302

a3_local_2: 
+9.23748159123646317 a3_x1
+6.21492565263147778 a3_x6
+5.15086695648861959 a3_x2
<= 1413.269352

a3_local_3: 
+0.54493461211124372 a3_x6
+1.30457555635951206 a3_x5
+0.61404917123484837 a3_x3
<= 130.629090

a3_local_4: 
+207.34792054440379161 a3_x2
+95.41040562943936720 a3_x6
+227.57778437105255875 a3_x4
<= 22494.158799

a3_local_5: 
+0.01027410809707945 a3_x1
+0.01370015949877103 a3_x5
+0.00917653142679599 a3_x3
<= 1.643349

a3_local_6: 
+628.53567129821647086 a3_x5
+744.01648375495426535 a3_x2
+615.56533507053131871 a3_x3
<= 102446.878637

a3_local_7: 
+2.82494145592157597 a3_x2
+2.31005308865396852 a3_x3
+3.36077463340836191 a3_x1
<= 453.720495

a3_local_8: 
+16.82395148884006986 a3_x6
+7.82103142881966118 a3_x1
+13.69899092374069838 a3_x2
<= 1744.292053

a3_act_1: 
+0.03104090328188804 a3_x1
-3.10409032818880393 a3_z1
<= 0.000000

a3_act_2: 
+0.01973669689085708 a3_x2
-1.97366968908570772 a3_z2
<= 0.000000

a4_local_1: 
+9740.79350760168017587 a4_x1
+22380.83132858047611080 a4_x6
+11811.66277774310765381 a4_x5
<= 2775106.497655

a4_local_2: 
+9138.28608081172023958 a4_x2
+4343.73836974129244481 a4_x5
+8519.15758581865884480 a4_x4
<= 1479154.399559

a4_local_3: 
+8205.34327983878392843 a4_x6
+6382.47344041483574983 a4_x2
+3759.31849463068965633 a4_x5
<= 1068462.005826

a4_local_4: 
+1756.02392776216788661 a4_x6
+1066.63308644397147873 a4_x3
+1842.11333180818360233 a4_x4
<= 295374.749087

a4_local_5: 
+328.13702920559700260 a4_x5
+333.80943734437670400 a4_x2
+571.96452815413840653 a4_x3
<= 49439.320897

a4_local_6: 
+6683.86859819155779405 a4_x1
+5699.88706572143655649 a4_x5
+6842.47669237417903787 a4_x4
<= 1060223.863400

a4_local_7: 
+0.50107268925314030 a4_x6
+0.96469772413972676 a4_x3
+0.79866208517819992 a4_x2
<= 136.150366

a4_local_8: 
+1149.33298991538617884 a4_x3
+1821.26004106686536943 a4_x6
+913.74688236565657462 a4_x4
<= 139995.449517

a4_act_1: 
+16.45227512731845820 a4_x1
-1645.22751273184576348 a4_z1
<= 0.000000

a4_act_2: 
+0.91457746355283298 a4_x2
-91.45774635528329100 a4_z2
<= 0.000000

coupling_1: 
+0.54544467670030350 a1_x1
+14.69672621247567612 a2_x1
+254.83520269270638892 a3_x1
+3598.85938362811612024 a4_x1
+55.38069154607764233 short_1
-55.38069154607764233 surp_1
= 273973.856193

coupling_2: 
+0.00083921667154562 a1_x2
+0.01607296360501607 a2_x2
+0.36425202778578120 a3_x2
+5.92890164157802868 a4_x2
+0.06007188281603628 short_2
-0.06007188281603628 surp_2
= 176.697295

coupling_3: 
+0.01234939155459164 a1_x3
+0.18728409011113303 a2_x3
+2.58706073763061850 a3_x3
+55.06853325895034601 a4_x3
+1.05615458892594960 short_3
-1.05615458892594960 surp_3
= 1297.540923

bounds
  0.000000 <= a1_x1 <= 100.000000
  0.000000 <= a1_x2 <= 100.000000
  0.000000 <= a1_x3 <= 100.000000
  0.000000 <= a1_x4 <= 100.000000
  0.000000 <= a1_x5 <= 100.000000
  0.000000 <= a1_x6 <= 100.000000
  0.000000 <= a2_x1 <= 100.000000
  0.000000 <= a2_x2 <= 100.000000
  0.000000 <= a2_x3 <= 100.000000
  0.000000 <= a2_x4 <= 100.000000
  0.000000 <= a2_x5 <= 100.000000
  0.000000 <= a2_x6 <= 100.000000
  0.000000 <= a3_x1 <= 100.000000
  0.000000 <= a3_x2 <= 100.000000
  0.000000 <= a3_x3 <= 100.000000
  0.000000 <= a3_x4 <= 100.000000
  0.000000 <= a3_x5 <= 100.000000
  0.000000 <= a3_x6 <= 100.000000
  0.000000 <= a4_x1 <= 100.000000
  0.000000 <= a4_x2 <= 100.000000
  0.000000 <= a4_x3 <= 100.000000
  0.000000 <= a4_x4 <= 100.000000
  0.000000 <= a4_x5 <= 100.000000
  0.000000 <= a4_x6 <= 100.000000
  0.000000 <= short_1 <= +inf
  0.000000 <= surp_1 <= +inf
  0.000000 <= short_2 <= +inf
  0.000000 <= surp_2 <= +inf
  0.000000 <= short_3 <= +inf
  0.000000 <= surp_3 <= +inf
 0 <= a1_z1 <= 1
 0 <= a1_z2 <= 1
 0 <= a2_z1 <= 1
 0 <= a2_z2 <= 1
 0 <= a3_z1 <= 1
 0 <= a3_z2 <= 1
 0 <= a4_z1 <= 1
 0 <= a4_z2 <= 1

binary
  a1_z1
  a1_z2
  a2_z1
  a2_z2
  a3_z1
  a3_z2
  a4_z1
  a4_z2
end
