min
obj: 
  +1.58690782181034451 a1_x1
  +1.85914319529187777 a1_x2
  +3.32311090405199927 a1_x3
  +9.20870591814637862 a1_x4
  +9.62032466035919853 a1_x5
  +2.65221673698665317 a1_x6
  +45.97121590191820673 a1_z1
  +15.23159126469524693 a1_z2
  +7.38516429138446995 a2_x1
  +8.18461543331298103 a2_x2
  +6.32869026358351139 a2_x3
  +1.72084034317845602 a2_x4
  +2.51957804121249751 a2_x5
  +8.19694216322757185 a2_x6
  +32.90972281828447876 a2_z1
  +29.00608133785045339 a2_z2
  +9.62518175189459946 a3_x1
  +3.90094189534807345 a3_x2
  +1.32195101356612454 a3_x3
  +4.74857750195312356 a3_x4
  +3.55589835486331518 a3_x5
  +8.12436598238075014 a3_x6
  +20.82211554905935103 a3_z1
  +25.22287462451485496 a3_z2
  +3.97402812736189226 a4_x1
  +5.87257606585061964 a4_x2
  +8.54493066197249362 a4_x3
  +7.89453690964795740 a4_x4
  +2.70429770668290548 a4_x5
  +9.26226871331643586 a4_x6
  +13.31023289155729650 a4_z1
  +27.54299042523267715 a4_z2
  +1000000.00000000000000000 short_1
  +1000000.00000000000000000 surp_1
  +1000000.00000000000000000 short_2
  +1000000.00000000000000000 surp_2
  +1000000.00000000000000000 short_3
  +1000000.00000000000000000 surp_3

s.t.

a1_local_1: 
+0.91555290746555562 a1_x4
+1.18663059751256639 a1_x1
+0.84272224405490281 a1_x3
<= 130.560998

a1_local_2: 
+0.92429768641700294 a1_x2
+0.62828860628994887 a1_x4
+0.71668967494412572 a1_x3
<= 152.811836

a1_local_3: 
+0.70624019261684523 a1_x6
+1.41594886619902094 a1_x4
+0.84574465110272834 a1_x1
<= 128.173801

a1_local_4: 
+1.10530494432445581 a1_x6
+0.98232533685459633 a1_x2
+0.90472769993007085 a1_x1
<= 117.225841

a1_local_5: 
+0.76824010820558208 a1_x1
+1.11927679050852058 a1_x2
+1.30167637606913233 a1_x5
<= 166.453172

a1_local_6: 
+0.79498982788772210 a1_x1
+1.25787772990377422 a1_x2
+1.11990981059204442 a1_x6
<= 115.062650

a1_local_7: 
+0.68561719186186942 a1_x5
+1.45853985557799271 a1_x2
+1.25642209812668826 a1_x4
<= 225.264802

a1_local_8: 
+1.19132573639054473 a1_x1
+0.83940098786901085 a1_x2
+1.17224285432639608 a1_x3
<= 200.691971

a1_act_1: 
+0.10000000000000001 a1_x1
-10.00000000000000000 a1_z1
<= 0.000000

a1_act_2: 
+0.09999999999999999 a1_x2
-10.00000000000000000 a1_z2
<= 0.000000

a2_local_1: 
+0.53414568675018748 a2_x1
+1.35948914997252412 a2_x5
+0.81447931545808461 a2_x3
<= 144.965295

a2_local_2: 
+0.59598573706145574 a2_x4
+1.40842436560399720 a2_x2
+1.14945535901422646 a2_x5
<= 144.328917

a2_local_3: 
+1.10927052851462604 a2_x2
+0.98690089922469182 a2_x1
+0.90149334566659289 a2_x5
<= 99.631991

a2_local_4: 
+1.20607932284870767 a2_x6
+0.82274844310066730 a2_x2
+1.21543833766652920 a2_x4
<= 151.572284

a2_local_5: 
+0.74301116243361165 a2_x1
+1.34587480048706576 a2_x6
+1.17242715391030816 a2_x2
<= 154.600988

a2_local_6: 
+1.27474409597838179 a2_x4
+1.33547850743768270 a2_x6
+1.22819736529871237 a2_x5
<= 201.276260

a2_local_7: 
+0.97331577736427399 a2_x4
+0.67170539681421759 a2_x6
+1.30400253654364584 a2_x3
<= 181.425587

a2_local_8: 
+1.22413669666438807 a2_x5
+1.06720675195353931 a2_x1
+0.81690223218115154 a2_x4
<= 202.490918

a2_act_1: 
+0.10000000000000001 a2_x1
-10.00000000000000000 a2_z1
<= 0.000000

a2_act_2: 
+0.10000000000000001 a2_x2
-10.00000000000000000 a2_z2
<= 0.000000

a3_local_1: 
+1.29406688320082575 a3_x3
+1.50053173761784397 a3_x5
+0.66643042258309115 a3_x4
<= 119.913884

a3_local_2: 
+1.09456365448649429 a3_x3
+1.21693457628371138 a3_x5
+0.82173686202080909 a3_x2
<= 159.557340

a3_local_3: 
+0.83838813987461280 a3_x5
+1.06961214143609129 a3_x6
+1.19276496462552251 a3_x2
<= 155.553609

a3_local_4: 
+1.54106140295752736 a3_x4
+1.34812751668928854 a3_x3
+0.64890341039030019 a3_x1
<= 154.495387

a3_local_5: 
+1.47005435356251790 a3_x1
+1.25101766380484047 a3_x4
+0.68024695656769951 a3_x5
<= 195.142600

a3_local_6: 
+0.74214363035317821 a3_x5
+1.34744806679013118 a3_x4
+1.04768303109468852 a3_x6
<= 126.884592

a3_local_7: 
+1.14146496739545689 a3_x5
+0.87606718433221387 a3_x4
+1.02282617384461205 a3_x2
<= 184.581002

a3_local_8: 
+1.47932396495008289 a3_x6
+0.67598445215057612 a3_x2
+1.12078923076768544 a3_x3
<= 178.752901

a3_act_1: 
+0.10000000000000001 a3_x1
-10.00000000000000000 a3_z1
<= 0.000000

a3_act_2: 
+0.09999999999999999 a3_x2
-10.00000000000000000 a3_z2
<= 0.000000

a4_local_1: 
+0.93947639559538898 a4_x3
+0.78765587113540059 a4_x2
+1.26958997786496108 a4_x4
<= 177.374435

a4_local_2: 
+1.36489355835498727 a4_x5
+0.69086760369113132 a4_x4
+1.44745533682177596 a4_x1
<= 140.563230

a4_local_3: 
+0.86902498258530070 a4_x3
+1.05216633485118272 a4_x2
+1.15071490467978954 a4_x6
<= 176.114622

a4_local_4: 
+0.91916710229171561 a4_x1
+1.08794146081463072 a4_x6
+1.04706522190109674 a4_x5
<= 141.095780

a4_local_5: 
+0.97886237065940362 a4_x1
+1.08427706476379671 a4_x2
+0.92227349678178794 a4_x6
<= 117.438764

a4_local_6: 
+0.58343803471211120 a4_x6
+1.71397807565534355 a4_x3
+0.97723231614370887 a4_x5
<= 134.296653

a4_local_7: 
+0.82781481242985810 a4_x1
+0.86914953755802127 a4_x4
+1.20799964555445949 a4_x5
<= 93.539776

a4_local_8: 
+0.91569763806754612 a4_x5
+0.80675946977201030 a4_x1
+1.23952681991151481 a4_x6
<= 169.005587

a4_act_1: 
+0.10000000000000001 a4_x1
-10.00000000000000000 a4_z1
<= 0.000000

a4_act_2: 
+0.09999999999999999 a4_x2
-10.00000000000000000 a4_z2
<= 0.000000

coupling_1: 
+0.00010414477569683 a1_x1
+0.00151928101990911 a2_x1
+0.02358468616782647 a3_x1
+0.99967042667064299 a4_x1
+0.00708807299440432 short_1
-0.00708807299440432 surp_1
= 60.916782

coupling_2: 
+0.00013074080123748 a1_x2
+0.00137184757715469 a2_x2
+0.07357009472305227 a3_x2
+0.99715500756960118 a4_x2
+0.01156358470323061 short_2
-0.01156358470323061 surp_2
= 83.344463

coupling_3: 
+0.00007736439439219 a1_x3
+0.00147829208180423 a2_x3
+0.06517552224873306 a3_x3
+0.99773459662846753 a4_x3
+0.01173956254520904 short_3
-0.01173956254520904 surp_3
= 54.266372

bounds
  0.000000 <= a1_x1 <= 100.000000
  0.000000 <= a1_x2 <= 100.000000
  0.000000 <= a1_x3 <= 100.000000
  0.000000 <= a1_x4 <= 100.000000
  0.000000 <= a1_x5 <= 100.000000
  0.000000 <= a1_x6 <= 100.000000
  0.000000 <= a2_x1 <= 100.000000
  0.000000 <= a2_x2 <= 100.000000
  0.000000 <= a2_x3 <= 100.000000
  0.000000 <= a2_x4 <= 100.000000
  0.000000 <= a2_x5 <= 100.000000
  0.000000 <= a2_x6 <= 100.000000
  0.000000 <= a3_x1 <= 100.000000
  0.000000 <= a3_x2 <= 100.000000
  0.000000 <= a3_x3 <= 100.000000
  0.000000 <= a3_x4 <= 100.000000
  0.000000 <= a3_x5 <= 100.000000
  0.000000 <= a3_x6 <= 100.000000
  0.000000 <= a4_x1 <= 100.000000
  0.000000 <= a4_x2 <= 100.000000
  0.000000 <= a4_x3 <= 100.000000
  0.000000 <= a4_x4 <= 100.000000
  0.000000 <= a4_x5 <= 100.000000
  0.000000 <= a4_x6 <= 100.000000
  0.000000 <= short_1 <= +inf
  0.000000 <= surp_1 <= +inf
  0.000000 <= short_2 <= +inf
  0.000000 <= surp_2 <= +inf
  0.000000 <= short_3 <= +inf
  0.000000 <= surp_3 <= +inf
 0 <= a1_z1 <= 1
 0 <= a1_z2 <= 1
 0 <= a2_z1 <= 1
 0 <= a2_z2 <= 1
 0 <= a3_z1 <= 1
 0 <= a3_z2 <= 1
 0 <= a4_z1 <= 1
 0 <= a4_z2 <= 1

binary
  a1_z1
  a1_z2
  a2_z1
  a2_z2
  a3_z1
  a3_z2
  a4_z1
  a4_z2
end
