min
obj: 
  +2.37029411872895501 a1_x1
  +4.08711411622905185 a1_x2
  +7.66136637275760890 a1_x3
  +4.89991689432673461 a1_x4
  +9.18560754331382867 a1_x5
  +7.80552329567271030 a1_x6
  +17.43087311454965516 a1_z1
  +23.40237872614093462 a1_z2
  +7.76967499598976019 a2_x1
  +1.80336421538305247 a2_x2
  +9.57158160013941384 a2_x3
  +5.65827493894111466 a2_x4
  +2.44173723344263127 a2_x5
  +7.27299337053102857 a2_x6
  +31.32172731425238510 a2_z1
  +17.35876123031728824 a2_z2
  +2.34937597507828766 a3_x1
  +3.44404861330662637 a3_x2
  +8.97236298110027342 a3_x3
  +1.18282410761081147 a3_x4
  +8.94329086748358293 a3_x5
  +1.71905082189577563 a3_x6
  +16.00176469749968788 a3_z1
  +34.61198408971173990 a3_z2
  +6.56106695092732561 a4_x1
  +3.99053598556514322 a4_x2
  +4.10040873738996048 a4_x3
  +4.88744804784333908 a4_x4
  +2.91326732486744788 a4_x5
  +5.36841797601257653 a4_x6
  +43.70048480327027818 a4_z1
  +7.09598516541455737 a4_z2
  +1000000.00000000000000000 short_1
  +1000000.00000000000000000 surp_1
  +1000000.00000000000000000 short_2
  +1000000.00000000000000000 surp_2
  +1000000.00000000000000000 short_3
  +1000000.00000000000000000 surp_3

s.t.

a1_local_1: 
+10.37252350370626708 a1_x3
+7.45442906312404396 a1_x2
+4.14408567408154749 a1_x1
<= 1536.841586

a1_local_2: 
+0.00005052053876243 a1_x6
+0.00003004179779773 a1_x3
+0.00002955318063518 a1_x2
<= 0.003410

a1_local_3: 
+2.42187711610578527 a1_x4
+2.80143602714227580 a1_x3
+2.02931792824988078 a1_x6
<= 223.226496

a1_local_4: 
+0.21909009371186064 a1_x5
+0.41373480370974458 a1_x3
+0.19914106129079623 a1_x6
<= 44.866798

a1_local_5: 
+0.28190231970192003 a1_x3
+0.21344802495614859 a1_x5
+0.11303680127603979 a1_x4
<= 36.878102

a1_local_6: 
+0.01774012350199280 a1_x3
+0.01280064359907313 a1_x1
+0.00973022588424276 a1_x6
<= 2.004828

a1_local_7: 
+0.03474995551929808 a1_x6
+0.04078125766120377 a1_x1
+0.03920965571935840 a1_x4
<= 5.281006

a1_local_8: 
+0.05153376598877558 a1_x3
+0.07849722930139533 a1_x2
+0.08409751727857119 a1_x4
<= 7.811609

a1_act_1: 
+10.81237922455757250 a1_x1
-1081.23792245575714333 a1_z1
<= 0.000000

a1_act_2: 
+170.48682286075174375 a1_x2
-17048.68228607517448836 a1_z2
<= 0.000000

a2_local_1: 
+1.18602662168834661 a2_x3
+1.38697776191440680 a2_x2
+0.68990752197238225 a2_x1
<= 206.655869

a2_local_2: 
+0.53239001145274056 a2_x6
+1.25886876806568826 a2_x2
+1.39111731431540253 a2_x1
<= 203.270970

a2_local_3: 
+0.03329045872602334 a2_x2
+0.05506744352789290 a2_x3
+0.03097840176859812 a2_x1
<= 6.659058

a2_local_4: 
+0.18753896544707421 a2_x1
+0.17982145349476600 a2_x4
+0.21369079119591688 a2_x5
<= 32.953428

a2_local_5: 
+0.38950225548877837 a2_x1
+0.58610481589364227 a2_x6
+0.52496074757086875 a2_x3
<= 46.438368

a2_local_6: 
+8.56353254702195521 a2_x1
+6.98060812694310773 a2_x6
+15.14922266073981483 a2_x2
<= 1496.624947

a2_local_7: 
+0.00125104871453012 a2_x3
+0.00112526940909673 a2_x2
+0.00148698239194965 a2_x4
<= 0.158876

a2_local_8: 
+0.34663109381869950 a2_x4
+0.17853930108521282 a2_x3
+0.30607765462647835 a2_x1
<= 50.248568

a2_act_1: 
+0.08103809945015665 a2_x1
-8.10380994501566576 a2_z1
<= 0.000000

a2_act_2: 
+182.88117749700691661 a2_x2
-18288.11774970069018309 a2_z2
<= 0.000000

a3_local_1: 
+42.31400705310926469 a3_x5
+28.43360514951905316 a3_x4
+74.83161565375517910 a3_x2
<= 6534.546821

a3_local_2: 
+3454.87812722478429350 a3_x4
+2498.57538875717818883 a3_x5
+3537.04205860280171692 a3_x3
<= 477717.700988

a3_local_3: 
+0.11151742591355045 a3_x4
+0.05904106767459265 a3_x3
+0.12869548580172346 a3_x6
<= 12.685087

a3_local_4: 
+243.90085050587268256 a3_x4
+256.98457372162960155 a3_x5
+313.40625340264313081 a3_x2
<= 44827.682092

a3_local_5: 
+0.01337144696875915 a3_x4
+0.00525004038026797 a3_x6
+0.01147967061052176 a3_x5
<= 1.238737

a3_local_6: 
+6.13467459536297710 a3_x1
+5.87900097363090079 a3_x5
+6.62544920278242166 a3_x3
<= 617.477132

a3_local_7: 
+0.20327185542650766 a3_x6
+0.15920445290164806 a3_x4
+0.27810408658168700 a3_x1
<= 24.150136

a3_local_8: 
+8.56783834986286408 a3_x4
+4.18660912503534455 a3_x2
+8.04453267217849088 a3_x1
<= 1315.517184

a3_act_1: 
+61.65560158394689694 a3_x1
-6165.56015839469000639 a3_z1
<= 0.000000

a3_act_2: 
+0.08872073204282940 a3_x2
-8.87207320428294111 a3_z2
<= 0.000000

a4_local_1: 
+739.15926097776116421 a4_x5
+928.00227799950732788 a4_x2
+697.93475896643042233 a4_x1
<= 158237.544516

a4_local_2: 
+0.56531192863894686 a4_x4
+0.31002426732168697 a4_x2
+0.64543540506299346 a4_x6
<= 94.933737

a4_local_3: 
+406.80209394969870118 a4_x1
+290.44846946355539785 a4_x3
+307.12881396424120339 a4_x6
<= 49755.049697

a4_local_4: 
+1007.88747858006126989 a4_x3
+1328.75393058580084471 a4_x4
+1085.63461312499339328 a4_x1
<= 206588.027794

a4_local_5: 
+8.37818210722577028 a4_x6
+8.65545979789364672 a4_x3
+4.57957769236870238 a4_x4
<= 1033.857949

a4_local_6: 
+18.99159354375728626 a4_x5
+40.67679231053504196 a4_x4
+20.20808495866144128 a4_x2
<= 4472.986677

a4_local_7: 
+26684.20036551524390234 a4_x6
+19352.70816167099837912 a4_x2
+20778.47105622441813466 a4_x4
<= 4522036.432117

a4_local_8: 
+116.45819342492002590 a4_x6
+191.51896522747711060 a4_x2
+188.07137906820096873 a4_x1
<= 17926.483019

a4_act_1: 
+0.00475839882370791 a4_x1
-0.47583988237079106 a4_z1
<= 0.000000

a4_act_2: 
+626.43919859465370337 a4_x2
-62643.91985946537170094 a4_z2
<= 0.000000

coupling_1: 
+0.00019791081258342 a1_x1
+0.00692039379015494 a2_x1
+0.13028326186225161 a3_x1
+3.12488423786746194 a4_x1
+0.02319475369751118 short_1
-0.02319475369751118 surp_1
= 68.295413

coupling_2: 
+0.03155037659525030 a1_x2
+0.98993921277386099 a2_x2
+18.29232353612439965 a3_x2
+425.53378226611232549 a4_x2
+3.28714684373095434 short_2
-3.28714684373095434 surp_2
= 34937.062755

coupling_3: 
+0.00006901789519449 a1_x3
+0.00159598601522124 a2_x3
+0.06935027002106982 a3_x3
+1.34933108665104395 a4_x3
+0.01139437966651014 short_3
-0.01139437966651014 surp_3
= 78.958116

bounds
  0.000000 <= a1_x1 <= 100.000000
  0.000000 <= a1_x2 <= 100.000000
  0.000000 <= a1_x3 <= 100.000000
  0.000000 <= a1_x4 <= 100.000000
  0.000000 <= a1_x5 <= 100.000000
  0.000000 <= a1_x6 <= 100.000000
  0.000000 <= a2_x1 <= 100.000000
  0.000000 <= a2_x2 <= 100.000000
  0.000000 <= a2_x3 <= 100.000000
  0.000000 <= a2_x4 <= 100.000000
  0.000000 <= a2_x5 <= 100.000000
  0.000000 <= a2_x6 <= 100.000000
  0.000000 <= a3_x1 <= 100.000000
  0.000000 <= a3_x2 <= 100.000000
  0.000000 <= a3_x3 <= 100.000000
  0.000000 <= a3_x4 <= 100.000000
  0.000000 <= a3_x5 <= 100.000000
  0.000000 <= a3_x6 <= 100.000000
  0.000000 <= a4_x1 <= 100.000000
  0.000000 <= a4_x2 <= 100.000000
  0.000000 <= a4_x3 <= 100.000000
  0.000000 <= a4_x4 <= 100.000000
  0.000000 <= a4_x5 <= 100.000000
  0.000000 <= a4_x6 <= 100.000000
  0.000000 <= short_1 <= +inf
  0.000000 <= surp_1 <= +inf
  0.000000 <= short_2 <= +inf
  0.000000 <= surp_2 <= +inf
  0.000000 <= short_3 <= +inf
  0.000000 <= surp_3 <= +inf
 0 <= a1_z1 <= 1
 0 <= a1_z2 <= 1
 0 <= a2_z1 <= 1
 0 <= a2_z2 <= 1
 0 <= a3_z1 <= 1
 0 <= a3_z2 <= 1
 0 <= a4_z1 <= 1
 0 <= a4_z2 <= 1

binary
  a1_z1
  a1_z2
  a2_z1
  a2_z2
  a3_z1
  a3_z2
  a4_z1
  a4_z2
end
