min
obj: 
  +7.78207569299738466 a1_x1
  +2.62040292120299334 a1_x2
  +1.02293933329670939 a1_x3
  +7.19109322240713489 a1_x4
  +4.26327457704359070 a1_x5
  +6.02462654690972954 a1_x6
  +42.77102711119731282 a1_z1
  +28.11411837117618262 a1_z2
  +5.79112125901829966 a2_x1
  +5.43489317194582089 a2_x2
  +9.42596272358853859 a2_x3
  +8.92130525199075564 a2_x4
  +6.14845489869399664 a2_x5
  +2.14640938868183095 a2_x6
  +31.66094613130910673 a2_z1
  +6.98996133690631005 a2_z2
  +2.81862526144540748 a3_x1
  +1.36412059178846468 a3_x2
  +2.33366974601915000 a3_x3
  +2.45567759910651384 a3_x4
  +5.22782650613177147 a3_x5
  +6.66961894421152923 a3_x6
  +49.85791959361311854 a3_z1
  +30.64094479818616890 a3_z2
  +7.09948941464576322 a4_x1
  +9.56749156260526412 a4_x2
  +9.23547813869581802 a4_x3
  +8.94781396766327930 a4_x4
  +7.43389970639344355 a4_x5
  +1.79601697429660612 a4_x6
  +7.43041409826294341 a4_z1
  +14.53020430166953325 a4_z2
  +1000000.00000000000000000 short_1
  +1000000.00000000000000000 surp_1
  +1000000.00000000000000000 short_2
  +1000000.00000000000000000 surp_2
  +1000000.00000000000000000 short_3
  +1000000.00000000000000000 surp_3

s.t.

a1_local_1: 
+0.50830128584377532 a1_x4
+0.78099407126304754 a1_x6
+0.36287472144189664 a1_x3
<= 82.586536

a1_local_2: 
+0.62841303478021882 a1_x6
+0.44056055071972733 a1_x5
+0.64109551462153114 a1_x4
<= 90.610197

a1_local_3: 
+0.81859749366799972 a1_x4
+1.08005658293568252 a1_x2
+1.14917538825343102 a1_x3
<= 176.796730

a1_local_4: 
+0.62746166085074506 a1_x4
+0.41777488442219135 a1_x5
+0.65708143339197245 a1_x2
<= 86.745949

a1_local_5: 
+0.34648194375364333 a1_x2
+0.84311871084991374 a1_x5
+0.41121904390175895 a1_x4
<= 88.557774

a1_local_6: 
+0.88251366933261954 a1_x2
+1.01771654598041383 a1_x3
+0.51921984215153683 a1_x1
<= 131.143501

a1_local_7: 
+0.39611970782760036 a1_x5
+0.82739434789670940 a1_x2
+0.39813034315303786 a1_x6
<= 88.982247

a1_local_8: 
+0.41281788352611265 a1_x5
+0.73648948985633611 a1_x1
+0.53587743596103632 a1_x6
<= 103.545886

a1_act_1: 
+0.00999950003749688 a1_x1
-0.99995000374968757 a1_z1
<= 0.000000

a1_act_2: 
+0.00999950003749688 a1_x2
-0.99995000374968757 a1_z2
<= 0.000000

a2_local_1: 
+0.42900853832239955 a2_x6
+0.64038776448239687 a2_x4
+0.63706764566073870 a2_x3
<= 107.383424

a2_local_2: 
+0.43785517794419615 a2_x5
+0.60711463376105013 a2_x4
+0.91210502026520601 a2_x6
<= 88.793450

a2_local_3: 
+0.55614099615882651 a2_x4
+0.37619132602491417 a2_x5
+0.74107170949583878 a2_x3
<= 51.839586

a2_local_4: 
+0.31558900133435136 a2_x5
+0.31164610952493621 a2_x6
+0.89625904997091010 a2_x4
<= 56.919407

a2_local_5: 
+0.58280691983876720 a2_x4
+0.36290438331361369 a2_x2
+0.72707393211406957 a2_x3
<= 79.669044

a2_local_6: 
+0.61889551998623793 a2_x5
+0.54707832658473365 a2_x4
+0.56362544293370187 a2_x3
<= 65.444237

a2_local_7: 
+0.46021803969222486 a2_x1
+0.73820656439537025 a2_x6
+0.49320424189723833 a2_x4
<= 118.122167

a2_local_8: 
+0.66625591748106294 a2_x4
+0.61881701294173619 a2_x3
+0.41613526276360424 a2_x5
<= 65.194753

a2_act_1: 
+0.00999950003749688 a2_x1
-0.99995000374968745 a2_z1
<= 0.000000

a2_act_2: 
+0.01800856727755041 a2_x2
-1.80085672775504069 a2_z2
<= 0.000000

a3_local_1: 
+0.45040944646498604 a3_x6
+0.68914092811905814 a3_x2
+0.56764082986190145 a3_x1
<= 114.013478

a3_local_2: 
+0.75301381339081774 a3_x1
+0.50662345785546770 a3_x6
+0.41988435168887617 a3_x2
<= 115.205788

a3_local_3: 
+0.54493461211124372 a3_x6
+1.30457555635951206 a3_x5
+0.61404917123484837 a3_x3
<= 130.629090

a3_local_4: 
+0.64330523934530270 a3_x2
+0.29601460997692880 a3_x6
+0.70606920320255395 a3_x4
<= 69.789030

a3_local_5: 
+0.52882068558906281 a3_x1
+0.70516366679839348 a3_x5
+0.47232709589918487 a3_x3
<= 84.585132

a3_local_6: 
+0.54551462774739468 a3_x5
+0.64574199000543042 a3_x2
+0.53425749714669224 a3_x3
<= 88.915034

a3_local_7: 
+0.56943071577997528 a3_x2
+0.46564334315836159 a3_x3
+0.67743998767315872 a3_x1
<= 91.457607

a3_local_8: 
+0.72949566772882757 a3_x6
+0.33912416760590086 a3_x1
+0.59399568155877769 a3_x2
<= 75.633450

a3_act_1: 
+0.00999950003749687 a3_x1
-0.99995000374968734 a3_z1
<= 0.000000

a3_act_2: 
+0.01973669689085708 a3_x2
-1.97366968908570772 a3_z2
<= 0.000000

a4_local_1: 
+0.35922126688313910 a4_x1
+0.82536095005775423 a4_x6
+0.43559084418595617 a4_x5
<= 102.340458

a4_local_2: 
+0.69088349963423645 a4_x2
+0.32840043962771276 a4_x5
+0.64407541575926885 a4_x4
<= 111.828778

a4_local_3: 
+0.74228054919970954 a4_x6
+0.57737814604835969 a4_x2
+0.34007949474429788 a4_x5
<= 96.656354

a4_local_4: 
+0.63636137378935320 a4_x6
+0.38653465108739338 a4_x3
+0.66755911008514768 a4_x4
<= 107.040159

a4_local_5: 
+0.44397761964560301 a4_x5
+0.45165252993905791 a4_x2
+0.77388233308008325 a4_x3
<= 66.892640

a4_local_6: 
+0.60027196439209529 a4_x1
+0.51190150666328882 a4_x5
+0.61451640843895294 a4_x4
<= 95.217710

a4_local_7: 
+0.50107268925314030 a4_x6
+0.96469772413972676 a4_x3
+0.79866208517819992 a4_x2
<= 136.150366

a4_local_8: 
+0.49128963235348300 a4_x3
+0.77850908644126038 a4_x6
+0.39058686546064753 a4_x4
<= 59.841937

a4_act_1: 
+0.00999950003749688 a4_x1
-0.99995000374968757 a4_z1
<= 0.000000

a4_act_2: 
+0.00999950003749688 a4_x2
-0.99995000374968757 a4_z2
<= 0.000000

coupling_1: 
+0.00015114502279432 a1_x1
+0.00407252488341179 a2_x1
+0.07061591058655996 a3_x1
+0.99725912967501851 a4_x1
+0.01534622344604200 short_1
-0.01534622344604200 surp_1
= 75.919312

coupling_2: 
+0.00014126539225177 a1_x2
+0.00270556291991823 a2_x2
+0.06131456550891928 a3_x2
+0.99801236607601840 a4_x2
+0.01011190360849312 short_2
-0.01011190360849312 surp_2
= 29.743466

coupling_3: 
+0.00022392443114935 a1_x3
+0.00339591494496469 a2_x3
+0.04690968793578767 a3_x3
+0.99852611602184271 a4_x3
+0.01915064515409931 short_3
-0.01915064515409931 surp_3
= 23.527565

bounds
  0.000000 <= a1_x1 <= 100.000000
  0.000000 <= a1_x2 <= 100.000000
  0.000000 <= a1_x3 <= 100.000000
  0.000000 <= a1_x4 <= 100.000000
  0.000000 <= a1_x5 <= 100.000000
  0.000000 <= a1_x6 <= 100.000000
  0.000000 <= a2_x1 <= 100.000000
  0.000000 <= a2_x2 <= 100.000000
  0.000000 <= a2_x3 <= 100.000000
  0.000000 <= a2_x4 <= 100.000000
  0.000000 <= a2_x5 <= 100.000000
  0.000000 <= a2_x6 <= 100.000000
  0.000000 <= a3_x1 <= 100.000000
  0.000000 <= a3_x2 <= 100.000000
  0.000000 <= a3_x3 <= 100.000000
  0.000000 <= a3_x4 <= 100.000000
  0.000000 <= a3_x5 <= 100.000000
  0.000000 <= a3_x6 <= 100.000000
  0.000000 <= a4_x1 <= 100.000000
  0.000000 <= a4_x2 <= 100.000000
  0.000000 <= a4_x3 <= 100.000000
  0.000000 <= a4_x4 <= 100.000000
  0.000000 <= a4_x5 <= 100.000000
  0.000000 <= a4_x6 <= 100.000000
  0.000000 <= short_1 <= +inf
  0.000000 <= surp_1 <= +inf
  0.000000 <= short_2 <= +inf
  0.000000 <= surp_2 <= +inf
  0.000000 <= short_3 <= +inf
  0.000000 <= surp_3 <= +inf
 0 <= a1_z1 <= 1
 0 <= a1_z2 <= 1
 0 <= a2_z1 <= 1
 0 <= a2_z2 <= 1
 0 <= a3_z1 <= 1
 0 <= a3_z2 <= 1
 0 <= a4_z1 <= 1
 0 <= a4_z2 <= 1

binary
  a1_z1
  a1_z2
  a2_z1
  a2_z2
  a3_z1
  a3_z2
  a4_z1
  a4_z2
end
