min
obj: 
  +1.57709742578195788 a1_x1
  +5.24362332399284625 a1_x2
  +8.06959664561268042 a1_x3
  +3.47810228856863679 a1_x4
  +9.41205830682384104 a1_x5
  +8.31656886029670339 a1_x6
  +34.00140095985545230 a1_z1
  +10.41050343041974102 a1_z2
  +6.47735542906473949 a2_x1
  +9.58339357562265626 a2_x2
  +2.02682747423036602 a2_x3
  +2.51463833389198177 a2_x4
  +5.97191591647550446 a2_x5
  +2.17528344053247569 a2_x6
  +46.82093948760606850 a2_z1
  +31.11983884228734354 a2_z2
  +4.28980261171450117 a3_x1
  +6.29719392465862082 a3_x2
  +7.08124523691182794 a3_x3
  +4.94719983508523597 a3_x4
  +8.06509947106787273 a3_x5
  +5.84368483176889342 a3_x6
  +45.40847242123220440 a3_z1
  +47.68543785744964225 a3_z2
  +7.67454901318721916 a4_x1
  +9.54472766156331787 a4_x2
  +6.46859462349116754 a4_x3
  +6.10471800911878315 a4_x4
  +9.00917261972195327 a4_x5
  +9.20424430287105189 a4_x6
  +10.38795682780166985 a4_z1
  +22.65518679594919149 a4_z2
  +1000000.00000000000000000 short_1
  +1000000.00000000000000000 surp_1
  +1000000.00000000000000000 short_2
  +1000000.00000000000000000 surp_2
  +1000000.00000000000000000 short_3
  +1000000.00000000000000000 surp_3

s.t.

a1_local_1: 
+0.64098504467401407 a1_x1
+0.65529248652179217 a1_x6
+0.39966226943800787 a1_x5
<= 89.211706

a1_local_2: 
+0.51791392364174604 a1_x5
+0.28563217064578794 a1_x4
+0.80633704540358753 a1_x1
<= 50.322074

a1_local_3: 
+0.51223022241792826 a1_x2
+0.73143990408782489 a1_x3
+0.45012872153382200 a1_x5
<= 66.633648

a1_local_4: 
+0.75099222928415799 a1_x2
+0.60024298270744103 a1_x4
+0.27517091645972563 a1_x1
<= 81.776269

a1_local_5: 
+0.60736785680026173 a1_x1
+0.38691354606789707 a1_x3
+0.69383153170998357 a1_x2
<= 65.536820

a1_local_6: 
+0.68877257932184777 a1_x3
+0.55054256056530115 a1_x4
+0.47169399294514086 a1_x2
<= 71.828481

a1_local_7: 
+0.91867646843279493 a1_x1
+0.57299647220972350 a1_x4
+0.79147608089396959 a1_x3
<= 126.547938

a1_local_8: 
+0.67417171866082060 a1_x3
+0.43427756292491171 a1_x2
+0.59740730837336986 a1_x5
<= 77.952731

a1_act_1: 
+0.00999950003749688 a1_x1
-0.99995000374968757 a1_z1
<= 0.000000

a1_act_2: 
+0.00999950003749688 a1_x2
-0.99995000374968757 a1_z2
<= 0.000000

a2_local_1: 
+0.22330067590539446 a2_x3
+0.38468093437285050 a2_x6
+0.38470940982278451 a2_x4
<= 55.155037

a2_local_2: 
+0.70063395603317591 a2_x6
+0.28979465704822432 a2_x4
+0.65202079445337002 a2_x2
<= 88.256257

a2_local_3: 
+0.40755672572156976 a2_x4
+0.58260213990676435 a2_x5
+0.70318721681723706 a2_x2
<= 76.545453

a2_local_4: 
+0.58327457515925840 a2_x6
+0.66254764057874027 a2_x5
+0.46991636908744822 a2_x1
<= 57.065110

a2_local_5: 
+0.74469744263230053 a2_x6
+0.75311335905949461 a2_x5
+0.71254803014984103 a2_x2
<= 87.037183

a2_local_6: 
+0.30815616091133247 a2_x1
+0.21317814353012110 a2_x6
+0.37425280676304618 a2_x3
<= 45.922986

a2_local_7: 
+0.46567618922908594 a2_x2
+0.51535388704713048 a2_x4
+0.71941369036910185 a2_x5
<= 89.579951

a2_local_8: 
+0.52642759393292116 a2_x4
+0.53709654009455499 a2_x3
+0.65909126451839239 a2_x2
<= 55.479086

a2_act_1: 
+0.00999950003749688 a2_x1
-0.99995000374968768 a2_z1
<= 0.000000

a2_act_2: 
+0.00999950003749688 a2_x2
-0.99995000374968757 a2_z2
<= 0.000000

a3_local_1: 
+0.56881157551933204 a3_x3
+0.50127803366394641 a3_x4
+0.65205346753255045 a3_x2
<= 95.682724

a3_local_2: 
+0.42426419607962779 a3_x3
+0.51108656922784357 a3_x4
+0.74752284960382298 a3_x6
<= 110.039493

a3_local_3: 
+0.47237822426315723 a3_x2
+0.75340605349799239 a3_x3
+0.45742554781578010 a3_x5
<= 63.350654

a3_local_4: 
+0.70684448663599753 a3_x2
+1.15827297645174432 a3_x5
+1.02045060216300465 a3_x3
<= 151.481096

a3_local_5: 
+0.64737635948030336 a3_x2
+0.31855893998348123 a3_x5
+0.69240454283794950 a3_x3
<= 103.621772

a3_local_6: 
+0.61233116492222839 a3_x5
+0.52548391379954906 a3_x6
+0.59069213707556223 a3_x1
<= 91.197085

a3_local_7: 
+0.55063473608792679 a3_x3
+0.63630490896256409 a3_x5
+0.54029385545601216 a3_x2
<= 101.648882

a3_local_8: 
+0.47824837657156016 a3_x5
+0.73030910514649916 a3_x3
+0.48777771704618378 a3_x2
<= 94.479190

a3_act_1: 
+0.00999950003749688 a3_x1
-0.99995000374968757 a3_z1
<= 0.000000

a3_act_2: 
+0.00999950003749687 a3_x2
-0.99995000374968745 a3_z2
<= 0.000000

a4_local_1: 
+0.55640978656014140 a4_x6
+0.62055276295368056 a4_x1
+0.55255987712704147 a4_x3
<= 64.605374

a4_local_2: 
+0.44669998527998567 a4_x2
+0.74503452376760715 a4_x4
+0.49536116273405534 a4_x6
<= 94.781282

a4_local_3: 
+0.51349915663727075 a4_x3
+0.38979958032837597 a4_x2
+0.76444417932811393 a4_x1
<= 50.343646

a4_local_4: 
+0.41970762564987540 a4_x3
+0.63316057931486325 a4_x5
+0.65034851408534078 a4_x2
<= 104.740233

a4_local_5: 
+0.60681403829028890 a4_x3
+0.62586769129634823 a4_x2
+0.48996566810870612 a4_x1
<= 95.007778

a4_local_6: 
+0.71250079101605179 a4_x5
+0.26011860558008487 a4_x1
+0.65167548199435343 a4_x6
<= 77.254308

a4_local_7: 
+0.70643084178072268 a4_x6
+0.38107978459008390 a4_x3
+0.59643412340153257 a4_x2
<= 112.453442

a4_local_8: 
+0.48751508369058344 a4_x2
+0.57804359929800875 a4_x6
+0.85124112225802451 a4_x5
<= 97.310779

a4_act_1: 
+0.00999950003749688 a4_x1
-0.99995000374968745 a4_z1
<= 0.000000

a4_act_2: 
+0.00999950003749688 a4_x2
-0.99995000374968757 a4_z2
<= 0.000000

coupling_1: 
+0.00007102416839115 a1_x1
+0.00227310819788845 a2_x1
+0.04304503484114337 a3_x1
+0.99901987231036804 a4_x1
+0.00711504178445074 short_1
-0.00711504178445074 surp_1
= 77.026624

coupling_2: 
+0.00004191838448070 a1_x2
+0.00074885344102826 a2_x2
+0.02608729665097097 a3_x2
+0.51844970085123643 a4_x2
+0.00461627173460457 short_2
-0.00461627173460457 surp_2
= 19.643906

coupling_3: 
+0.00010315445273172 a1_x3
+0.00146930230375999 a2_x3
+0.02541984324781362 a3_x3
+0.71047152310198070 a4_x3
+0.00830923616343402 short_3
-0.00830923616343402 surp_3
= 43.047143

bounds
  0.000000 <= a1_x1 <= 100.000000
  0.000000 <= a1_x2 <= 100.000000
  0.000000 <= a1_x3 <= 100.000000
  0.000000 <= a1_x4 <= 100.000000
  0.000000 <= a1_x5 <= 100.000000
  0.000000 <= a1_x6 <= 100.000000
  0.000000 <= a2_x1 <= 100.000000
  0.000000 <= a2_x2 <= 100.000000
  0.000000 <= a2_x3 <= 100.000000
  0.000000 <= a2_x4 <= 100.000000
  0.000000 <= a2_x5 <= 100.000000
  0.000000 <= a2_x6 <= 100.000000
  0.000000 <= a3_x1 <= 100.000000
  0.000000 <= a3_x2 <= 100.000000
  0.000000 <= a3_x3 <= 100.000000
  0.000000 <= a3_x4 <= 100.000000
  0.000000 <= a3_x5 <= 100.000000
  0.000000 <= a3_x6 <= 100.000000
  0.000000 <= a4_x1 <= 100.000000
  0.000000 <= a4_x2 <= 100.000000
  0.000000 <= a4_x3 <= 100.000000
  0.000000 <= a4_x4 <= 100.000000
  0.000000 <= a4_x5 <= 100.000000
  0.000000 <= a4_x6 <= 100.000000
  0.000000 <= short_1 <= +inf
  0.000000 <= surp_1 <= +inf
  0.000000 <= short_2 <= +inf
  0.000000 <= surp_2 <= +inf
  0.000000 <= short_3 <= +inf
  0.000000 <= surp_3 <= +inf
 0 <= a1_z1 <= 1
 0 <= a1_z2 <= 1
 0 <= a2_z1 <= 1
 0 <= a2_z2 <= 1
 0 <= a3_z1 <= 1
 0 <= a3_z2 <= 1
 0 <= a4_z1 <= 1
 0 <= a4_z2 <= 1

binary
  a1_z1
  a1_z2
  a2_z1
  a2_z2
  a3_z1
  a3_z2
  a4_z1
  a4_z2
end
