min
obj: 
  +2.37029411872895501 a1_x1
  +4.08711411622905185 a1_x2
  +7.66136637275760890 a1_x3
  +4.89991689432673461 a1_x4
  +9.18560754331382867 a1_x5
  +7.80552329567271030 a1_x6
  +17.43087311454965516 a1_z1
  +23.40237872614093462 a1_z2
  +7.76967499598976019 a2_x1
  +1.80336421538305247 a2_x2
  +9.57158160013941384 a2_x3
  +5.65827493894111466 a2_x4
  +2.44173723344263127 a2_x5
  +7.27299337053102857 a2_x6
  +31.32172731425238510 a2_z1
  +17.35876123031728824 a2_z2
  +2.34937597507828766 a3_x1
  +3.44404861330662637 a3_x2
  +8.97236298110027342 a3_x3
  +1.18282410761081147 a3_x4
  +8.94329086748358293 a3_x5
  +1.71905082189577563 a3_x6
  +16.00176469749968788 a3_z1
  +34.61198408971173990 a3_z2
  +6.56106695092732561 a4_x1
  +3.99053598556514322 a4_x2
  +4.10040873738996048 a4_x3
  +4.88744804784333908 a4_x4
  +2.91326732486744788 a4_x5
  +5.36841797601257653 a4_x6
  +43.70048480327027818 a4_z1
  +7.09598516541455737 a4_z2
  +1000000.00000000000000000 short_1
  +1000000.00000000000000000 surp_1
  +1000000.00000000000000000 short_2
  +1000000.00000000000000000 surp_2
  +1000000.00000000000000000 short_3
  +1000000.00000000000000000 surp_3

s.t.

a1_local_1: 
+1.58207785332520379 a1_x3
+1.13699304954462610 a1_x2
+0.63208014567564075 a1_x1
<= 234.408053

a1_local_2: 
+1.30747042081618181 a1_x6
+0.77748105960196789 a1_x3
+0.76483565829026934 a1_x2
<= 88.260681

a1_local_3: 
+1.01574970016890931 a1_x4
+1.17493897014379156 a1_x3
+0.85110803659667345 a1_x6
<= 93.622523

a1_local_4: 
+0.76327546880282460 a1_x5
+1.44138706096369762 a1_x3
+0.69377617371659328 a1_x6
<= 156.308875

a1_local_5: 
+1.57920821723259652 a1_x3
+1.19572934099741057 a1_x5
+0.63322872125906193 a1_x4
<= 206.590006

a1_local_6: 
+1.35025830844615613 a1_x3
+0.97429848056948476 a1_x1
+0.74059903482525169 a1_x6
<= 152.593943

a1_local_7: 
+0.92309589366518197 a1_x6
+1.08331106969771884 a1_x1
+1.04156312276328200 a1_x4
<= 140.284359

a1_local_8: 
+0.78280637379220075 a1_x3
+1.19238581235347718 a1_x2
+1.27745510700894527 a1_x4
<= 118.659619

a1_act_1: 
+0.10000000000000002 a1_x1
-10.00000000000000000 a1_z1
<= 0.000000

a1_act_2: 
+0.10000000000000001 a1_x2
-10.00000000000000000 a1_z2
<= 0.000000

a2_local_1: 
+1.18602662168834661 a2_x3
+1.38697776191440680 a2_x2
+0.68990752197238225 a2_x1
<= 206.655869

a2_local_2: 
+0.53239001145274056 a2_x6
+1.25886876806568826 a2_x2
+1.39111731431540253 a2_x1
<= 203.270970

a2_local_3: 
+0.80601443189449939 a2_x2
+1.33326952855476555 a2_x3
+0.75003589190550057 a2_x1
<= 161.226271

a2_local_4: 
+0.95670459642878813 a2_x1
+0.91733475592568980 a2_x4
+1.09011458852978071 a2_x5
<= 168.107444

a2_local_5: 
+0.81520595500675230 a2_x1
+1.22668387523213918 a2_x6
+1.09871283550731080 a2_x3
<= 97.192849

a2_local_6: 
+0.83274330347580960 a2_x1
+0.67881503806769894 a2_x6
+1.47315534264912551 a2_x2
<= 145.536249

a2_local_7: 
+0.96714825325243481 a2_x3
+0.86991204323730509 a2_x2
+1.14954150568899283 a2_x4
<= 122.822221

a2_local_8: 
+1.39337124460203610 a2_x4
+0.71768382179123569 a2_x3
+1.23035645150412432 a2_x1
<= 201.986813

a2_act_1: 
+0.08103809945015665 a2_x1
-8.10380994501566576 a2_z1
<= 0.000000

a2_act_2: 
+0.09999999999999999 a2_x2
-9.99999999999999822 a2_z2
<= 0.000000

a3_local_1: 
+0.91733006822027352 a3_x5
+0.61641529054006328 a3_x4
+1.62228292410440522 a3_x2
<= 141.663168

a3_local_2: 
+1.16216125120840341 a3_x4
+0.84047754887639747 a3_x5
+1.18979977673033854 a3_x3
<= 160.695973

a3_local_3: 
+1.27933410688494864 a3_x4
+0.67732240915929154 a3_x3
+1.47640176447317528 a3_x6
<= 145.524029

a3_local_4: 
+0.88217110480703187 a3_x4
+0.92949395153058512 a3_x5
+1.13356694018984250 a3_x2
<= 162.138368

a3_local_5: 
+1.59590810830689778 a3_x4
+0.62660249346116936 a3_x6
+1.37012093386959610 a3_x5
<= 147.845691

a3_local_6: 
+0.98295152504275152 a3_x1
+0.94198524843132214 a3_x5
+1.06158774955901825 a3_x3
<= 98.937617

a3_local_7: 
+0.96604189395861928 a3_x6
+0.75661321084049016 a3_x4
+1.32167927505408156 a3_x1
<= 114.772620

a3_local_8: 
+1.43055455384777264 a3_x4
+0.69902961569014810 a3_x2
+1.34317926854284408 a3_x1
<= 219.649230

a3_act_1: 
+0.09999999999999999 a3_x1
-10.00000000000000000 a3_z1
<= 0.000000

a3_act_2: 
+0.08872073204282940 a3_x2
-8.87207320428294111 a3_z2
<= 0.000000

a4_local_1: 
+0.91845120334564079 a4_x5
+1.15310035865435356 a4_x2
+0.86722720402843456 a4_x1
<= 196.619958

a4_local_2: 
+1.26375798396321581 a4_x4
+0.69306098668998739 a4_x2
+1.44287446444782974 a4_x6
<= 212.224900

a4_local_3: 
+1.18346942863511884 a4_x1
+0.84497324206615787 a4_x3
+0.89349973214392164 a4_x6
<= 144.747486

a4_local_4: 
+0.87093098926996482 a4_x3
+1.14819659917971650 a4_x4
+0.93811347763415975 a4_x1
<= 178.515875

a4_local_5: 
+1.33073631453956853 a4_x6
+1.37477731143616055 a4_x3
+0.72739053203849457 a4_x4
<= 164.211317

a4_local_6: 
+0.68329360238412751 a4_x5
+1.46349972619504998 a4_x4
+0.72706143046259086 a4_x2
<= 160.932424

a4_local_7: 
+1.17423824900847018 a4_x6
+0.85161593130218916 a4_x2
+0.91435662811412188 a4_x4
<= 198.992215

a4_local_8: 
+0.77979263868378701 a4_x6
+1.28239220325021441 a4_x2
+1.25930750453414819 a4_x1
<= 120.033972

a4_act_1: 
+0.10000000000000001 a4_x1
-10.00000000000000000 a4_z1
<= 0.000000

a4_act_2: 
+0.10000000000000001 a4_x2
-10.00000000000000178 a4_z2
<= 0.000000

coupling_1: 
+0.00006327519816861 a1_x1
+0.00221255869126571 a2_x1
+0.04165360702014590 a3_x1
+0.99907461762202654 a4_x1
+0.00741572740531098 short_1
-0.00741572740531098 surp_1
= 21.835117

coupling_2: 
+0.00007407003946633 a1_x2
+0.00232405582665729 a2_x2
+0.04294443592966509 a3_x2
+0.99901514492384169 a4_x2
+0.00771715341373813 short_2
-0.00771715341373813 surp_2
= 82.020879

coupling_3: 
+0.00006901789519449 a1_x3
+0.00159598601522124 a2_x3
+0.06935027002106982 a3_x3
+1.34933108665104395 a4_x3
+0.01139437966651014 short_3
-0.01139437966651014 surp_3
= 78.958116

bounds
  0.000000 <= a1_x1 <= 100.000000
  0.000000 <= a1_x2 <= 100.000000
  0.000000 <= a1_x3 <= 100.000000
  0.000000 <= a1_x4 <= 100.000000
  0.000000 <= a1_x5 <= 100.000000
  0.000000 <= a1_x6 <= 100.000000
  0.000000 <= a2_x1 <= 100.000000
  0.000000 <= a2_x2 <= 100.000000
  0.000000 <= a2_x3 <= 100.000000
  0.000000 <= a2_x4 <= 100.000000
  0.000000 <= a2_x5 <= 100.000000
  0.000000 <= a2_x6 <= 100.000000
  0.000000 <= a3_x1 <= 100.000000
  0.000000 <= a3_x2 <= 100.000000
  0.000000 <= a3_x3 <= 100.000000
  0.000000 <= a3_x4 <= 100.000000
  0.000000 <= a3_x5 <= 100.000000
  0.000000 <= a3_x6 <= 100.000000
  0.000000 <= a4_x1 <= 100.000000
  0.000000 <= a4_x2 <= 100.000000
  0.000000 <= a4_x3 <= 100.000000
  0.000000 <= a4_x4 <= 100.000000
  0.000000 <= a4_x5 <= 100.000000
  0.000000 <= a4_x6 <= 100.000000
  0.000000 <= short_1 <= +inf
  0.000000 <= surp_1 <= +inf
  0.000000 <= short_2 <= +inf
  0.000000 <= surp_2 <= +inf
  0.000000 <= short_3 <= +inf
  0.000000 <= surp_3 <= +inf
 0 <= a1_z1 <= 1
 0 <= a1_z2 <= 1
 0 <= a2_z1 <= 1
 0 <= a2_z2 <= 1
 0 <= a3_z1 <= 1
 0 <= a3_z2 <= 1
 0 <= a4_z1 <= 1
 0 <= a4_z2 <= 1

binary
  a1_z1
  a1_z2
  a2_z1
  a2_z2
  a3_z1
  a3_z2
  a4_z1
  a4_z2
end
