min
obj: 
  +4.00927114806491947 a1_x1
  +1.96797315584533505 a1_x2
  +5.12450639908132288 a1_x3
  +5.32896604620880687 a1_x4
  +7.73264361972508052 a1_x5
  +5.13954220661915251 a1_x6
  +7.46013036925632012 a1_z1
  +49.87266735161764331 a1_z2
  +9.36843435344059650 a2_x1
  +1.05737072364449292 a2_x2
  +6.60719118774421155 a2_x3
  +2.15746424177711438 a2_x4
  +4.02884955809363987 a2_x5
  +6.58160214482754569 a2_x6
  +37.18631761224219190 a2_z1
  +14.56992703067312611 a2_z2
  +7.57718464422320714 a3_x1
  +6.32546719961394732 a3_x2
  +1.31829467185166682 a3_x3
  +2.45084274434978422 a3_x4
  +7.58215052014305346 a3_x5
  +8.03960198396170256 a3_x6
  +34.57098216458418705 a3_z1
  +17.01923611963366056 a3_z2
  +9.65762920804675851 a4_x1
  +1.01038921150930694 a4_x2
  +8.26245311728527554 a4_x3
  +1.87174926104206407 a4_x4
  +5.72310336143512366 a4_x5
  +2.03823444273170651 a4_x6
  +33.41705432517787955 a4_z1
  +11.21145989114648600 a4_z2
  +1000000.00000000000000000 short_1
  +1000000.00000000000000000 surp_1
  +1000000.00000000000000000 short_2
  +1000000.00000000000000000 surp_2
  +1000000.00000000000000000 short_3
  +1000000.00000000000000000 surp_3

s.t.

a1_local_1: 
+1.53420209060712587 a1_x3
+0.65180461304434312 a1_x6
+1.03706853807701704 a1_x4
<= 121.833985

a1_local_2: 
+1.60711708670549380 a1_x4
+0.89035350617375286 a1_x6
+0.62223219967746579 a1_x2
<= 176.854404

a1_local_3: 
+0.81792847751954678 a1_x6
+1.38323898971708736 a1_x4
+0.72294087098031345 a1_x1
<= 185.638926

a1_local_4: 
+0.92036599997506618 a1_x2
+1.08652427406824126 a1_x5
+1.06721234205422233 a1_x3
<= 207.491165

a1_local_5: 
+0.86321235140881292 a1_x1
+0.39148292125567247 a1_x4
+0.54949594281904979 a1_x2
<= 123.487883

a1_local_6: 
+1.36634659452523177 a1_x1
+1.40064421703726771 a1_x3
+0.71395718329902791 a1_x6
<= 217.307338

a1_local_7: 
+0.78740936838659625 a1_x2
+1.26998742985367619 a1_x5
+1.00309031268534077 a1_x4
<= 170.251715

a1_local_8: 
+1.00696481702976959 a1_x4
+1.56985020884888948 a1_x5
+0.63700345062428698 a1_x6
<= 166.520945

a1_act_1: 
+0.10000000000000001 a1_x1
-10.00000000000000000 a1_z1
<= 0.000000

a1_act_2: 
+0.09999999999999999 a1_x2
-10.00000000000000000 a1_z2
<= 0.000000

a2_local_1: 
+0.72804982625318759 a2_x4
+1.37353236542389978 a2_x2
+1.10173399622457779 a2_x6
<= 184.849399

a2_local_2: 
+0.90666536941904252 a2_x1
+1.25104919160774819 a2_x4
+0.79932908050952045 a2_x5
<= 189.939909

a2_local_3: 
+0.96770654224011887 a2_x4
+0.71530445937690323 a2_x5
+1.39800610340258902 a2_x3
<= 196.834007

a2_local_4: 
+1.21549984172682124 a2_x2
+0.82270681218627895 a2_x1
+1.16665532178802467 a2_x5
<= 146.511930

a2_local_5: 
+1.16369786683456700 a2_x2
+0.73375325726383189 a2_x3
+1.36285596022974120 a2_x6
<= 183.819354

a2_local_6: 
+1.10274604427828748 a2_x6
+0.79144001316625079 a2_x5
+1.26351963934623401 a2_x2
<= 175.935066

a2_local_7: 
+1.06453420373490704 a2_x2
+0.72648168069596120 a2_x5
+0.76796464257419828 a2_x6
<= 170.622132

a2_local_8: 
+1.18366623858259246 a2_x2
+0.97287734364951117 a2_x4
+0.84483274710738754 a2_x5
<= 199.302403

a2_act_1: 
+0.10000000000000001 a2_x1
-10.00000000000000000 a2_z1
<= 0.000000

a2_act_2: 
+0.09999999999999999 a2_x2
-10.00000000000000000 a2_z2
<= 0.000000

a3_local_1: 
+0.88143664343025774 a3_x1
+0.73314462870439634 a3_x2
+1.36398735099128676 a3_x6
<= 134.523409

a3_local_2: 
+0.84229729769049477 a3_x2
+0.69598732747975822 a3_x1
+1.43680777007981342 a3_x6
<= 128.084157

a3_local_3: 
+0.91130667672903887 a3_x1
+0.70396555294661345 a3_x5
+1.42052405236913160 a3_x2
<= 157.245521

a3_local_4: 
+0.50802046558172975 a3_x4
+0.77298007527695589 a3_x6
+0.72781144339956616 a3_x5
<= 128.991423

a3_local_5: 
+0.83552718991282371 a3_x4
+1.22715129872564699 a3_x1
+0.81489544201963060 a3_x5
<= 93.645727

a3_local_6: 
+1.76125543221708991 a3_x5
+0.99891255183297811 a3_x6
+0.90646422741779120 a3_x1
<= 216.094148

a3_local_7: 
+0.93849311759407572 a3_x6
+1.15856208000726157 a3_x1
+1.33753653922579252 a3_x4
<= 215.456884

a3_local_8: 
+0.97442474373049093 a3_x3
+1.25030205485062385 a3_x1
+0.79980673159772742 a3_x6
<= 123.202698

a3_act_1: 
+0.10000000000000001 a3_x1
-10.00000000000000000 a3_z1
<= 0.000000

a3_act_2: 
+0.09999999999999999 a3_x2
-10.00000000000000000 a3_z2
<= 0.000000

a4_local_1: 
+0.87130639001612409 a4_x3
+0.84643491755682776 a4_x2
+1.18142574137469025 a4_x5
<= 172.756654

a4_local_2: 
+0.65774104868531857 a4_x2
+1.29681935005304316 a4_x5
+1.52035516408590055 a4_x3
<= 240.415525

a4_local_3: 
+1.46292464487793961 a4_x4
+0.68356220773315080 a4_x5
+0.69800044754070900 a4_x2
<= 96.420858

a4_local_4: 
+1.07824769983484448 a4_x5
+1.09848646992004317 a4_x3
+0.91034348385992225 a4_x1
<= 102.152209

a4_local_5: 
+0.92200139531732495 a4_x5
+1.40678635904905347 a4_x6
+0.71083998900584366 a4_x1
<= 163.171369

a4_local_6: 
+1.48742216729578236 a4_x3
+0.67230408554288024 a4_x2
+0.86180851001723480 a4_x1
<= 148.196017

a4_local_7: 
+0.76120405607675190 a4_x1
+0.67221657262505974 a4_x2
+1.48761580824304795 a4_x3
<= 178.444267

a4_local_8: 
+1.12739288061364751 a4_x3
+0.80573190113536342 a4_x1
+1.24110761729911889 a4_x4
<= 182.443381

a4_act_1: 
+0.10000000000000001 a4_x1
-10.00000000000000178 a4_z1
<= 0.000000

a4_act_2: 
+0.09999999999999999 a4_x2
-10.00000000000000000 a4_z2
<= 0.000000

coupling_1: 
+0.00018907482042395 a1_x1
+0.00522836479968786 a2_x1
+0.11393968370549565 a3_x1
+0.99319142028732477 a4_x1
+0.01675081486035936 short_1
-0.01675081486035936 surp_1
= 62.912467

coupling_2: 
+0.00008600091218373 a1_x2
+0.00169617918180136 a2_x2
+0.02990364376823772 a3_x2
+0.99943804348597665 a4_x2
+0.01064154364582084 short_2
-0.01064154364582084 surp_2
= 56.633724

coupling_3: 
+0.00008694431654970 a1_x3
+0.00124757675698211 a2_x3
+0.03847414958598357 a3_x3
+0.93602053254516016 a4_x3
+0.01091665097488172 short_3
-0.01091665097488172 surp_3
= 21.293685

bounds
  0.000000 <= a1_x1 <= 100.000000
  0.000000 <= a1_x2 <= 100.000000
  0.000000 <= a1_x3 <= 100.000000
  0.000000 <= a1_x4 <= 100.000000
  0.000000 <= a1_x5 <= 100.000000
  0.000000 <= a1_x6 <= 100.000000
  0.000000 <= a2_x1 <= 100.000000
  0.000000 <= a2_x2 <= 100.000000
  0.000000 <= a2_x3 <= 100.000000
  0.000000 <= a2_x4 <= 100.000000
  0.000000 <= a2_x5 <= 100.000000
  0.000000 <= a2_x6 <= 100.000000
  0.000000 <= a3_x1 <= 100.000000
  0.000000 <= a3_x2 <= 100.000000
  0.000000 <= a3_x3 <= 100.000000
  0.000000 <= a3_x4 <= 100.000000
  0.000000 <= a3_x5 <= 100.000000
  0.000000 <= a3_x6 <= 100.000000
  0.000000 <= a4_x1 <= 100.000000
  0.000000 <= a4_x2 <= 100.000000
  0.000000 <= a4_x3 <= 100.000000
  0.000000 <= a4_x4 <= 100.000000
  0.000000 <= a4_x5 <= 100.000000
  0.000000 <= a4_x6 <= 100.000000
  0.000000 <= short_1 <= +inf
  0.000000 <= surp_1 <= +inf
  0.000000 <= short_2 <= +inf
  0.000000 <= surp_2 <= +inf
  0.000000 <= short_3 <= +inf
  0.000000 <= surp_3 <= +inf
 0 <= a1_z1 <= 1
 0 <= a1_z2 <= 1
 0 <= a2_z1 <= 1
 0 <= a2_z2 <= 1
 0 <= a3_z1 <= 1
 0 <= a3_z2 <= 1
 0 <= a4_z1 <= 1
 0 <= a4_z2 <= 1

binary
  a1_z1
  a1_z2
  a2_z1
  a2_z2
  a3_z1
  a3_z2
  a4_z1
  a4_z2
end
