min
obj: 
  +2.37029411872895501 a1_x1
  +4.08711411622905185 a1_x2
  +7.66136637275760890 a1_x3
  +4.89991689432673461 a1_x4
  +9.18560754331382867 a1_x5
  +7.80552329567271030 a1_x6
  +17.43087311454965516 a1_z1
  +23.40237872614093462 a1_z2
  +7.76967499598976019 a2_x1
  +1.80336421538305247 a2_x2
  +9.57158160013941384 a2_x3
  +5.65827493894111466 a2_x4
  +2.44173723344263127 a2_x5
  +7.27299337053102857 a2_x6
  +31.32172731425238510 a2_z1
  +17.35876123031728824 a2_z2
  +2.34937597507828766 a3_x1
  +3.44404861330662637 a3_x2
  +8.97236298110027342 a3_x3
  +1.18282410761081147 a3_x4
  +8.94329086748358293 a3_x5
  +1.71905082189577563 a3_x6
  +16.00176469749968788 a3_z1
  +34.61198408971173990 a3_z2
  +6.56106695092732561 a4_x1
  +3.99053598556514322 a4_x2
  +4.10040873738996048 a4_x3
  +4.88744804784333908 a4_x4
  +2.91326732486744788 a4_x5
  +5.36841797601257653 a4_x6
  +43.70048480327027818 a4_z1
  +7.09598516541455737 a4_z2
  +1000000.00000000000000000 short_1
  +1000000.00000000000000000 surp_1
  +1000000.00000000000000000 short_2
  +1000000.00000000000000000 surp_2
  +1000000.00000000000000000 short_3
  +1000000.00000000000000000 surp_3

s.t.

a1_local_1: 
+0.77241195716615829 a1_x3
+0.55510986696212827 a1_x2
+0.30859812706501166 a1_x1
<= 114.444167

a1_local_2: 
+0.76791484251516662 a1_x6
+0.45663690431334675 a1_x3
+0.44920989778057008 a1_x2
<= 51.838027

a1_local_3: 
+0.57353003939573322 a1_x4
+0.66341421880025575 a1_x3
+0.48056723588315409 a1_x6
<= 52.862757

a1_local_4: 
+0.21909009371186064 a1_x5
+0.41373480370974458 a1_x3
+0.19914106129079623 a1_x6
<= 44.866798

a1_local_5: 
+0.75938868227298362 a1_x3
+0.57498645125237902 a1_x5
+0.30449862087027135 a1_x4
<= 99.342260

a1_local_6: 
+0.74094541606884634 a1_x3
+0.53463991929925525 a1_x1
+0.40639887684176712 a1_x6
<= 83.734928

a1_local_7: 
+0.52339568222869348 a1_x6
+0.61423774093397832 a1_x1
+0.59056664097854683 a1_x4
<= 79.541279

a1_local_8: 
+0.40881874508552435 a1_x3
+0.62272062132382799 a1_x2
+0.66714785575969782 a1_x4
<= 61.969700

a1_act_1: 
+0.00999950003749688 a1_x1
-0.99995000374968757 a1_z1
<= 0.000000

a1_act_2: 
+0.00999950003749688 a1_x2
-0.99995000374968757 a1_z2
<= 0.000000

a2_local_1: 
+1.18602662168834661 a2_x3
+1.38697776191440680 a2_x2
+0.68990752197238225 a2_x1
<= 206.655869

a2_local_2: 
+0.53239001145274056 a2_x6
+1.25886876806568826 a2_x2
+1.39111731431540253 a2_x1
<= 203.270970

a2_local_3: 
+0.46614415501724021 a2_x2
+0.77107279126206030 a2_x3
+0.43376995898586418 a2_x1
<= 93.242355

a2_local_4: 
+0.55747467419237706 a2_x1
+0.53453374855096436 a2_x4
+0.63521308180338765 a2_x5
<= 97.956718

a2_local_5: 
+0.38950225548877837 a2_x1
+0.58610481589364227 a2_x6
+0.52496074757086875 a2_x3
<= 46.438368

a2_local_6: 
+0.45672210821443554 a2_x1
+0.37229940364563713 a2_x6
+0.80795920064893401 a2_x2
<= 79.820062

a2_local_7: 
+0.55712484542162344 a2_x3
+0.50111201771719904 a2_x2
+0.66219230765188586 a2_x4
<= 70.751625

a2_local_8: 
+0.69928387547025295 a2_x4
+0.36018019333233503 a2_x3
+0.61747250128113851 a2_x1
<= 101.370056

a2_act_1: 
+0.00999950003749688 a2_x1
-0.99995000374968757 a2_z1
<= 0.000000

a2_act_2: 
+0.00999950003749688 a2_x2
-0.99995000374968757 a2_z2
<= 0.000000

a3_local_1: 
+0.46731663203920326 a3_x5
+0.31402123127994835 a3_x4
+0.82644166867659885 a3_x2
<= 72.167649

a3_local_2: 
+0.62364322641728220 a3_x4
+0.45102014007742147 a3_x5
+0.63847471319417626 a3_x3
<= 86.233261

a3_local_3: 
+0.61873482797448964 a3_x4
+0.32757898195559443 a3_x3
+0.71404427259961634 a3_x6
<= 70.380977

a3_local_4: 
+0.51561991303265631 a3_x4
+0.54327962890760972 a3_x5
+0.66255818619816786 a3_x2
<= 94.768204

a3_local_5: 
+0.72715879570718167 a3_x4
+0.28550485592540159 a3_x6
+0.62428123715894046 a3_x5
<= 67.364339

a3_local_6: 
+0.56936091402592692 a3_x1
+0.54563177164048937 a3_x5
+0.61490984652713265 a3_x3
<= 57.308230

a3_local_7: 
+0.53565463193328733 a3_x6
+0.41952980869997958 a3_x4
+0.73284981742548938 a3_x1
<= 63.639564

a3_local_8: 
+0.68674676701610349 a3_x4
+0.33557359090746153 a3_x2
+0.64480170834016970 a3_x1
<= 105.444003

a3_act_1: 
+0.00999950003749687 a3_x1
-0.99995000374968745 a3_z1
<= 0.000000

a3_act_2: 
+0.00999950003749688 a3_x2
-0.99995000374968757 a3_z2
<= 0.000000

a4_local_1: 
+0.53699798738911919 a4_x5
+0.67419212866122302 a4_x2
+0.50704845448071756 a4_x1
<= 114.959316

a4_local_2: 
+0.56531192863894686 a4_x4
+0.31002426732168697 a4_x2
+0.64543540506299346 a4_x6
<= 94.933737

a4_local_3: 
+0.69341408287709860 a4_x1
+0.49508363420821427 a4_x3
+0.52351609794437015 a4_x6
<= 84.809918

a4_local_4: 
+0.50648080789037342 a4_x3
+0.66772172345937819 a4_x4
+0.54555008134831418 a4_x1
<= 103.814040

a4_local_5: 
+0.65010965356042638 a4_x6
+0.67162516863435417 a4_x3
+0.35535485251283344 a4_x4
<= 80.222777

a4_local_6: 
+0.38576832624855306 a4_x5
+0.82625073302251473 a4_x4
+0.41047840947258923 a4_x2
<= 90.857915

a4_local_7: 
+0.68481414059526780 a4_x6
+0.49666124622017871 a4_x2
+0.53325153477864828 a4_x4
<= 116.051988

a4_local_8: 
+0.39801599426753953 a4_x6
+0.65454914870586722 a4_x2
+0.64276642743351686 a4_x1
<= 61.266853

a4_act_1: 
+0.00999950003749688 a4_x1
-0.99995000374968745 a4_z1
<= 0.000000

a4_act_2: 
+0.00999950003749688 a4_x2
-0.99995000374968757 a4_z2
<= 0.000000

coupling_1: 
+0.00006327519816861 a1_x1
+0.00221255869126571 a2_x1
+0.04165360702014590 a3_x1
+0.99907461762202654 a4_x1
+0.00741572740531098 short_1
-0.00741572740531098 surp_1
= 21.835117

coupling_2: 
+0.00007407003946633 a1_x2
+0.00232405582665729 a2_x2
+0.04294443592966509 a3_x2
+0.99901514492384169 a4_x2
+0.00771715341373813 short_2
-0.00771715341373813 surp_2
= 82.020879

coupling_3: 
+0.00006901789519449 a1_x3
+0.00159598601522124 a2_x3
+0.06935027002106982 a3_x3
+1.34933108665104395 a4_x3
+0.01139437966651014 short_3
-0.01139437966651014 surp_3
= 78.958116

bounds
  0.000000 <= a1_x1 <= 100.000000
  0.000000 <= a1_x2 <= 100.000000
  0.000000 <= a1_x3 <= 100.000000
  0.000000 <= a1_x4 <= 100.000000
  0.000000 <= a1_x5 <= 100.000000
  0.000000 <= a1_x6 <= 100.000000
  0.000000 <= a2_x1 <= 100.000000
  0.000000 <= a2_x2 <= 100.000000
  0.000000 <= a2_x3 <= 100.000000
  0.000000 <= a2_x4 <= 100.000000
  0.000000 <= a2_x5 <= 100.000000
  0.000000 <= a2_x6 <= 100.000000
  0.000000 <= a3_x1 <= 100.000000
  0.000000 <= a3_x2 <= 100.000000
  0.000000 <= a3_x3 <= 100.000000
  0.000000 <= a3_x4 <= 100.000000
  0.000000 <= a3_x5 <= 100.000000
  0.000000 <= a3_x6 <= 100.000000
  0.000000 <= a4_x1 <= 100.000000
  0.000000 <= a4_x2 <= 100.000000
  0.000000 <= a4_x3 <= 100.000000
  0.000000 <= a4_x4 <= 100.000000
  0.000000 <= a4_x5 <= 100.000000
  0.000000 <= a4_x6 <= 100.000000
  0.000000 <= short_1 <= +inf
  0.000000 <= surp_1 <= +inf
  0.000000 <= short_2 <= +inf
  0.000000 <= surp_2 <= +inf
  0.000000 <= short_3 <= +inf
  0.000000 <= surp_3 <= +inf
 0 <= a1_z1 <= 1
 0 <= a1_z2 <= 1
 0 <= a2_z1 <= 1
 0 <= a2_z2 <= 1
 0 <= a3_z1 <= 1
 0 <= a3_z2 <= 1
 0 <= a4_z1 <= 1
 0 <= a4_z2 <= 1

binary
  a1_z1
  a1_z2
  a2_z1
  a2_z2
  a3_z1
  a3_z2
  a4_z1
  a4_z2
end
