min
obj: 
  +9.92789069156587445 a1_x1
  +4.10293210566149646 a1_x2
  +3.32901181929639423 a1_x3
  +9.10176472428019245 a1_x4
  +1.02767819950250816 a1_x5
  +7.50152284301075145 a1_x6
  +48.47610588570461232 a1_z1
  +46.46239370281180214 a1_z2
  +3.18500776910177885 a2_x1
  +1.07942930179392071 a2_x2
  +3.49956447593909603 a2_x3
  +4.21239525423910788 a2_x4
  +5.82517656009187501 a2_x5
  +3.89342540667494053 a2_x6
  +48.49908581708631061 a2_z1
  +41.13663869847970034 a2_z2
  +2.67192419795283609 a3_x1
  +3.86821883222705321 a3_x2
  +5.91403436703844054 a3_x3
  +8.81180590098727734 a3_x4
  +5.97909561349352625 a3_x5
  +2.68685564033826729 a3_x6
  +5.18637677701330446 a3_z1
  +6.88066661844991856 a3_z2
  +1.28562252519206366 a4_x1
  +5.29948947704055140 a4_x2
  +9.02951063485292771 a4_x3
  +3.08226664425655672 a4_x4
  +2.19298535751718138 a4_x5
  +7.06762935071550480 a4_x6
  +41.57694264723444633 a4_z1
  +44.44096075316435446 a4_z2
  +1000000.00000000000000000 short_1
  +1000000.00000000000000000 surp_1
  +1000000.00000000000000000 short_2
  +1000000.00000000000000000 surp_2
  +1000000.00000000000000000 short_3
  +1000000.00000000000000000 surp_3

s.t.

a1_local_1: 
+0.00211851235575581 a1_x4
+0.00206032414197356 a1_x6
+0.00143504358551826 a1_x1
<= 0.223833

a1_local_2: 
+4.77490443675532461 a1_x6
+5.74070498427354003 a1_x5
+7.62618418923067498 a1_x4
<= 809.106936

a1_local_3: 
+0.07088838389506986 a1_x3
+0.05733727172963460 a1_x1
+0.04674275499624833 a1_x6
<= 10.391365

a1_local_4: 
+0.00406403406709158 a1_x5
+0.00429010691525991 a1_x2
+0.00230327126495720 a1_x4
<= 0.449241

a1_local_5: 
+6.89896120261600299 a1_x4
+13.57009263766404850 a1_x2
+8.36657746754903542 a1_x5
<= 1719.783123

a1_local_6: 
+4.04171150183988193 a1_x3
+3.81349169904105345 a1_x4
+1.98763958965086740 a1_x1
<= 379.021262

a1_local_7: 
+0.00281626207199152 a1_x1
+0.00210100662491512 a1_x2
+0.00241881441522130 a1_x5
<= 0.387253

a1_local_8: 
+1.77725143079917425 a1_x5
+1.92313001377498560 a1_x2
+1.37938246628086492 a1_x4
<= 230.623598

a1_act_1: 
+0.01461655073259480 a1_x1
-1.46165507325948019 a1_z1
<= 0.000000

a1_act_2: 
+0.00310905117830472 a1_x2
-0.31090511783047209 a1_z2
<= 0.000000

a2_local_1: 
+0.32044464506320330 a2_x6
+0.19534944545676564 a2_x4
+0.46075195891357151 a2_x1
<= 64.721793

a2_local_2: 
+0.03437008500996504 a2_x2
+0.03318895081554728 a2_x1
+0.02963372656437473 a2_x4
<= 5.413251

a2_local_3: 
+0.11391043021403806 a2_x3
+0.11715895657703264 a2_x4
+0.05934026554052971 a2_x5
<= 20.181544

a2_local_4: 
+1.50725360858138413 a2_x4
+2.58324296072563797 a2_x3
+2.61181984414159540 a2_x2
<= 248.113372

a2_local_5: 
+1.64945604569348192 a2_x1
+1.08618445918933415 a2_x4
+1.74551940785549431 a2_x2
<= 194.507199

a2_local_6: 
+0.00017613340799024 a2_x3
+0.00036357682648248 a2_x5
+0.00027444258753978 a2_x1
<= 0.051661

a2_local_7: 
+0.00026876776792824 a2_x3
+0.00034529297637980 a2_x6
+0.00041247645823371 a2_x4
<= 0.067560

a2_local_8: 
+0.45417675825293097 a2_x1
+0.83119548841097990 a2_x6
+0.78494687134830554 a2_x5
<= 121.571563

a2_act_1: 
+0.03055911671441862 a2_x1
-3.05591167144186171 a2_z1
<= 0.000000

a2_act_2: 
+140.83022265586751587 a2_x2
-14083.02226558675101842 a2_z2
<= 0.000000

a3_local_1: 
+1051.50769645588434287 a3_x1
+930.93705226125985064 a3_x4
+446.17141814975599345 a3_x2
<= 93526.880515

a3_local_2: 
+47.95616417169971157 a3_x6
+86.59242242050545713 a3_x4
+74.11759001838009908 a3_x1
<= 8119.513344

a3_local_3: 
+3713.29397092519729995 a3_x2
+2280.45495454885622166 a3_x3
+1904.74968010392717588 a3_x5
<= 413203.029272

a3_local_4: 
+0.24486722064174715 a3_x5
+0.44120520328981389 a3_x1
+0.36445555394502310 a3_x6
<= 46.986831

a3_local_5: 
+2807.13349580148224049 a3_x6
+1956.25169944994854632 a3_x3
+3632.46127010796362811 a3_x1
<= 319771.732491

a3_local_6: 
+0.00849456199658449 a3_x2
+0.01044383054221298 a3_x6
+0.00887368312707400 a3_x4
<= 1.147398

a3_local_7: 
+0.16854152872179065 a3_x2
+0.07952734816387359 a3_x5
+0.17907769980506161 a3_x4
<= 22.666936

a3_local_8: 
+19.04689457398051999 a3_x2
+20.50709344221260721 a3_x1
+13.33133332917575942 a3_x5
<= 3285.861428

a3_act_1: 
+28.74022875154125600 a3_x1
-2874.02287515412581342 a3_z1
<= 0.000000

a3_act_2: 
+0.00917602504732128 a3_x2
-0.91760250473212812 a3_z2
<= 0.000000

a4_local_1: 
+2589.18000133792975248 a4_x2
+1162.16402835638996294 a4_x6
+2504.98192261338408571 a4_x5
<= 411303.034839

a4_local_2: 
+9741.42691088380888687 a4_x3
+24682.00767736717170919 a4_x5
+19927.57458610925459652 a4_x1
<= 3129147.765225

a4_local_3: 
+73.63451282990145330 a4_x4
+105.55411085471430965 a4_x3
+92.23821812646028206 a4_x6
<= 16661.636619

a4_local_4: 
+26.25252781873790653 a4_x5
+17.18619889042685855 a4_x1
+17.29423637879117948 a4_x4
<= 2928.744957

a4_local_5: 
+839.34297299862555519 a4_x5
+1505.54639771371148527 a4_x6
+801.48638208570491770 a4_x1
<= 193744.314008

a4_local_6: 
+1497.01684528340956604 a4_x4
+1496.73370764178980608 a4_x3
+1292.72075816585129360 a4_x2
<= 178951.128537

a4_local_7: 
+4.32532351093295020 a4_x3
+6.90349897696000259 a4_x6
+3.32292313265384509 a4_x1
<= 884.826476

a4_local_8: 
+89862.02784795525076333 a4_x3
+93147.89175968008930795 a4_x2
+100757.53468037721177097 a4_x6
<= 10787033.864490

a4_act_1: 
+0.39517173651570631 a4_x1
-39.51717365157063000 a4_z1
<= 0.000000

a4_act_2: 
+881.82468353754609325 a4_x2
-88182.46835375460796058 a4_z2
<= 0.000000

coupling_1: 
+0.00004281922530553 a1_x1
+0.00118542358162602 a2_x1
+0.02276211224512359 a3_x1
+0.50590635464652078 a4_x1
+0.00440435657054093 short_1
-0.00440435657054093 surp_1
= 15.469946

coupling_2: 
+2.78220697253132210 a1_x2
+46.02186405847413653 a2_x2
+2304.61517462247093135 a3_x2
+21376.66357207618784741 a4_x2
+387.83572281574470253 short_2
-387.83572281574470253 surp_2
= 1334166.786930

coupling_3: 
+0.02960122566535288 a1_x3
+0.47519742502241052 a2_x3
+17.74589357909392362 a3_x3
+550.95579163770980813 a4_x3
+3.81676980171949998 short_3
-3.81676980171949998 surp_3
= 20187.319741

bounds
  0.000000 <= a1_x1 <= 100.000000
  0.000000 <= a1_x2 <= 100.000000
  0.000000 <= a1_x3 <= 100.000000
  0.000000 <= a1_x4 <= 100.000000
  0.000000 <= a1_x5 <= 100.000000
  0.000000 <= a1_x6 <= 100.000000
  0.000000 <= a2_x1 <= 100.000000
  0.000000 <= a2_x2 <= 100.000000
  0.000000 <= a2_x3 <= 100.000000
  0.000000 <= a2_x4 <= 100.000000
  0.000000 <= a2_x5 <= 100.000000
  0.000000 <= a2_x6 <= 100.000000
  0.000000 <= a3_x1 <= 100.000000
  0.000000 <= a3_x2 <= 100.000000
  0.000000 <= a3_x3 <= 100.000000
  0.000000 <= a3_x4 <= 100.000000
  0.000000 <= a3_x5 <= 100.000000
  0.000000 <= a3_x6 <= 100.000000
  0.000000 <= a4_x1 <= 100.000000
  0.000000 <= a4_x2 <= 100.000000
  0.000000 <= a4_x3 <= 100.000000
  0.000000 <= a4_x4 <= 100.000000
  0.000000 <= a4_x5 <= 100.000000
  0.000000 <= a4_x6 <= 100.000000
  0.000000 <= short_1 <= +inf
  0.000000 <= surp_1 <= +inf
  0.000000 <= short_2 <= +inf
  0.000000 <= surp_2 <= +inf
  0.000000 <= short_3 <= +inf
  0.000000 <= surp_3 <= +inf
 0 <= a1_z1 <= 1
 0 <= a1_z2 <= 1
 0 <= a2_z1 <= 1
 0 <= a2_z2 <= 1
 0 <= a3_z1 <= 1
 0 <= a3_z2 <= 1
 0 <= a4_z1 <= 1
 0 <= a4_z2 <= 1

binary
  a1_z1
  a1_z2
  a2_z1
  a2_z2
  a3_z1
  a3_z2
  a4_z1
  a4_z2
end
