min
obj: 
  +2.86702301288668870 a1_x1
  +4.61217347674817457 a1_x2
  +8.37266539443051627 a1_x3
  +3.88741117842564377 a1_x4
  +3.57352147071314707 a1_x5
  +7.90632682258909369 a1_x6
  +32.52167325628295202 a1_z1
  +46.95512094955829951 a1_z2
  +1.34162249297538905 a2_x1
  +5.04177078463243156 a2_x2
  +1.10989142532268992 a2_x3
  +7.53499127677043390 a2_x4
  +4.74514201764349153 a2_x5
  +4.92271964690250208 a2_x6
  +7.37175972020868908 a2_z1
  +32.23919956008293042 a2_z2
  +7.19883337190115391 a3_x1
  +9.69659328832065093 a3_x2
  +2.68145044350852224 a3_x3
  +4.74181989860472974 a3_x4
  +5.40392510460596665 a3_x5
  +9.85025370993833427 a3_x6
  +17.99205279831755888 a3_z1
  +28.73085531973273987 a3_z2
  +5.38171902546503311 a4_x1
  +3.72975403904797487 a4_x2
  +6.65779047476273789 a4_x3
  +5.43042814174023825 a4_x4
  +9.71759449267787367 a4_x5
  +8.04794548671517163 a4_x6
  +7.84716545501873153 a4_z1
  +24.37447779336789466 a4_z2
  +1000000.00000000000000000 short_1
  +1000000.00000000000000000 surp_1
  +1000000.00000000000000000 short_2
  +1000000.00000000000000000 surp_2
  +1000000.00000000000000000 short_3
  +1000000.00000000000000000 surp_3

s.t.

a1_local_1: 
+0.75472573801036924 a1_x3
+1.32498462638392334 a1_x1
+1.17726940492991528 a1_x2
<= 195.876542

a1_local_2: 
+1.20311966167186646 a1_x4
+0.90361891902783409 a1_x6
+0.83117251912448209 a1_x2
<= 110.084938

a1_local_3: 
+1.45778828517307857 a1_x3
+0.68597066540514362 a1_x4
+0.73088131078761542 a1_x1
<= 187.598018

a1_local_4: 
+0.71429763416320857 a1_x3
+0.64985684548949629 a1_x6
+1.75569559812507570 a1_x1
<= 170.951593

a1_local_5: 
+0.83167637709024866 a1_x5
+1.20239077067291267 a1_x1
+1.12922768985952904 a1_x3
<= 161.332482

a1_local_6: 
+1.15620194750512595 a1_x6
+0.93250323884611419 a1_x3
+0.86490080920363333 a1_x1
<= 134.954570

a1_local_7: 
+0.71609576170327016 a1_x4
+0.97837169858689776 a1_x3
+0.89410753701294177 a1_x6
<= 89.630277

a1_local_8: 
+0.91465463065916675 a1_x6
+1.12884328451426996 a1_x3
+0.88586255835351846 a1_x2
<= 107.684544

a1_act_1: 
+0.10000000000000001 a1_x1
-10.00000000000000000 a1_z1
<= 0.000000

a1_act_2: 
+0.10000000000000001 a1_x2
-10.00000000000000178 a1_z2
<= 0.000000

a2_local_1: 
+0.80143586396699218 a2_x3
+1.24776048210538537 a2_x1
+1.03579858280022319 a2_x4
<= 139.464286

a2_local_2: 
+1.26408441133474336 a2_x3
+0.79108641087038067 a2_x4
+0.91668418827015530 a2_x1
<= 193.362131

a2_local_3: 
+0.73450215460200563 a2_x2
+1.02354628101806067 a2_x5
+1.36146639425701355 a2_x6
<= 190.730980

a2_local_4: 
+0.61744952113381302 a2_x3
+0.54366933526785399 a2_x4
+0.42519277729496358 a2_x2
<= 95.460728

a2_local_5: 
+0.97698986974733637 a2_x3
+1.49592520047284028 a2_x5
+1.83361261163484190 a2_x6
<= 269.457875

a2_local_6: 
+0.65532467351982349 a2_x2
+1.52596116155505945 a2_x5
+0.81324738353424653 a2_x1
<= 201.113926

a2_local_7: 
+0.99022260351144298 a2_x6
+1.57023131361773505 a2_x2
+1.06267239004819514 a2_x5
<= 176.473048

a2_local_8: 
+0.89561606987628661 a2_x2
+1.20140218311110103 a2_x4
+0.83236073153325030 a2_x6
<= 191.798337

a2_act_1: 
+0.09999999999999999 a2_x1
-10.00000000000000000 a2_z1
<= 0.000000

a2_act_2: 
+0.10000000000000001 a2_x2
-10.00000000000000178 a2_z2
<= 0.000000

a3_local_1: 
+0.86880209205202519 a3_x6
+1.19134600227524223 a3_x2
+0.87447278273545870 a3_x1
<= 150.312891

a3_local_2: 
+1.20725089716054135 a3_x3
+0.82832823098496222 a3_x1
+0.96282836761533941 a3_x4
<= 172.858378

a3_local_3: 
+1.02241018488976709 a3_x4
+0.82643913357730192 a3_x1
+1.21001046461997386 a3_x6
<= 178.266010

a3_local_4: 
+1.18416876126276027 a3_x1
+1.19212969924258427 a3_x3
+0.83883490247357073 a3_x5
<= 117.935688

a3_local_5: 
+0.59863986406980207 a3_x5
+1.27085449992803201 a3_x4
+1.67045340616240501 a3_x6
<= 152.735331

a3_local_6: 
+0.76733689581740516 a3_x2
+1.26823822040903700 a3_x3
+1.30320854562160782 a3_x6
<= 178.510910

a3_local_7: 
+1.20064068599480200 a3_x4
+0.69594678063841831 a3_x1
+1.43689148052766669 a3_x2
<= 179.022851

a3_local_8: 
+1.45743217326549512 a3_x2
+0.68613827685676709 a3_x1
+1.07372631953375008 a3_x5
<= 105.291825

a3_act_1: 
+0.10000000000000001 a3_x1
-10.00000000000000000 a3_z1
<= 0.000000

a3_act_2: 
+0.09999999999999999 a3_x2
-9.99999999999999822 a3_z2
<= 0.000000

a4_local_1: 
+0.74796130182463094 a4_x1
+1.33696756444555032 a4_x4
+1.00400659758937771 a4_x3
<= 123.786758

a4_local_2: 
+1.17680838340659921 a4_x1
+0.84975601304370540 a4_x6
+0.87646179667627655 a4_x3
<= 136.197927

a4_local_3: 
+1.07719103296801011 a4_x2
+0.67935411715235661 a4_x5
+1.47198636874637945 a4_x1
<= 183.999455

a4_local_4: 
+0.81124402459131406 a4_x5
+0.83831920664339410 a4_x4
+1.23267471893401881 a4_x3
<= 124.586613

a4_local_5: 
+0.69082944963965465 a4_x1
+1.25211364852442242 a4_x4
+1.44753527881825583 a4_x2
<= 137.289562

a4_local_6: 
+1.13741571699877042 a4_x4
+1.35098159865453615 a4_x2
+0.74020253199297159 a4_x6
<= 164.533615

a4_local_7: 
+0.88127640658120243 a4_x2
+0.94058996728456090 a4_x1
+1.13471777132826035 a4_x3
<= 142.332347

a4_local_8: 
+1.18634613849520765 a4_x1
+0.74023993197972593 a4_x2
+1.35091334146965258 a4_x5
<= 213.581294

a4_act_1: 
+0.09999999999999999 a4_x1
-10.00000000000000000 a4_z1
<= 0.000000

a4_act_2: 
+0.10000000000000001 a4_x2
-10.00000000000000000 a4_z2
<= 0.000000

coupling_1: 
+0.00012069809948716 a1_x1
+0.00216435942914494 a2_x1
+0.04580283647922664 a3_x1
+0.99888115175497449 a4_x1
+0.00818064237523773 short_1
-0.00818064237523773 surp_1
= 26.208922

coupling_2: 
+0.00008785928947148 a1_x2
+0.00225154437901089 a2_x2
+0.06836859185980194 a3_x2
+0.99748559353100164 a4_x2
+0.01309864828650931 short_2
-0.01309864828650931 surp_2
= 24.238537

coupling_3: 
+0.00022530861035332 a1_x3
+0.00470561003855529 a2_x3
+0.07607589645285148 a3_x3
+0.99685512072091520 a4_x3
+0.01533187434039921 short_3
-0.01533187434039921 surp_3
= 22.192836

bounds
  0.000000 <= a1_x1 <= 100.000000
  0.000000 <= a1_x2 <= 100.000000
  0.000000 <= a1_x3 <= 100.000000
  0.000000 <= a1_x4 <= 100.000000
  0.000000 <= a1_x5 <= 100.000000
  0.000000 <= a1_x6 <= 100.000000
  0.000000 <= a2_x1 <= 100.000000
  0.000000 <= a2_x2 <= 100.000000
  0.000000 <= a2_x3 <= 100.000000
  0.000000 <= a2_x4 <= 100.000000
  0.000000 <= a2_x5 <= 100.000000
  0.000000 <= a2_x6 <= 100.000000
  0.000000 <= a3_x1 <= 100.000000
  0.000000 <= a3_x2 <= 100.000000
  0.000000 <= a3_x3 <= 100.000000
  0.000000 <= a3_x4 <= 100.000000
  0.000000 <= a3_x5 <= 100.000000
  0.000000 <= a3_x6 <= 100.000000
  0.000000 <= a4_x1 <= 100.000000
  0.000000 <= a4_x2 <= 100.000000
  0.000000 <= a4_x3 <= 100.000000
  0.000000 <= a4_x4 <= 100.000000
  0.000000 <= a4_x5 <= 100.000000
  0.000000 <= a4_x6 <= 100.000000
  0.000000 <= short_1 <= +inf
  0.000000 <= surp_1 <= +inf
  0.000000 <= short_2 <= +inf
  0.000000 <= surp_2 <= +inf
  0.000000 <= short_3 <= +inf
  0.000000 <= surp_3 <= +inf
 0 <= a1_z1 <= 1
 0 <= a1_z2 <= 1
 0 <= a2_z1 <= 1
 0 <= a2_z2 <= 1
 0 <= a3_z1 <= 1
 0 <= a3_z2 <= 1
 0 <= a4_z1 <= 1
 0 <= a4_z2 <= 1

binary
  a1_z1
  a1_z2
  a2_z1
  a2_z2
  a3_z1
  a3_z2
  a4_z1
  a4_z2
end
