min
obj: 
  +4.00927114806491947 a1_x1
  +1.96797315584533505 a1_x2
  +5.12450639908132288 a1_x3
  +5.32896604620880687 a1_x4
  +7.73264361972508052 a1_x5
  +5.13954220661915251 a1_x6
  +7.46013036925632012 a1_z1
  +49.87266735161764331 a1_z2
  +9.36843435344059650 a2_x1
  +1.05737072364449292 a2_x2
  +6.60719118774421155 a2_x3
  +2.15746424177711438 a2_x4
  +4.02884955809363987 a2_x5
  +6.58160214482754569 a2_x6
  +37.18631761224219190 a2_z1
  +14.56992703067312611 a2_z2
  +7.57718464422320714 a3_x1
  +6.32546719961394732 a3_x2
  +1.31829467185166682 a3_x3
  +2.45084274434978422 a3_x4
  +7.58215052014305346 a3_x5
  +8.03960198396170256 a3_x6
  +34.57098216458418705 a3_z1
  +17.01923611963366056 a3_z2
  +9.65762920804675851 a4_x1
  +1.01038921150930694 a4_x2
  +8.26245311728527554 a4_x3
  +1.87174926104206407 a4_x4
  +5.72310336143512366 a4_x5
  +2.03823444273170651 a4_x6
  +33.41705432517787955 a4_z1
  +11.21145989114648600 a4_z2
  +1000000.00000000000000000 short_1
  +1000000.00000000000000000 surp_1
  +1000000.00000000000000000 short_2
  +1000000.00000000000000000 surp_2
  +1000000.00000000000000000 short_3
  +1000000.00000000000000000 surp_3

s.t.

a1_local_1: 
+8.14848650066397084 a1_x3
+3.46187840766175547 a1_x6
+5.50810029168959225 a1_x4
<= 647.087230

a1_local_2: 
+0.00163905868694884 a1_x4
+0.00090804936418231 a1_x6
+0.00063459912200381 a1_x2
<= 0.180369

a1_local_3: 
+0.04885937575366941 a1_x6
+0.08262848820311200 a1_x4
+0.04318524251659649 a1_x1
<= 11.089236

a1_local_4: 
+5.36651717842374687 a1_x2
+6.33536134724617472 a1_x5
+6.22275634564399471 a1_x3
<= 1209.850105

a1_local_5: 
+0.86321235140881292 a1_x1
+0.39148292125567247 a1_x4
+0.54949594281904979 a1_x2
<= 123.487883

a1_local_6: 
+0.00082880355386343 a1_x1
+0.00084960793215290 a1_x3
+0.00043307477999765 a1_x6
<= 0.131815

a1_local_7: 
+7.00767816392809895 a1_x2
+11.30246036935553278 a1_x5
+8.92716592267119502 a1_x4
<= 1515.182919

a1_local_8: 
+0.00272057340710226 a1_x4
+0.00424135248729545 a1_x5
+0.00172102800285780 a1_x6
<= 0.449899

a1_act_1: 
+31.82797924072702855 a1_x1
-3182.79792407270269905 a1_z1
<= 0.000000

a1_act_2: 
+0.01995741996324700 a1_x2
-1.99574199632470006 a1_z2
<= 0.000000

a2_local_1: 
+0.00585875448055540 a2_x4
+0.01105307440498809 a2_x2
+0.00886586158529791 a2_x6
<= 1.487518

a2_local_2: 
+2.04695071229253278 a2_x1
+2.82445554914639141 a2_x4
+1.80462085118956961 a2_x5
<= 428.821530

a2_local_3: 
+0.08625107340745114 a2_x4
+0.06375463504832413 a2_x5
+0.12460340173945192 a2_x3
<= 17.543691

a2_local_4: 
+0.00466994369578639 a2_x2
+0.00316083504016885 a2_x1
+0.00448228331926356 a2_x5
<= 0.562898

a2_local_5: 
+0.07528768638278704 a2_x2
+0.04747158750535134 a2_x3
+0.08817260479972634 a2_x6
<= 11.892549

a2_local_6: 
+36.61513620179361084 a2_x6
+26.27865593169934044 a2_x5
+41.95339799979223017 a2_x2
<= 5841.677172

a2_local_7: 
+1.06453420373490704 a2_x2
+0.72648168069596120 a2_x5
+0.76796464257419828 a2_x6
<= 170.622132

a2_local_8: 
+132.83327918499924181 a2_x2
+109.17814801958523674 a2_x4
+94.80873957808249486 a2_x5
<= 22366.095121

a2_act_1: 
+71.80250231758512314 a2_x1
-7180.25023175851220003 a2_z1
<= 0.000000

a2_act_2: 
+822.12451377479601433 a2_x2
-82212.45137747960689012 a2_z2
<= 0.000000

a3_local_1: 
+44.65302369223827128 a3_x1
+37.14064387880750928 a3_x2
+69.09873778641737374 a3_x6
<= 6814.870941

a3_local_2: 
+0.07983125021741659 a3_x2
+0.06596428439285333 a3_x1
+0.13617776160753833 a3_x6
<= 12.139560

a3_local_3: 
+3.68639455041652297 a3_x1
+2.84766351913271043 a3_x5
+5.74626770450643498 a3_x2
<= 636.085574

a3_local_4: 
+0.50802046558172975 a3_x4
+0.77298007527695589 a3_x6
+0.72781144339956616 a3_x5
<= 128.991423

a3_local_5: 
+0.14355381820955815 a3_x4
+0.21083964301779926 a3_x1
+0.14000903089184813 a3_x5
<= 16.089484

a3_local_6: 
+1.76125543221708991 a3_x5
+0.99891255183297811 a3_x6
+0.90646422741779120 a3_x1
<= 216.094148

a3_local_7: 
+0.93849311759407572 a3_x6
+1.15856208000726157 a3_x1
+1.33753653922579252 a3_x4
<= 215.456884

a3_local_8: 
+0.19971096868690330 a3_x3
+0.25625276465116759 a3_x1
+0.16392253804863027 a3_x6
<= 25.250724

a3_act_1: 
+828.65138942756584584 a3_x1
-82865.13894275658822153 a3_z1
<= 0.000000

a3_act_2: 
+0.01134128736694763 a3_x2
-1.13412873669476344 a3_z2
<= 0.000000

a4_local_1: 
+1340.09910662412698912 a4_x3
+1301.84592909089110435 a4_x2
+1817.07330360525725155 a4_x5
<= 265705.657619

a4_local_2: 
+74.66273902632738668 a4_x2
+147.20699717743352153 a4_x5
+172.58141493580842507 a4_x3
<= 27290.499207

a4_local_3: 
+37.22473889657189261 a4_x4
+17.39353068630123289 a4_x5
+17.76091783016009273 a4_x2
<= 2453.469672

a4_local_4: 
+28538.36668747176372563 a4_x5
+29074.03343833365579485 a4_x3
+24094.38587990896485280 a4_x1
<= 2703698.960190

a4_local_5: 
+45767.33134781989065232 a4_x5
+69831.62689036043593660 a4_x6
+35285.46646170110761886 a4_x1
<= 8099682.002307

a4_local_6: 
+12.53431782646547177 a4_x3
+5.66542120287626449 a4_x2
+7.26235093682088362 a4_x1
<= 1248.829025

a4_local_7: 
+0.08599031356660262 a4_x1
+0.07593773759249048 a4_x2
+0.16805027350584231 a4_x3
<= 20.158167

a4_local_8: 
+8.52849624935651995 a4_x3
+6.09519681646343425 a4_x1
+9.38872494335956276 a4_x4
<= 1380.146813

a4_act_1: 
+0.04294512529263800 a4_x1
-4.29451252926380000 a4_z1
<= 0.000000

a4_act_2: 
+267.49153779604318970 a4_x2
-26749.15377960431942483 a4_z2
<= 0.000000

coupling_1: 
+0.00919421605709597 a1_x1
+0.25424176252480002 a2_x1
+5.54059005380284653 a3_x1
+48.29631192403296325 a4_x1
+0.81454849785512862 short_1
-0.81454849785512862 surp_1
= 3059.269423

coupling_2: 
+0.00003416380727964 a1_x2
+0.00067380609353297 a2_x2
+0.01187920333303407 a3_x2
+0.39702612261419845 a4_x2
+0.00422734639717493 short_2
-0.00422734639717493 surp_2
= 22.497711

coupling_3: 
+0.00008694431654970 a1_x3
+0.00124757675698211 a2_x3
+0.03847414958598357 a3_x3
+0.93602053254516016 a4_x3
+0.01091665097488172 short_3
-0.01091665097488172 surp_3
= 21.293685

bounds
  0.000000 <= a1_x1 <= 100.000000
  0.000000 <= a1_x2 <= 100.000000
  0.000000 <= a1_x3 <= 100.000000
  0.000000 <= a1_x4 <= 100.000000
  0.000000 <= a1_x5 <= 100.000000
  0.000000 <= a1_x6 <= 100.000000
  0.000000 <= a2_x1 <= 100.000000
  0.000000 <= a2_x2 <= 100.000000
  0.000000 <= a2_x3 <= 100.000000
  0.000000 <= a2_x4 <= 100.000000
  0.000000 <= a2_x5 <= 100.000000
  0.000000 <= a2_x6 <= 100.000000
  0.000000 <= a3_x1 <= 100.000000
  0.000000 <= a3_x2 <= 100.000000
  0.000000 <= a3_x3 <= 100.000000
  0.000000 <= a3_x4 <= 100.000000
  0.000000 <= a3_x5 <= 100.000000
  0.000000 <= a3_x6 <= 100.000000
  0.000000 <= a4_x1 <= 100.000000
  0.000000 <= a4_x2 <= 100.000000
  0.000000 <= a4_x3 <= 100.000000
  0.000000 <= a4_x4 <= 100.000000
  0.000000 <= a4_x5 <= 100.000000
  0.000000 <= a4_x6 <= 100.000000
  0.000000 <= short_1 <= +inf
  0.000000 <= surp_1 <= +inf
  0.000000 <= short_2 <= +inf
  0.000000 <= surp_2 <= +inf
  0.000000 <= short_3 <= +inf
  0.000000 <= surp_3 <= +inf
 0 <= a1_z1 <= 1
 0 <= a1_z2 <= 1
 0 <= a2_z1 <= 1
 0 <= a2_z2 <= 1
 0 <= a3_z1 <= 1
 0 <= a3_z2 <= 1
 0 <= a4_z1 <= 1
 0 <= a4_z2 <= 1

binary
  a1_z1
  a1_z2
  a2_z1
  a2_z2
  a3_z1
  a3_z2
  a4_z1
  a4_z2
end
