min
obj: 
  +1.58690782181034451 a1_x1
  +1.85914319529187777 a1_x2
  +3.32311090405199927 a1_x3
  +9.20870591814637862 a1_x4
  +9.62032466035919853 a1_x5
  +2.65221673698665317 a1_x6
  +45.97121590191820673 a1_z1
  +15.23159126469524693 a1_z2
  +7.38516429138446995 a2_x1
  +8.18461543331298103 a2_x2
  +6.32869026358351139 a2_x3
  +1.72084034317845602 a2_x4
  +2.51957804121249751 a2_x5
  +8.19694216322757185 a2_x6
  +32.90972281828447876 a2_z1
  +29.00608133785045339 a2_z2
  +9.62518175189459946 a3_x1
  +3.90094189534807345 a3_x2
  +1.32195101356612454 a3_x3
  +4.74857750195312356 a3_x4
  +3.55589835486331518 a3_x5
  +8.12436598238075014 a3_x6
  +20.82211554905935103 a3_z1
  +25.22287462451485496 a3_z2
  +3.97402812736189226 a4_x1
  +5.87257606585061964 a4_x2
  +8.54493066197249362 a4_x3
  +7.89453690964795740 a4_x4
  +2.70429770668290548 a4_x5
  +9.26226871331643586 a4_x6
  +13.31023289155729650 a4_z1
  +27.54299042523267715 a4_z2
  +1000000.00000000000000000 short_1
  +1000000.00000000000000000 surp_1
  +1000000.00000000000000000 short_2
  +1000000.00000000000000000 surp_2
  +1000000.00000000000000000 short_3
  +1000000.00000000000000000 surp_3

s.t.

a1_local_1: 
+0.00004941575377174 a1_x4
+0.00006404681252886 a1_x1
+0.00004548481531828 a1_x3
<= 0.007047

a1_local_2: 
+0.92429768641700294 a1_x2
+0.62828860628994887 a1_x4
+0.71668967494412572 a1_x3
<= 152.811836

a1_local_3: 
+0.00001751458396806 a1_x6
+0.00003511518541535 a1_x4
+0.00002097426040337 a1_x1
<= 0.003179

a1_local_4: 
+0.00022862101089173 a1_x6
+0.00020318393823301 a1_x2
+0.00018713366153101 a1_x1
<= 0.024247

a1_local_5: 
+0.00116470551628151 a1_x1
+0.00169690157833088 a1_x2
+0.00197343205519718 a1_x5
<= 0.252355

a1_local_6: 
+0.00002233518825317 a1_x1
+0.00003533999418775 a1_x2
+0.00003146379433886 a1_x6
<= 0.003233

a1_local_7: 
+0.00001520043497281 a1_x5
+0.00003233647069112 a1_x2
+0.00002785543103013 a1_x4
<= 0.004994

a1_local_8: 
+0.00015256550584031 a1_x1
+0.00010749674283466 a1_x2
+0.00015012168257176 a1_x3
<= 0.025701

a1_act_1: 
+8.95149920837035928 a1_x1
-895.14992083703589287 a1_z1
<= 0.000000

a1_act_2: 
+21.19826434477331034 a1_x2
-2119.82643447733107678 a1_z2
<= 0.000000

a2_local_1: 
+0.53414568675018748 a2_x1
+1.35948914997252412 a2_x5
+0.81447931545808461 a2_x3
<= 144.965295

a2_local_2: 
+0.59598573706145574 a2_x4
+1.40842436560399720 a2_x2
+1.14945535901422646 a2_x5
<= 144.328917

a2_local_3: 
+0.05656978548031836 a2_x2
+0.05032926659850225 a2_x1
+0.04597371323349030 a2_x5
<= 5.080961

a2_local_4: 
+0.01838755752849403 a2_x6
+0.01254339913005053 a2_x2
+0.01853024252450760 a2_x4
<= 2.310830

a2_local_5: 
+0.00232259333337032 a2_x1
+0.00420709673987121 a2_x6
+0.00366491330038090 a2_x2
<= 0.483270

a2_local_6: 
+1.27474409597838179 a2_x4
+1.33547850743768270 a2_x6
+1.22819736529871237 a2_x5
<= 201.276260

a2_local_7: 
+0.97331577736427399 a2_x4
+0.67170539681421759 a2_x6
+1.30400253654364584 a2_x3
<= 181.425587

a2_local_8: 
+0.00043985435377489 a2_x5
+0.00038346659936249 a2_x1
+0.00029352767906754 a2_x4
<= 0.072759

a2_act_1: 
+0.65264814334906707 a2_x1
-65.26481433490670270 a2_z1
<= 0.000000

a2_act_2: 
+20.89828864257987462 a2_x2
-2089.82886425798733399 a2_z2
<= 0.000000

a3_local_1: 
+0.16967131260914084 a3_x3
+0.19674190943172731 a3_x5
+0.08737888746727905 a3_x4
<= 15.722484

a3_local_2: 
+582.19759620734032524 a3_x3
+647.28659877379209320 a3_x5
+437.08122759468170671 a3_x2
<= 84868.431028

a3_local_3: 
+99.89986602966835960 a3_x5
+127.45183829670232001 a3_x6
+142.12636665971044181 a3_x2
<= 18535.310705

a3_local_4: 
+0.61059069376005559 a3_x4
+0.53414751294956686 a3_x3
+0.25710486472056515 a3_x1
<= 61.213295

a3_local_5: 
+0.07353340442234015 a3_x1
+0.06257699763897900 a3_x4
+0.03402654768725967 a3_x5
<= 9.761204

a3_local_6: 
+0.01086221301930247 a3_x5
+0.01972161093258520 a3_x4
+0.01533416955292509 a3_x6
<= 1.857117

a3_local_7: 
+137.32697290543032409 a3_x5
+105.39758811927372051 a3_x4
+123.05381792226440041 a3_x2
<= 22206.507353

a3_local_8: 
+210.16589445726356189 a3_x6
+96.03635200368229619 a3_x2
+159.22926739735962087 a3_x3
<= 25395.223913

a3_act_1: 
+0.00550313549370440 a3_x1
-0.55031354937043997 a3_z1
<= 0.000000

a3_act_2: 
+357.96792309383454267 a3_x2
-35796.79230938345426694 a3_z2
<= 0.000000

a4_local_1: 
+0.32759595817054060 a4_x3
+0.27465605418401834 a4_x2
+0.44270675371125706 a4_x4
<= 61.850567

a4_local_2: 
+187.95722809870403580 a4_x5
+95.13823182628441089 a4_x4
+199.32667367380057044 a4_x1
<= 19356.729223

a4_local_3: 
+44.92437503263575138 a4_x3
+54.39189433075783597 a4_x2
+59.48637722668040340 a4_x6
<= 9104.271453

a4_local_4: 
+17474.93857404346636031 a4_x1
+20683.62776745359587949 a4_x6
+19906.50055916798737599 a4_x5
<= 2682472.085265

a4_local_5: 
+42.01225741732551455 a4_x1
+46.53660057018266372 a4_x2
+39.58349275380962240 a4_x6
<= 5040.409881

a4_local_6: 
+115.38416155273054642 a4_x6
+338.96645644098094863 a4_x3
+193.26325116276157701 a4_x5
<= 26559.301636

a4_local_7: 
+12.32678997757953709 a4_x1
+12.94229536330736252 a4_x4
+17.98803029391559605 a4_x5
<= 1392.878160

a4_local_8: 
+0.29222802585820140 a4_x5
+0.25746241706096146 a4_x1
+0.39557214141718355 a4_x6
<= 53.935018

a4_act_1: 
+182.44207332917602571 a4_x1
-18244.20733291760188877 a4_z1
<= 0.000000

a4_act_2: 
+91.09804621194513174 a4_x2
-9109.80462119451294711 a4_z2
<= 0.000000

coupling_1: 
+0.01420671321950582 a1_x1
+0.20724985584029326 a2_x1
+3.21726049642417422 a3_x1
+136.36815645053627577 a4_x1
+0.96690611350075140 short_1
-0.96690611350075140 surp_1
= 8309.847946

coupling_2: 
+0.95063749748486259 a1_x2
+9.97492546575576533 a2_x2
+534.94004989468953681 a3_x2
+7250.47523059504783305 a4_x2
+84.08069340393818436 short_2
-84.08069340393818436 surp_2
= 606011.061490

coupling_3: 
+0.00001187670968537 a1_x3
+0.00022694220026798 a2_x3
+0.01000551691022392 a3_x3
+0.15316870558218859 a4_x3
+0.00180221634613758 short_3
-0.00180221634613758 surp_3
= 8.330783

bounds
  0.000000 <= a1_x1 <= 100.000000
  0.000000 <= a1_x2 <= 100.000000
  0.000000 <= a1_x3 <= 100.000000
  0.000000 <= a1_x4 <= 100.000000
  0.000000 <= a1_x5 <= 100.000000
  0.000000 <= a1_x6 <= 100.000000
  0.000000 <= a2_x1 <= 100.000000
  0.000000 <= a2_x2 <= 100.000000
  0.000000 <= a2_x3 <= 100.000000
  0.000000 <= a2_x4 <= 100.000000
  0.000000 <= a2_x5 <= 100.000000
  0.000000 <= a2_x6 <= 100.000000
  0.000000 <= a3_x1 <= 100.000000
  0.000000 <= a3_x2 <= 100.000000
  0.000000 <= a3_x3 <= 100.000000
  0.000000 <= a3_x4 <= 100.000000
  0.000000 <= a3_x5 <= 100.000000
  0.000000 <= a3_x6 <= 100.000000
  0.000000 <= a4_x1 <= 100.000000
  0.000000 <= a4_x2 <= 100.000000
  0.000000 <= a4_x3 <= 100.000000
  0.000000 <= a4_x4 <= 100.000000
  0.000000 <= a4_x5 <= 100.000000
  0.000000 <= a4_x6 <= 100.000000
  0.000000 <= short_1 <= +inf
  0.000000 <= surp_1 <= +inf
  0.000000 <= short_2 <= +inf
  0.000000 <= surp_2 <= +inf
  0.000000 <= short_3 <= +inf
  0.000000 <= surp_3 <= +inf
 0 <= a1_z1 <= 1
 0 <= a1_z2 <= 1
 0 <= a2_z1 <= 1
 0 <= a2_z2 <= 1
 0 <= a3_z1 <= 1
 0 <= a3_z2 <= 1
 0 <= a4_z1 <= 1
 0 <= a4_z2 <= 1

binary
  a1_z1
  a1_z2
  a2_z1
  a2_z2
  a3_z1
  a3_z2
  a4_z1
  a4_z2
end
