min
obj: 
  +2.86702301288668870 a1_x1
  +4.61217347674817457 a1_x2
  +8.37266539443051627 a1_x3
  +3.88741117842564377 a1_x4
  +3.57352147071314707 a1_x5
  +7.90632682258909369 a1_x6
  +32.52167325628295202 a1_z1
  +46.95512094955829951 a1_z2
  +1.34162249297538905 a2_x1
  +5.04177078463243156 a2_x2
  +1.10989142532268992 a2_x3
  +7.53499127677043390 a2_x4
  +4.74514201764349153 a2_x5
  +4.92271964690250208 a2_x6
  +7.37175972020868908 a2_z1
  +32.23919956008293042 a2_z2
  +7.19883337190115391 a3_x1
  +9.69659328832065093 a3_x2
  +2.68145044350852224 a3_x3
  +4.74181989860472974 a3_x4
  +5.40392510460596665 a3_x5
  +9.85025370993833427 a3_x6
  +17.99205279831755888 a3_z1
  +28.73085531973273987 a3_z2
  +5.38171902546503311 a4_x1
  +3.72975403904797487 a4_x2
  +6.65779047476273789 a4_x3
  +5.43042814174023825 a4_x4
  +9.71759449267787367 a4_x5
  +8.04794548671517163 a4_x6
  +7.84716545501873153 a4_z1
  +24.37447779336789466 a4_z2
  +1000000.00000000000000000 short_1
  +1000000.00000000000000000 surp_1
  +1000000.00000000000000000 short_2
  +1000000.00000000000000000 surp_2
  +1000000.00000000000000000 short_3
  +1000000.00000000000000000 surp_3

s.t.

a1_local_1: 
+0.31370816797662709 a1_x3
+0.55074112198143366 a1_x1
+0.48934203464308457 a1_x2
<= 81.417750

a1_local_2: 
+0.69990565180277409 a1_x4
+0.52567338781966100 a1_x6
+0.48352824934302852 a1_x2
<= 64.041070

a1_local_3: 
+0.57794778380968848 a1_x3
+0.27195665506551264 a1_x4
+0.28976171512276283 a1_x1
<= 74.374215

a1_local_4: 
+0.35648094899768945 a1_x3
+0.32432080677983677 a1_x6
+0.87620622417977745 a1_x1
<= 85.315957

a1_local_5: 
+0.45020744170615429 a1_x5
+0.65088451194159846 a1_x1
+0.61127948726171655 a1_x3
<= 87.333350

a1_local_6: 
+0.67266321542671093 a1_x6
+0.54251822390678728 a1_x3
+0.50318801192081619 a1_x1
<= 78.514809

a1_local_7: 
+0.71609576170327016 a1_x4
+0.97837169858689776 a1_x3
+0.89410753701294177 a1_x6
<= 89.630277

a1_local_8: 
+0.53750857770776117 a1_x6
+0.66337929965646736 a1_x3
+0.52058854547317346 a1_x2
<= 63.282210

a1_act_1: 
+0.00999950003749688 a1_x1
-0.99995000374968757 a1_z1
<= 0.000000

a1_act_2: 
+0.00999950003749688 a1_x2
-0.99995000374968745 a1_z2
<= 0.000000

a2_local_1: 
+0.44305386190229840 a2_x3
+0.68979331370255881 a2_x1
+0.57261545545392178 a2_x4
<= 77.099358

a2_local_2: 
+0.72215275482148855 a2_x3
+0.45193598290534320 a2_x4
+0.52368813816919357 a2_x1
<= 110.464929

a2_local_3: 
+0.39597494269970185 a2_x2
+0.55180053242489535 a2_x5
+0.73397548812584312 a2_x6
<= 102.824326

a2_local_4: 
+0.61744952113381302 a2_x3
+0.54366933526785399 a2_x4
+0.42519277729496358 a2_x2
<= 95.460728

a2_local_5: 
+0.38161231068386586 a2_x3
+0.58430848675053237 a2_x5
+0.71620921290208461 a2_x6
<= 105.250265

a2_local_6: 
+0.35439116549475275 a2_x2
+0.82522019450083384 a2_x5
+0.43979373848120729 a2_x1
<= 108.759828

a2_local_7: 
+0.46293115892475639 a2_x6
+0.73408645613147794 a2_x2
+0.49680158717631906 a2_x5
<= 82.501523

a2_local_8: 
+0.52248322477444342 a2_x2
+0.70087229114775895 a2_x4
+0.48558141575907665 a2_x6
<= 111.891040

a2_act_1: 
+0.01261907309766582 a2_x1
-1.26190730976658205 a2_z1
<= 0.000000

a2_act_2: 
+0.00999950003749688 a2_x2
-0.99995000374968757 a2_z2
<= 0.000000

a3_local_1: 
+0.86880209205202519 a3_x6
+1.19134600227524223 a3_x2
+0.87447278273545870 a3_x1
<= 150.312891

a3_local_2: 
+0.68894482039042559 a3_x3
+0.47270409627566029 a3_x1
+0.54945961800792575 a3_x4
<= 98.645513

a3_local_3: 
+0.57222014825871048 a3_x4
+0.46253952721860953 a3_x1
+0.67721583537832630 a3_x6
<= 99.771505

a3_local_4: 
+0.63053091360848301 a3_x1
+0.63476985121754981 a3_x3
+0.44665199313257420 a3_x5
<= 62.796875

a3_local_5: 
+0.27427507782991195 a3_x5
+0.58225944812390895 a3_x4
+0.76534117669954027 a3_x6
<= 69.977790

a3_local_6: 
+0.38877618047460094 a3_x2
+0.64256106274845259 a3_x3
+0.66027900325177635 a3_x6
<= 90.443703

a3_local_7: 
+0.60103170143918061 a3_x4
+0.34838572651871608 a3_x1
+0.71929707313678826 a3_x2
<= 89.617493

a3_local_8: 
+0.75283736148377700 a3_x2
+0.35442509053748994 a3_x1
+0.55463389938917085 a3_x5
<= 54.388548

a3_act_1: 
+0.00999950003749688 a3_x1
-0.99995000374968745 a3_z1
<= 0.000000

a3_act_2: 
+0.00547632037561417 a3_x2
-0.54763203756141676 a3_z2
<= 0.000000

a4_local_1: 
+0.40835286714628022 a4_x1
+0.72992350926589200 a4_x4
+0.54814195835967350 a4_x3
<= 67.581942

a4_local_2: 
+0.69402579243393325 a4_x1
+0.50114580983945267 a4_x6
+0.51689561491350489 a4_x3
<= 80.323080

a4_local_3: 
+0.55341762310459863 a4_x2
+0.34902494474436035 a4_x5
+0.75624765942345418 a4_x1
<= 94.531553

a4_local_4: 
+0.31849774985330731 a4_x5
+0.32912757799262754 a4_x4
+0.48395317855108744 a4_x3
<= 48.913218

a4_local_5: 
+0.33950806613546913 a4_x1
+0.61535113133073882 a4_x4
+0.71139107261683709 a4_x2
<= 67.470942

a4_local_6: 
+0.59398797369782319 a4_x4
+0.70551761356461118 a4_x2
+0.38655295116251553 a4_x6
<= 85.923719

a4_local_7: 
+0.51319099488252173 a4_x2
+0.54773087930478404 a4_x1
+0.66077672978661672 a4_x3
<= 82.883960

a4_local_8: 
+0.61016323740756173 a4_x1
+0.38072125722768341 a4_x2
+0.69480367587635539 a4_x5
<= 109.849436

a4_act_1: 
+0.00999950003749688 a4_x1
-0.99995000374968745 a4_z1
<= 0.000000

a4_act_2: 
+0.00999950003749688 a4_x2
-0.99995000374968757 a4_z2
<= 0.000000

coupling_1: 
+0.00012069809948716 a1_x1
+0.00216435942914494 a2_x1
+0.04580283647922665 a3_x1
+0.99888115175497461 a4_x1
+0.00818064237523773 short_1
-0.00818064237523773 surp_1
= 26.208922

coupling_2: 
+0.00008785928947148 a1_x2
+0.00225154437901089 a2_x2
+0.06836859185980194 a3_x2
+0.99748559353100164 a4_x2
+0.01309864828650931 short_2
-0.01309864828650931 surp_2
= 24.238537

coupling_3: 
+0.00022530861035332 a1_x3
+0.00470561003855529 a2_x3
+0.07607589645285150 a3_x3
+0.99685512072091531 a4_x3
+0.01533187434039922 short_3
-0.01533187434039922 surp_3
= 22.192836

bounds
  0.000000 <= a1_x1 <= 100.000000
  0.000000 <= a1_x2 <= 100.000000
  0.000000 <= a1_x3 <= 100.000000
  0.000000 <= a1_x4 <= 100.000000
  0.000000 <= a1_x5 <= 100.000000
  0.000000 <= a1_x6 <= 100.000000
  0.000000 <= a2_x1 <= 100.000000
  0.000000 <= a2_x2 <= 100.000000
  0.000000 <= a2_x3 <= 100.000000
  0.000000 <= a2_x4 <= 100.000000
  0.000000 <= a2_x5 <= 100.000000
  0.000000 <= a2_x6 <= 100.000000
  0.000000 <= a3_x1 <= 100.000000
  0.000000 <= a3_x2 <= 100.000000
  0.000000 <= a3_x3 <= 100.000000
  0.000000 <= a3_x4 <= 100.000000
  0.000000 <= a3_x5 <= 100.000000
  0.000000 <= a3_x6 <= 100.000000
  0.000000 <= a4_x1 <= 100.000000
  0.000000 <= a4_x2 <= 100.000000
  0.000000 <= a4_x3 <= 100.000000
  0.000000 <= a4_x4 <= 100.000000
  0.000000 <= a4_x5 <= 100.000000
  0.000000 <= a4_x6 <= 100.000000
  0.000000 <= short_1 <= +inf
  0.000000 <= surp_1 <= +inf
  0.000000 <= short_2 <= +inf
  0.000000 <= surp_2 <= +inf
  0.000000 <= short_3 <= +inf
  0.000000 <= surp_3 <= +inf
 0 <= a1_z1 <= 1
 0 <= a1_z2 <= 1
 0 <= a2_z1 <= 1
 0 <= a2_z2 <= 1
 0 <= a3_z1 <= 1
 0 <= a3_z2 <= 1
 0 <= a4_z1 <= 1
 0 <= a4_z2 <= 1

binary
  a1_z1
  a1_z2
  a2_z1
  a2_z2
  a3_z1
  a3_z2
  a4_z1
  a4_z2
end
