min
obj: 
  +2.86702301288668870 a1_x1
  +4.61217347674817457 a1_x2
  +8.37266539443051627 a1_x3
  +3.88741117842564377 a1_x4
  +3.57352147071314707 a1_x5
  +7.90632682258909369 a1_x6
  +32.52167325628295202 a1_z1
  +46.95512094955829951 a1_z2
  +1.34162249297538905 a2_x1
  +5.04177078463243156 a2_x2
  +1.10989142532268992 a2_x3
  +7.53499127677043390 a2_x4
  +4.74514201764349153 a2_x5
  +4.92271964690250208 a2_x6
  +7.37175972020868908 a2_z1
  +32.23919956008293042 a2_z2
  +7.19883337190115391 a3_x1
  +9.69659328832065093 a3_x2
  +2.68145044350852224 a3_x3
  +4.74181989860472974 a3_x4
  +5.40392510460596665 a3_x5
  +9.85025370993833427 a3_x6
  +17.99205279831755888 a3_z1
  +28.73085531973273987 a3_z2
  +5.38171902546503311 a4_x1
  +3.72975403904797487 a4_x2
  +6.65779047476273789 a4_x3
  +5.43042814174023825 a4_x4
  +9.71759449267787367 a4_x5
  +8.04794548671517163 a4_x6
  +7.84716545501873153 a4_z1
  +24.37447779336789466 a4_z2
  +1000000.00000000000000000 short_1
  +1000000.00000000000000000 surp_1
  +1000000.00000000000000000 short_2
  +1000000.00000000000000000 surp_2
  +1000000.00000000000000000 short_3
  +1000000.00000000000000000 surp_3

s.t.

a1_local_1: 
+0.31370816797662709 a1_x3
+0.55074112198143366 a1_x1
+0.48934203464308457 a1_x2
<= 81.417750

a1_local_2: 
+4.30418554465624048 a1_x4
+3.23271542562344383 a1_x6
+2.97353692729096597 a1_x2
<= 393.831149

a1_local_3: 
+0.57794778380968848 a1_x3
+0.27195665506551264 a1_x4
+0.28976171512276283 a1_x1
<= 74.374215

a1_local_4: 
+0.71429763416320857 a1_x3
+0.64985684548949629 a1_x6
+1.75569559812507570 a1_x1
<= 170.951593

a1_local_5: 
+0.00012738701088961 a1_x5
+0.00018416895130912 a1_x1
+0.00017296263785712 a1_x3
<= 0.024711

a1_local_6: 
+0.00040202549260403 a1_x6
+0.00032424272832346 a1_x3
+0.00030073654055333 a1_x1
<= 0.046925

a1_local_7: 
+0.71609576170327016 a1_x4
+0.97837169858689776 a1_x3
+0.89410753701294177 a1_x6
<= 89.630277

a1_local_8: 
+0.02411493772546024 a1_x6
+0.02976203759909626 a1_x3
+0.02335583258635732 a1_x2
<= 2.839111

a1_act_1: 
+0.25200442742436469 a1_x1
-25.20044274243646854 a1_z1
<= 0.000000

a1_act_2: 
+0.00239563230947599 a1_x2
-0.23956323094759926 a1_z2
<= 0.000000

a2_local_1: 
+6.63565554131325097 a2_x3
+10.33109339071866195 a2_x1
+8.57611059682474064 a2_x4
<= 1154.723670

a2_local_2: 
+13.58649904245647200 a2_x3
+8.50267171038195890 a2_x4
+9.85260852399623310 a2_x1
<= 2078.274503

a2_local_3: 
+0.00698385628067543 a2_x2
+0.00973217039386809 a2_x5
+0.01294521135014572 a2_x6
<= 1.813525

a2_local_4: 
+0.61744952113381302 a2_x3
+0.54366933526785399 a2_x4
+0.42519277729496358 a2_x2
<= 95.460728

a2_local_5: 
+0.97698986974733637 a2_x3
+1.49592520047284028 a2_x5
+1.83361261163484190 a2_x6
<= 269.457875

a2_local_6: 
+0.03981032767504768 a2_x2
+0.09270063575450838 a2_x5
+0.04940397657466527 a2_x1
<= 12.217473

a2_local_7: 
+0.99022260351144298 a2_x6
+1.57023131361773505 a2_x2
+1.06267239004819514 a2_x5
<= 176.473048

a2_local_8: 
+0.00037732024572424 a2_x2
+0.00050614697769741 a2_x4
+0.00035067096975685 a2_x6
<= 0.080804

a2_act_1: 
+0.01261907309766582 a2_x1
-1.26190730976658205 a2_z1
<= 0.000000

a2_act_2: 
+11.89690780375847190 a2_x2
-1189.69078037584722551 a2_z2
<= 0.000000

a3_local_1: 
+0.86880209205202519 a3_x6
+1.19134600227524223 a3_x2
+0.87447278273545870 a3_x1
<= 150.312891

a3_local_2: 
+0.02778631586411243 a3_x3
+0.01906495983514595 a3_x1
+0.02216064051674080 a3_x4
<= 3.978541

a3_local_3: 
+18.21464064305115826 a3_x4
+14.72333908047689022 a3_x1
+21.55681360877724728 a3_x6
<= 3175.879270

a3_local_4: 
+19.39349268259758929 a3_x1
+19.52387139001568528 a3_x3
+13.73785483555657905 a3_x5
<= 1931.468707

a3_local_5: 
+6.11088372860821583 a3_x5
+12.97281479426036555 a3_x4
+17.05189906619007800 a3_x6
<= 1559.114092

a3_local_6: 
+14.77162357687817185 a3_x2
+24.41422757045434722 a3_x3
+25.08742402851184039 a3_x6
<= 3436.425366

a3_local_7: 
+991.89715807632342148 a3_x4
+574.94939321971480695 a3_x1
+1187.07336226788811473 a3_x2
<= 147897.917331

a3_local_8: 
+33.84982993946619700 a3_x2
+15.93601706659250894 a3_x1
+24.93800671101656974 a3_x5
<= 2445.472559

a3_act_1: 
+2.34400329006114383 a3_x1
-234.40032900611439004 a3_z1
<= 0.000000

a3_act_2: 
+0.00547632037561417 a3_x2
-0.54763203756141676 a3_z2
<= 0.000000

a4_local_1: 
+1053.07732409331288181 a4_x1
+1882.35704404929379052 a4_x4
+1413.57123501203568594 a4_x3
<= 174283.117559

a4_local_2: 
+244.89170086750635846 a4_x1
+176.83269280786885247 a4_x6
+182.39011818739245996 a4_x3
<= 28342.542795

a4_local_3: 
+5.20480231592803833 a4_x2
+3.28252257405752168 a4_x5
+7.11238566473768952 a4_x1
<= 889.053806

a4_local_4: 
+0.31849774985330731 a4_x5
+0.32912757799262754 a4_x4
+0.48395317855108744 a4_x3
<= 48.913218

a4_local_5: 
+14412.85137189239867439 a4_x1
+26122.98581989189187880 a4_x4
+30200.08895113085600315 a4_x2
<= 2864287.340534

a4_local_6: 
+314.04589519904254757 a4_x4
+373.01245200514148337 a4_x2
+204.37344351254643016 a4_x6
<= 45428.514473

a4_local_7: 
+378.81864533931792494 a4_x2
+404.31471280249166966 a4_x1
+487.76098595964646165 a4_x3
<= 61181.879376

a4_local_8: 
+82.24166451216396467 a4_x1
+51.31602166430419487 a4_x2
+93.65003872737970880 a4_x5
<= 14806.202452

a4_act_1: 
+0.35260508522758999 a4_x1
-35.26050852275899672 a4_z1
<= 0.000000

a4_act_2: 
+0.02083361278539814 a4_x2
-2.08336127853981345 a4_z2
<= 0.000000

coupling_1: 
+5.75702705001295900 a1_x1
+103.23506196436579785 a2_x1
+2184.69196862773969769 a3_x1
+47644.37745776842348278 a4_x1
+390.19818572815569269 short_1
-390.19818572815569269 surp_1
= 1250106.451038

coupling_2: 
+0.00957993927914363 a1_x2
+0.24550230903269610 a2_x2
+7.45472633067483148 a3_x2
+108.76313108529059548 a4_x2
+1.42824117948671980 short_2
-1.42824117948671980 surp_2
= 2642.904513

coupling_3: 
+0.06416792903632529 a1_x3
+1.34015850771582534 a2_x3
+21.66642773796421650 a3_x3
+283.90450123325172171 a4_x3
+4.36652031684808772 short_3
-4.36652031684808772 surp_3
= 6320.523217

bounds
  0.000000 <= a1_x1 <= 100.000000
  0.000000 <= a1_x2 <= 100.000000
  0.000000 <= a1_x3 <= 100.000000
  0.000000 <= a1_x4 <= 100.000000
  0.000000 <= a1_x5 <= 100.000000
  0.000000 <= a1_x6 <= 100.000000
  0.000000 <= a2_x1 <= 100.000000
  0.000000 <= a2_x2 <= 100.000000
  0.000000 <= a2_x3 <= 100.000000
  0.000000 <= a2_x4 <= 100.000000
  0.000000 <= a2_x5 <= 100.000000
  0.000000 <= a2_x6 <= 100.000000
  0.000000 <= a3_x1 <= 100.000000
  0.000000 <= a3_x2 <= 100.000000
  0.000000 <= a3_x3 <= 100.000000
  0.000000 <= a3_x4 <= 100.000000
  0.000000 <= a3_x5 <= 100.000000
  0.000000 <= a3_x6 <= 100.000000
  0.000000 <= a4_x1 <= 100.000000
  0.000000 <= a4_x2 <= 100.000000
  0.000000 <= a4_x3 <= 100.000000
  0.000000 <= a4_x4 <= 100.000000
  0.000000 <= a4_x5 <= 100.000000
  0.000000 <= a4_x6 <= 100.000000
  0.000000 <= short_1 <= +inf
  0.000000 <= surp_1 <= +inf
  0.000000 <= short_2 <= +inf
  0.000000 <= surp_2 <= +inf
  0.000000 <= short_3 <= +inf
  0.000000 <= surp_3 <= +inf
 0 <= a1_z1 <= 1
 0 <= a1_z2 <= 1
 0 <= a2_z1 <= 1
 0 <= a2_z2 <= 1
 0 <= a3_z1 <= 1
 0 <= a3_z2 <= 1
 0 <= a4_z1 <= 1
 0 <= a4_z2 <= 1

binary
  a1_z1
  a1_z2
  a2_z1
  a2_z2
  a3_z1
  a3_z2
  a4_z1
  a4_z2
end
