min
obj: 
  +4.00927114806491947 a1_x1
  +1.96797315584533505 a1_x2
  +5.12450639908132288 a1_x3
  +5.32896604620880687 a1_x4
  +7.73264361972508052 a1_x5
  +5.13954220661915251 a1_x6
  +7.46013036925632012 a1_z1
  +49.87266735161764331 a1_z2
  +9.36843435344059650 a2_x1
  +1.05737072364449292 a2_x2
  +6.60719118774421155 a2_x3
  +2.15746424177711438 a2_x4
  +4.02884955809363987 a2_x5
  +6.58160214482754569 a2_x6
  +37.18631761224219190 a2_z1
  +14.56992703067312611 a2_z2
  +7.57718464422320714 a3_x1
  +6.32546719961394732 a3_x2
  +1.31829467185166682 a3_x3
  +2.45084274434978422 a3_x4
  +7.58215052014305346 a3_x5
  +8.03960198396170256 a3_x6
  +34.57098216458418705 a3_z1
  +17.01923611963366056 a3_z2
  +9.65762920804675851 a4_x1
  +1.01038921150930694 a4_x2
  +8.26245311728527554 a4_x3
  +1.87174926104206407 a4_x4
  +5.72310336143512366 a4_x5
  +2.03823444273170651 a4_x6
  +33.41705432517787955 a4_z1
  +11.21145989114648600 a4_z2
  +1000000.00000000000000000 short_1
  +1000000.00000000000000000 surp_1
  +1000000.00000000000000000 short_2
  +1000000.00000000000000000 surp_2
  +1000000.00000000000000000 short_3
  +1000000.00000000000000000 surp_3

s.t.

a1_local_1: 
+0.78148208496250937 a1_x3
+0.33201208048706399 a1_x6
+0.52825536371465331 a1_x4
<= 62.059019

a1_local_2: 
+0.82850689794525334 a1_x4
+0.45899830670512548 a1_x6
+0.32077542689389560 a1_x2
<= 91.172631

a1_local_3: 
+0.46417792727740481 a1_x6
+0.78499407322668380 a1_x4
+0.41027205221344570 a1_x1
<= 105.350889

a1_local_4: 
+0.51721050820825065 a1_x2
+0.61058510634536678 a1_x5
+0.59973253881057675 a1_x3
<= 116.602103

a1_local_5: 
+0.86321235140881292 a1_x1
+0.39148292125567247 a1_x4
+0.54949594281904979 a1_x2
<= 123.487883

a1_local_6: 
+0.65598510136492894 a1_x1
+0.67245144267999735 a1_x3
+0.34277194171173614 a1_x6
<= 104.329587

a1_local_7: 
+0.43751232582857641 a1_x2
+0.70564966142939822 a1_x5
+0.55735224057380928 a1_x4
<= 94.597838

a1_local_8: 
+0.51093370724646547 a1_x4
+0.79654162038621501 a1_x5
+0.32321539844488506 a1_x6
<= 84.492688

a1_act_1: 
+0.00999950003749688 a1_x1
-0.99995000374968745 a1_z1
<= 0.000000

a1_act_2: 
+0.01995741996324700 a1_x2
-1.99574199632470006 a1_z2
<= 0.000000

a2_local_1: 
+0.38210255802832643 a2_x4
+0.72087130775669528 a2_x2
+0.57822330703748115 a2_x6
<= 97.014553

a2_local_2: 
+0.52120176967801135 a2_x1
+0.71917277819711223 a2_x4
+0.45949889051526144 a2_x5
<= 109.188042

a2_local_3: 
+0.52461682870637982 a2_x4
+0.38778363135704452 a2_x5
+0.75789249784491508 a2_x3
<= 106.708416

a2_local_4: 
+0.64829000143276161 a2_x2
+0.43879281768829254 a2_x1
+0.62223864970562437 a2_x5
<= 78.142519

a2_local_5: 
+0.60093396416614830 a2_x2
+0.37891042526939894 a2_x3
+0.70377926961066539 a2_x6
<= 94.924375

a2_local_6: 
+0.59465521118310682 a2_x6
+0.42678360136503851 a2_x5
+0.68135228583946383 a2_x2
<= 94.872890

a2_local_7: 
+1.06453420373490704 a2_x2
+0.72648168069596120 a2_x5
+0.76796464257419828 a2_x6
<= 170.622132

a2_local_8: 
+0.67651343220211602 a2_x2
+0.55603899934845002 a2_x4
+0.48285630083254316 a2_x5
<= 113.909435

a2_act_1: 
+0.00999950003749688 a2_x1
-0.99995000374968757 a2_z1
<= 0.000000

a2_act_2: 
+0.00999950003749687 a2_x2
-0.99995000374968734 a2_z2
<= 0.000000

a3_local_1: 
+0.49468250114607065 a3_x1
+0.41145761448933232 a3_x2
+0.76550104803234320 a3_x6
<= 75.497629

a3_local_2: 
+0.46662846550291309 a3_x2
+0.38557347806034403 a3_x1
+0.79598427635151570 a3_x6
<= 70.957978

a3_local_3: 
+0.49835127935034834 a3_x1
+0.38496605246954757 a3_x5
+0.77681860225916632 a3_x2
<= 85.990269

a3_local_4: 
+0.50802046558172975 a3_x4
+0.77298007527695589 a3_x6
+0.72781144339956616 a3_x5
<= 128.991423

a3_local_5: 
+0.49336283095547812 a3_x4
+0.72460937963388783 a3_x1
+0.48118017828895326 a3_x5
<= 55.296011

a3_local_6: 
+0.79391229039661282 a3_x5
+0.45027480819936783 a3_x6
+0.40860234000581425 a3_x1
<= 97.407677

a3_local_7: 
+0.46854196695973055 a3_x6
+0.57841122714162541 a3_x1
+0.66776408821830624 a3_x4
<= 107.566683

a3_local_8: 
+0.54881279298141450 a3_x3
+0.70419164456558436 a3_x1
+0.45046492203495364 a3_x6
<= 69.389881

a3_act_1: 
+0.00999950003749688 a3_x1
-0.99995000374968757 a3_z1
<= 0.000000

a3_act_2: 
+0.01134128736694763 a3_x2
-1.13412873669476344 a3_z2
<= 0.000000

a4_local_1: 
+0.51419106913609902 a4_x3
+0.49951346644504335 a4_x2
+0.69720430381684517 a4_x5
<= 101.950278

a4_local_2: 
+0.31264890934173256 a4_x2
+0.61642671719781394 a4_x5
+0.72268164623999631 a4_x3
<= 114.278486

a4_local_3: 
+0.83160858398989934 a4_x4
+0.38857517482686516 a4_x5
+0.39678268175738918 a4_x2
<= 54.811034

a4_local_4: 
+0.60294574131329626 a4_x5
+0.61426306685376231 a4_x3
+0.50905531893063438 a4_x1
<= 57.122532

a4_local_5: 
+0.50491806736059974 a4_x5
+0.77040214169723131 a4_x6
+0.38927918685842394 a4_x1
<= 89.357969

a4_local_6: 
+0.80582327724305713 a4_x3
+0.36422630603993728 a4_x2
+0.46689189738285369 a4_x1
<= 80.286419

a4_local_7: 
+0.42261030873506084 a4_x1
+0.37320564837512732 a4_x2
+0.82590439578183461 a4_x3
<= 99.069870

a4_local_8: 
+0.60604053711379935 a4_x3
+0.43312868347014033 a4_x1
+0.66716895231286111 a4_x4
<= 98.074138

a4_act_1: 
+0.00999950003749688 a4_x1
-0.99995000374968745 a4_z1
<= 0.000000

a4_act_2: 
+0.00999950003749687 a4_x2
-0.99995000374968734 a4_z2
<= 0.000000

coupling_1: 
+0.00018907482042395 a1_x1
+0.00522836479968786 a2_x1
+0.11393968370549565 a3_x1
+0.99319142028732477 a4_x1
+0.01675081486035936 short_1
-0.01675081486035936 surp_1
= 62.912467

coupling_2: 
+0.00008600091218373 a1_x2
+0.00169617918180136 a2_x2
+0.02990364376823772 a3_x2
+0.99943804348597665 a4_x2
+0.01064154364582084 short_2
-0.01064154364582084 surp_2
= 56.633724

coupling_3: 
+0.00008694431654970 a1_x3
+0.00124757675698211 a2_x3
+0.03847414958598357 a3_x3
+0.93602053254516016 a4_x3
+0.01091665097488172 short_3
-0.01091665097488172 surp_3
= 21.293685

bounds
  0.000000 <= a1_x1 <= 100.000000
  0.000000 <= a1_x2 <= 100.000000
  0.000000 <= a1_x3 <= 100.000000
  0.000000 <= a1_x4 <= 100.000000
  0.000000 <= a1_x5 <= 100.000000
  0.000000 <= a1_x6 <= 100.000000
  0.000000 <= a2_x1 <= 100.000000
  0.000000 <= a2_x2 <= 100.000000
  0.000000 <= a2_x3 <= 100.000000
  0.000000 <= a2_x4 <= 100.000000
  0.000000 <= a2_x5 <= 100.000000
  0.000000 <= a2_x6 <= 100.000000
  0.000000 <= a3_x1 <= 100.000000
  0.000000 <= a3_x2 <= 100.000000
  0.000000 <= a3_x3 <= 100.000000
  0.000000 <= a3_x4 <= 100.000000
  0.000000 <= a3_x5 <= 100.000000
  0.000000 <= a3_x6 <= 100.000000
  0.000000 <= a4_x1 <= 100.000000
  0.000000 <= a4_x2 <= 100.000000
  0.000000 <= a4_x3 <= 100.000000
  0.000000 <= a4_x4 <= 100.000000
  0.000000 <= a4_x5 <= 100.000000
  0.000000 <= a4_x6 <= 100.000000
  0.000000 <= short_1 <= +inf
  0.000000 <= surp_1 <= +inf
  0.000000 <= short_2 <= +inf
  0.000000 <= surp_2 <= +inf
  0.000000 <= short_3 <= +inf
  0.000000 <= surp_3 <= +inf
 0 <= a1_z1 <= 1
 0 <= a1_z2 <= 1
 0 <= a2_z1 <= 1
 0 <= a2_z2 <= 1
 0 <= a3_z1 <= 1
 0 <= a3_z2 <= 1
 0 <= a4_z1 <= 1
 0 <= a4_z2 <= 1

binary
  a1_z1
  a1_z2
  a2_z1
  a2_z2
  a3_z1
  a3_z2
  a4_z1
  a4_z2
end
