min
obj: 
  +4.68205187695116365 a1_x1
  +5.71291625483064269 a1_x2
  +9.00563589084773142 a1_x3
  +9.01724711762336106 a1_x4
  +9.40638568868457803 a1_x5
  +5.77535620951187667 a1_x6
  +36.44079832510822570 a1_z1
  +20.35589591192510284 a1_z2
  +9.85237733259970305 a2_x1
  +8.66656609951932211 a2_x2
  +1.31834896047554095 a2_x3
  +8.26919439786070853 a2_x4
  +6.06353184831551140 a2_x5
  +3.26315819103542193 a2_x6
  +31.01579944565894920 a2_z1
  +42.14273897613190911 a2_z2
  +3.40700085697226296 a3_x1
  +9.41882509326676143 a3_x2
  +9.74900107951637906 a3_x3
  +7.04508203399397814 a3_x4
  +9.97637618984075480 a3_x5
  +5.84735535483849578 a3_x6
  +49.07354774414897491 a3_z1
  +13.99914181947612590 a3_z2
  +1.91431389506638183 a4_x1
  +6.10422017205319989 a4_x2
  +2.25748963263893865 a4_x3
  +5.65946667698913863 a4_x4
  +4.35204976180165826 a4_x5
  +6.78234121926408484 a4_x6
  +29.95675458969477134 a4_z1
  +32.97214499302464219 a4_z2
  +1000000.00000000000000000 short_1
  +1000000.00000000000000000 surp_1
  +1000000.00000000000000000 short_2
  +1000000.00000000000000000 surp_2
  +1000000.00000000000000000 short_3
  +1000000.00000000000000000 surp_3

s.t.

a1_local_1: 
+0.71433844523206813 a1_x4
+0.58447109877792236 a1_x2
+0.38485597352355061 a1_x6
<= 73.865137

a1_local_2: 
+0.70495917278386289 a1_x3
+0.31528735967011723 a1_x4
+0.63531602021367128 a1_x5
<= 69.546758

a1_local_3: 
+0.41451117236781243 a1_x1
+0.72875843443075417 a1_x3
+0.54506112705667986 a1_x6
<= 87.912396

a1_local_4: 
+0.46059081302182625 a1_x2
+0.40016831925090918 a1_x1
+0.79228872213846113 a1_x5
<= 79.077829

a1_local_5: 
+0.39348222751484507 a1_x2
+0.64066596104730300 a1_x3
+0.65689142701698289 a1_x5
<= 72.017480

a1_local_6: 
+0.66171173080293666 a1_x6
+0.46546895978685987 a1_x1
+0.58777226269425153 a1_x3
<= 89.471631

a1_local_7: 
+0.45816015602561272 a1_x4
+0.37092012443569417 a1_x2
+0.34173675473953996 a1_x5
<= 61.652794

a1_local_8: 
+0.62146601471376828 a1_x6
+0.60662518643990138 a1_x2
+0.49576796561752662 a1_x4
<= 107.831600

a1_act_1: 
+0.00999950003749688 a1_x1
-0.99995000374968757 a1_z1
<= 0.000000

a1_act_2: 
+0.00999950003749688 a1_x2
-0.99995000374968757 a1_z2
<= 0.000000

a2_local_1: 
+0.44885746616390759 a2_x2
+0.61687916725815728 a2_x6
+0.64651919389280232 a2_x5
<= 56.772926

a2_local_2: 
+0.74102737782510697 a2_x1
+0.86944847985895712 a2_x4
+1.09523490845688820 a2_x5
<= 187.884470

a2_local_3: 
+0.77440698609889358 a2_x2
+0.53778542616001102 a2_x5
+0.33328764647241826 a2_x1
<= 103.863649

a2_local_4: 
+0.41468542146143300 a2_x6
+0.79588688361712889 a2_x4
+0.44113497901840465 a2_x5
<= 61.595230

a2_local_5: 
+0.40401631066425481 a2_x5
+0.74862317746819773 a2_x3
+0.52567495553303989 a2_x6
<= 86.736840

a2_local_6: 
+0.65607633883902960 a2_x6
+0.45872831625651234 a2_x4
+0.59927637153490387 a2_x1
<= 90.216060

a2_local_7: 
+0.56547167327310022 a2_x3
+0.51645280057307630 a2_x6
+0.64305387916250567 a2_x1
<= 80.627764

a2_local_8: 
+0.73230032493250408 a2_x5
+0.73391553561691336 a2_x3
+0.79210467918101501 a2_x6
<= 157.080726

a2_act_1: 
+0.00999950003749688 a2_x1
-0.99995000374968757 a2_z1
<= 0.000000

a2_act_2: 
+0.00999950003749687 a2_x2
-0.99995000374968745 a2_z2
<= 0.000000

a3_local_1: 
+0.68812236348274247 a3_x5
+0.46521836019664287 a3_x2
+0.55682985750664571 a3_x3
<= 66.223664

a3_local_2: 
+0.66844458967972231 a3_x2
+0.43932232223429896 a3_x3
+0.60014808815372422 a3_x4
<= 86.581858

a3_local_3: 
+0.48779483946538571 a3_x6
+0.99149151782394573 a3_x4
+0.85111049240498637 a3_x1
<= 159.904131

a3_local_4: 
+0.63608518661876168 a3_x4
+0.71580316063459859 a3_x2
+0.28813446616067034 a3_x1
<= 80.742038

a3_local_5: 
+0.31567127026281788 a3_x3
+0.61740789740806823 a3_x5
+0.72052698585743979 a3_x2
<= 81.793793

a3_local_6: 
+0.51119856333051328 a3_x1
+0.46311828035770103 a3_x6
+0.41651267258513985 a3_x2
<= 63.118202

a3_local_7: 
+0.54666872771579833 a3_x1
+0.72931960157448550 a3_x4
+0.41139545561032176 a3_x6
<= 57.594236

a3_local_8: 
+0.74222403752031085 a3_x4
+0.35370848328944027 a3_x3
+0.56920452121898302 a3_x5
<= 105.844499

a3_act_1: 
+0.00999950003749687 a3_x1
-0.99995000374968734 a3_z1
<= 0.000000

a3_act_2: 
+0.00999950003749688 a3_x2
-0.99995000374968745 a3_z2
<= 0.000000

a4_local_1: 
+0.65330116758955548 a4_x3
+0.49798456092255111 a4_x5
+0.57027095446717035 a4_x2
<= 109.997036

a4_local_2: 
+0.76480237003958973 a4_x3
+0.35900619022984714 a4_x2
+0.53496905532794836 a4_x6
<= 56.991539

a4_local_3: 
+0.47794076805095798 a4_x5
+0.74082778083118472 a4_x6
+0.88152842175115009 a4_x3
<= 123.005638

a4_local_4: 
+0.57133602830775054 a4_x3
+0.53967723445066296 a4_x6
+0.61832323696688718 a4_x1
<= 117.548058

a4_local_5: 
+1.08589781350541870 a4_x3
+1.11887601074497667 a4_x6
+0.41217043973444389 a4_x5
<= 135.238455

a4_local_6: 
+0.49619066165061448 a4_x3
+0.51592854986444292 a4_x4
+0.69829260251380199 a4_x6
<= 100.262137

a4_local_7: 
+0.53108373222857941 a4_x6
+0.47509502323482600 a4_x3
+0.70159446139465964 a4_x1
<= 115.548910

a4_local_8: 
+0.45107858237145948 a4_x1
+1.02529287585501927 a4_x6
+0.78219585206833919 a4_x3
<= 119.602364

a4_act_1: 
+0.01996051782142931 a4_x1
-1.99605178214293066 a4_z1
<= 0.000000

a4_act_2: 
+0.00999950003749688 a4_x2
-0.99995000374968768 a4_z2
<= 0.000000

coupling_1: 
+0.00007502424085043 a1_x1
+0.00107260807676110 a2_x1
+0.02224555912667416 a3_x1
+0.99968198439213618 a4_x1
+0.00836388259778795 short_1
-0.00836388259778795 surp_1
= 51.627260

coupling_2: 
+0.00008713473414709 a1_x2
+0.00089100952700102 a2_x2
+0.01986334767915970 a3_x2
+0.99975031445608042 a4_x2
+0.00720953096623606 short_2
-0.00720953096623606 surp_2
= 24.287341

coupling_3: 
+0.00006214786569326 a1_x3
+0.00224242521048082 a2_x3
+0.02372125077352606 a3_x3
+0.99965082441834696 a4_x3
+0.00807772146949212 short_3
-0.00807772146949212 surp_3
= 61.674517

bounds
  0.000000 <= a1_x1 <= 100.000000
  0.000000 <= a1_x2 <= 100.000000
  0.000000 <= a1_x3 <= 100.000000
  0.000000 <= a1_x4 <= 100.000000
  0.000000 <= a1_x5 <= 100.000000
  0.000000 <= a1_x6 <= 100.000000
  0.000000 <= a2_x1 <= 100.000000
  0.000000 <= a2_x2 <= 100.000000
  0.000000 <= a2_x3 <= 100.000000
  0.000000 <= a2_x4 <= 100.000000
  0.000000 <= a2_x5 <= 100.000000
  0.000000 <= a2_x6 <= 100.000000
  0.000000 <= a3_x1 <= 100.000000
  0.000000 <= a3_x2 <= 100.000000
  0.000000 <= a3_x3 <= 100.000000
  0.000000 <= a3_x4 <= 100.000000
  0.000000 <= a3_x5 <= 100.000000
  0.000000 <= a3_x6 <= 100.000000
  0.000000 <= a4_x1 <= 100.000000
  0.000000 <= a4_x2 <= 100.000000
  0.000000 <= a4_x3 <= 100.000000
  0.000000 <= a4_x4 <= 100.000000
  0.000000 <= a4_x5 <= 100.000000
  0.000000 <= a4_x6 <= 100.000000
  0.000000 <= short_1 <= +inf
  0.000000 <= surp_1 <= +inf
  0.000000 <= short_2 <= +inf
  0.000000 <= surp_2 <= +inf
  0.000000 <= short_3 <= +inf
  0.000000 <= surp_3 <= +inf
 0 <= a1_z1 <= 1
 0 <= a1_z2 <= 1
 0 <= a2_z1 <= 1
 0 <= a2_z2 <= 1
 0 <= a3_z1 <= 1
 0 <= a3_z2 <= 1
 0 <= a4_z1 <= 1
 0 <= a4_z2 <= 1

binary
  a1_z1
  a1_z2
  a2_z1
  a2_z2
  a3_z1
  a3_z2
  a4_z1
  a4_z2
end
