min
obj: 
  +2.37029411872895501 a1_x1
  +4.08711411622905185 a1_x2
  +7.66136637275760890 a1_x3
  +4.89991689432673461 a1_x4
  +9.18560754331382867 a1_x5
  +7.80552329567271030 a1_x6
  +17.43087311454965516 a1_z1
  +23.40237872614093462 a1_z2
  +7.76967499598976019 a2_x1
  +1.80336421538305247 a2_x2
  +9.57158160013941384 a2_x3
  +5.65827493894111466 a2_x4
  +2.44173723344263127 a2_x5
  +7.27299337053102857 a2_x6
  +31.32172731425238510 a2_z1
  +17.35876123031728824 a2_z2
  +2.34937597507828766 a3_x1
  +3.44404861330662637 a3_x2
  +8.97236298110027342 a3_x3
  +1.18282410761081147 a3_x4
  +8.94329086748358293 a3_x5
  +1.71905082189577563 a3_x6
  +16.00176469749968788 a3_z1
  +34.61198408971173990 a3_z2
  +6.56106695092732561 a4_x1
  +3.99053598556514322 a4_x2
  +4.10040873738996048 a4_x3
  +4.88744804784333908 a4_x4
  +2.91326732486744788 a4_x5
  +5.36841797601257653 a4_x6
  +43.70048480327027818 a4_z1
  +7.09598516541455737 a4_z2
  +1000000.00000000000000000 short_1
  +1000000.00000000000000000 surp_1
  +1000000.00000000000000000 short_2
  +1000000.00000000000000000 surp_2
  +1000000.00000000000000000 short_3
  +1000000.00000000000000000 surp_3

s.t.

a1_local_1: 
+1.03725235037062680 a1_x3
+0.74544290631240440 a1_x2
+0.41440856740815485 a1_x1
<= 153.684159

a1_local_2: 
+0.76791484251516662 a1_x6
+0.45663690431334675 a1_x3
+0.44920989778057008 a1_x2
<= 51.838027

a1_local_3: 
+0.57353003939573333 a1_x4
+0.66341421880025575 a1_x3
+0.48056723588315414 a1_x6
<= 52.862757

a1_local_4: 
+0.43063763239582575 a1_x5
+0.81322607193567853 a1_x3
+0.39142634746345883 a1_x6
<= 88.188979

a1_local_5: 
+0.75938868227298362 a1_x3
+0.57498645125237891 a1_x5
+0.30449862087027130 a1_x4
<= 99.342260

a1_local_6: 
+0.74094541606884645 a1_x3
+0.53463991929925536 a1_x1
+0.40639887684176718 a1_x6
<= 83.734928

a1_local_7: 
+0.52339568222869326 a1_x6
+0.61423774093397820 a1_x1
+0.59056664097854683 a1_x4
<= 79.541279

a1_local_8: 
+0.40881874508552435 a1_x3
+0.62272062132382811 a1_x2
+0.66714785575969793 a1_x4
<= 61.969700

a1_act_1: 
+0.00999950003749688 a1_x1
-0.99995000374968757 a1_z1
<= 0.000000

a1_act_2: 
+0.00999950003749688 a1_x2
-0.99995000374968757 a1_z2
<= 0.000000

a2_local_1: 
+0.55050479235961181 a2_x3
+0.64377804921711546 a2_x2
+0.32022670502124734 a2_x1
<= 95.921157

a2_local_2: 
+0.24711355322860210 a2_x6
+0.58431512168375754 a2_x2
+0.64569945923717720 a2_x1
<= 94.350026

a2_local_3: 
+0.46614415501724027 a2_x2
+0.77107279126206030 a2_x3
+0.43376995898586418 a2_x1
<= 93.242355

a2_local_4: 
+0.55747467419237706 a2_x1
+0.53453374855096447 a2_x4
+0.63521308180338765 a2_x5
<= 97.956718

a2_local_5: 
+0.44364439308008552 a2_x1
+0.66757537771419018 a2_x6
+0.59793207604071463 a2_x3
<= 52.893459

a2_local_6: 
+0.45672210821443548 a2_x1
+0.37229940364563718 a2_x6
+0.80795920064893401 a2_x2
<= 79.820062

a2_local_7: 
+0.55712484542162355 a2_x3
+0.50111201771719904 a2_x2
+0.66219230765188586 a2_x4
<= 70.751625

a2_local_8: 
+0.69928387547025295 a2_x4
+0.36018019333233509 a2_x3
+0.61747250128113873 a2_x1
<= 101.370056

a2_act_1: 
+0.00999950003749688 a2_x1
-0.99995000374968757 a2_z1
<= 0.000000

a2_act_2: 
+0.00999950003749688 a2_x2
-0.99995000374968757 a2_z2
<= 0.000000

a3_local_1: 
+0.46731663203920337 a3_x5
+0.31402123127994841 a3_x4
+0.82644166867659874 a3_x2
<= 72.167649

a3_local_2: 
+0.62364322641728220 a3_x4
+0.45102014007742136 a3_x5
+0.63847471319417626 a3_x3
<= 86.233261

a3_local_3: 
+0.61873482797448964 a3_x4
+0.32757898195559443 a3_x3
+0.71404427259961634 a3_x6
<= 70.380977

a3_local_4: 
+0.51561991303265620 a3_x4
+0.54327962890760961 a3_x5
+0.66255818619816775 a3_x2
<= 94.768204

a3_local_5: 
+0.72715879570718145 a3_x4
+0.28550485592540154 a3_x6
+0.62428123715894035 a3_x5
<= 67.364339

a3_local_6: 
+0.56936091402592692 a3_x1
+0.54563177164048937 a3_x5
+0.61490984652713265 a3_x3
<= 57.308230

a3_local_7: 
+0.43793593683801402 a3_x6
+0.34299559613885788 a3_x4
+0.59915709157121722 a3_x1
<= 52.029891

a3_local_8: 
+0.68674676701610360 a3_x4
+0.33557359090746153 a3_x2
+0.64480170834016970 a3_x1
<= 105.444003

a3_act_1: 
+0.00999950003749687 a3_x1
-0.99995000374968745 a3_z1
<= 0.000000

a3_act_2: 
+0.00999950003749688 a3_x2
-0.99995000374968757 a3_z2
<= 0.000000

a4_local_1: 
+0.53699798738911919 a4_x5
+0.67419212866122313 a4_x2
+0.50704845448071756 a4_x1
<= 114.959316

a4_local_2: 
+0.61966013127884112 a4_x4
+0.33982951438988573 a4_x2
+0.70748655312523356 a4_x6
<= 104.060517

a4_local_3: 
+0.69341408287709849 a4_x1
+0.49508363420821422 a4_x3
+0.52351609794437026 a4_x6
<= 84.809918

a4_local_4: 
+0.50648080789037353 a4_x3
+0.66772172345937819 a4_x4
+0.54555008134831418 a4_x1
<= 103.814040

a4_local_5: 
+0.65010965356042638 a4_x6
+0.67162516863435406 a4_x3
+0.35535485251283350 a4_x4
<= 80.222777

a4_local_6: 
+0.38576832624855306 a4_x5
+0.82625073302251484 a4_x4
+0.41047840947258923 a4_x2
<= 90.857915

a4_local_7: 
+0.68481414059526780 a4_x6
+0.49666124622017860 a4_x2
+0.53325153477864828 a4_x4
<= 116.051988

a4_local_8: 
+0.39801599426753953 a4_x6
+0.65454914870586733 a4_x2
+0.64276642743351686 a4_x1
<= 61.266853

a4_act_1: 
+0.00999950003749688 a4_x1
-0.99995000374968745 a4_z1
<= 0.000000

a4_act_2: 
+0.00999950003749688 a4_x2
-0.99995000374968757 a4_z2
<= 0.000000

coupling_1: 
+0.00000063331216142 a1_x1
+0.00010278879629613 a2_x1
+0.00898194233542536 a3_x1
+0.99995910533251131 a4_x1
+0.00074222926003811 short_1
-0.00074222926003811 surp_1
= 21.124179

coupling_2: 
+0.00000074139835539 a1_x2
+0.00010797476439062 a2_x2
+0.00926081648752510 a3_x2
+0.99995651519652040 a4_x2
+0.00077244252742803 short_2
-0.00077244252742803 surp_2
= 79.269592

coupling_3: 
+0.00000051146539061 a1_x3
+0.00005489721201259 a2_x3
+0.01107225375956997 a3_x3
+0.99993798616698371 a4_x3
+0.00084439417205088 short_3
-0.00084439417205088 surp_3
= 56.205895

bounds
  0.000000 <= a1_x1 <= 100.000000
  0.000000 <= a1_x2 <= 100.000000
  0.000000 <= a1_x3 <= 100.000000
  0.000000 <= a1_x4 <= 100.000000
  0.000000 <= a1_x5 <= 100.000000
  0.000000 <= a1_x6 <= 100.000000
  0.000000 <= a2_x1 <= 100.000000
  0.000000 <= a2_x2 <= 100.000000
  0.000000 <= a2_x3 <= 100.000000
  0.000000 <= a2_x4 <= 100.000000
  0.000000 <= a2_x5 <= 100.000000
  0.000000 <= a2_x6 <= 100.000000
  0.000000 <= a3_x1 <= 100.000000
  0.000000 <= a3_x2 <= 100.000000
  0.000000 <= a3_x3 <= 100.000000
  0.000000 <= a3_x4 <= 100.000000
  0.000000 <= a3_x5 <= 100.000000
  0.000000 <= a3_x6 <= 100.000000
  0.000000 <= a4_x1 <= 100.000000
  0.000000 <= a4_x2 <= 100.000000
  0.000000 <= a4_x3 <= 100.000000
  0.000000 <= a4_x4 <= 100.000000
  0.000000 <= a4_x5 <= 100.000000
  0.000000 <= a4_x6 <= 100.000000
  0.000000 <= short_1 <= +inf
  0.000000 <= surp_1 <= +inf
  0.000000 <= short_2 <= +inf
  0.000000 <= surp_2 <= +inf
  0.000000 <= short_3 <= +inf
  0.000000 <= surp_3 <= +inf
 0 <= a1_z1 <= 1
 0 <= a1_z2 <= 1
 0 <= a2_z1 <= 1
 0 <= a2_z2 <= 1
 0 <= a3_z1 <= 1
 0 <= a3_z2 <= 1
 0 <= a4_z1 <= 1
 0 <= a4_z2 <= 1

binary
  a1_z1
  a1_z2
  a2_z1
  a2_z2
  a3_z1
  a3_z2
  a4_z1
  a4_z2
end
