min
obj: 
  +4.68205187695116365 a1_x1
  +5.71291625483064269 a1_x2
  +9.00563589084773142 a1_x3
  +9.01724711762336106 a1_x4
  +9.40638568868457803 a1_x5
  +5.77535620951187667 a1_x6
  +36.44079832510822570 a1_z1
  +20.35589591192510284 a1_z2
  +9.85237733259970305 a2_x1
  +8.66656609951932211 a2_x2
  +1.31834896047554095 a2_x3
  +8.26919439786070853 a2_x4
  +6.06353184831551140 a2_x5
  +3.26315819103542193 a2_x6
  +31.01579944565894920 a2_z1
  +42.14273897613190911 a2_z2
  +3.40700085697226296 a3_x1
  +9.41882509326676143 a3_x2
  +9.74900107951637906 a3_x3
  +7.04508203399397814 a3_x4
  +9.97637618984075480 a3_x5
  +5.84735535483849578 a3_x6
  +49.07354774414897491 a3_z1
  +13.99914181947612590 a3_z2
  +1.91431389506638183 a4_x1
  +6.10422017205319989 a4_x2
  +2.25748963263893865 a4_x3
  +5.65946667698913863 a4_x4
  +4.35204976180165826 a4_x5
  +6.78234121926408484 a4_x6
  +29.95675458969477134 a4_z1
  +32.97214499302464219 a4_z2
  +1000000.00000000000000000 short_1
  +1000000.00000000000000000 surp_1
  +1000000.00000000000000000 short_2
  +1000000.00000000000000000 surp_2
  +1000000.00000000000000000 short_3
  +1000000.00000000000000000 surp_3

s.t.

a1_local_1: 
+0.71433844523206813 a1_x4
+0.58447109877792236 a1_x2
+0.38485597352355061 a1_x6
<= 73.865137

a1_local_2: 
+0.70495917278386278 a1_x3
+0.31528735967011723 a1_x4
+0.63531602021367117 a1_x5
<= 69.546758

a1_local_3: 
+0.41451117236781237 a1_x1
+0.72875843443075417 a1_x3
+0.54506112705667975 a1_x6
<= 87.912396

a1_local_4: 
+0.46059081302182625 a1_x2
+0.40016831925090912 a1_x1
+0.79228872213846113 a1_x5
<= 79.077829

a1_local_5: 
+0.39411578841246081 a1_x2
+0.64169752199966557 a1_x3
+0.65794911321736205 a1_x5
<= 72.133438

a1_local_6: 
+0.66171173080293677 a1_x6
+0.46546895978685987 a1_x1
+0.58777226269425153 a1_x3
<= 89.471631

a1_local_7: 
+0.67240197120697565 a1_x4
+0.54436733432785611 a1_x2
+0.50153743074047608 a1_x5
<= 90.482465

a1_local_8: 
+0.62146601471376839 a1_x6
+0.60662518643990149 a1_x2
+0.49576796561752673 a1_x4
<= 107.831600

a1_act_1: 
+0.00999950003749688 a1_x1
-0.99995000374968757 a1_z1
<= 0.000000

a1_act_2: 
+0.00999950003749688 a1_x2
-0.99995000374968757 a1_z2
<= 0.000000

a2_local_1: 
+0.44885746616390748 a2_x2
+0.61687916725815728 a2_x6
+0.64651919389280221 a2_x5
<= 56.772926

a2_local_2: 
+0.34395444023143756 a2_x1
+0.40356223555149418 a2_x4
+0.50836301212764079 a2_x5
<= 87.208246

a2_local_3: 
+0.77440698609889336 a2_x2
+0.53778542616001090 a2_x5
+0.33328764647241826 a2_x1
<= 103.863649

a2_local_4: 
+0.56446442010231734 a2_x6
+1.08335090885215690 a2_x4
+0.60046721498173028 a2_x5
<= 83.842629

a2_local_5: 
+0.40401631066425492 a2_x5
+0.74862317746819784 a2_x3
+0.52567495553304011 a2_x6
<= 86.736840

a2_local_6: 
+0.65607633883902949 a2_x6
+0.45872831625651228 a2_x4
+0.59927637153490387 a2_x1
<= 90.216060

a2_local_7: 
+0.56547167327310022 a2_x3
+0.51645280057307630 a2_x6
+0.64305387916250556 a2_x1
<= 80.627764

a2_local_8: 
+0.33990370110577212 a2_x5
+0.34065341549344075 a2_x3
+0.36766242339390326 a2_x6
<= 72.910414

a2_act_1: 
+0.00999950003749688 a2_x1
-0.99995000374968757 a2_z1
<= 0.000000

a2_act_2: 
+0.00999950003749687 a2_x2
-0.99995000374968745 a2_z2
<= 0.000000

a3_local_1: 
+0.68812236348274236 a3_x5
+0.46521836019664281 a3_x2
+0.55682985750664560 a3_x3
<= 66.223664

a3_local_2: 
+0.66844458967972242 a3_x2
+0.43932232223429890 a3_x3
+0.60014808815372411 a3_x4
<= 86.581858

a3_local_3: 
+0.34973093666598254 a3_x6
+0.71086290622709902 a3_x4
+0.61021488058641848 a3_x1
<= 114.645373

a3_local_4: 
+0.63608518661876157 a3_x4
+0.71580316063459859 a3_x2
+0.28813446616067029 a3_x1
<= 80.742038

a3_local_5: 
+0.31567127026281788 a3_x3
+0.61740789740806834 a3_x5
+0.72052698585743991 a3_x2
<= 81.793793

a3_local_6: 
+1.10134391833371903 a3_x1
+0.99775808879054306 a3_x6
+0.89734935065531762 a3_x2
<= 135.984044

a3_local_7: 
+0.54666872771579822 a3_x1
+0.72931960157448539 a3_x4
+0.41139545561032170 a3_x6
<= 57.594236

a3_local_8: 
+0.74222403752031096 a3_x4
+0.35370848328944032 a3_x3
+0.56920452121898324 a3_x5
<= 105.844499

a3_act_1: 
+0.00999950003749687 a3_x1
-0.99995000374968734 a3_z1
<= 0.000000

a3_act_2: 
+0.00999950003749688 a3_x2
-0.99995000374968745 a3_z2
<= 0.000000

a4_local_1: 
+0.65330116758955548 a4_x3
+0.49798456092255111 a4_x5
+0.57027095446717024 a4_x2
<= 109.997036

a4_local_2: 
+0.76480237003958962 a4_x3
+0.35900619022984709 a4_x2
+0.53496905532794825 a4_x6
<= 56.991539

a4_local_3: 
+0.38335425840995252 a4_x5
+0.59421481387365072 a4_x6
+0.70707019986141284 a4_x3
<= 98.662299

a4_local_4: 
+0.57133602830775054 a4_x3
+0.53967723445066296 a4_x6
+0.61832323696688729 a4_x1
<= 117.548058

a4_local_5: 
+0.67332326360099481 a4_x3
+0.69377176908360161 a4_x6
+0.25557095906286958 a4_x5
<= 83.856139

a4_local_6: 
+0.49619066165061443 a4_x3
+0.51592854986444292 a4_x4
+0.69829260251380199 a4_x6
<= 100.262137

a4_local_7: 
+0.53108373222857941 a4_x6
+0.47509502323482600 a4_x3
+0.70159446139465975 a4_x1
<= 115.548910

a4_local_8: 
+0.33016800447811762 a4_x1
+0.75046547554304965 a4_x6
+0.57253005059724316 a4_x3
<= 87.543225

a4_act_1: 
+0.01996051782142931 a4_x1
-1.99605178214293066 a4_z1
<= 0.000000

a4_act_2: 
+0.00999950003749688 a4_x2
-0.99995000374968768 a4_z2
<= 0.000000

coupling_1: 
+0.00000075047192250 a1_x1
+0.00004980128725900 a2_x1
+0.00479412659780015 a3_x1
+0.99998780688698441 a4_x1
+0.00083664412749299 short_1
-0.00083664412749299 surp_1
= 50.706682

coupling_2: 
+0.00000087155652008 a1_x2
+0.00004136692701373 a2_x2
+0.00428045586420865 a3_x2
+0.99999031792298032 a4_x2
+0.00072112617108046 short_2
-0.00072112617108046 surp_2
= 23.899950

coupling_3: 
+0.00000062168720434 a1_x3
+0.00010411908532649 a2_x3
+0.00511230349796118 a3_x3
+0.99998627372785565 a4_x3
+0.00080804320820612 short_3
-0.00080804320820612 surp_3
= 60.443444

bounds
  0.000000 <= a1_x1 <= 100.000000
  0.000000 <= a1_x2 <= 100.000000
  0.000000 <= a1_x3 <= 100.000000
  0.000000 <= a1_x4 <= 100.000000
  0.000000 <= a1_x5 <= 100.000000
  0.000000 <= a1_x6 <= 100.000000
  0.000000 <= a2_x1 <= 100.000000
  0.000000 <= a2_x2 <= 100.000000
  0.000000 <= a2_x3 <= 100.000000
  0.000000 <= a2_x4 <= 100.000000
  0.000000 <= a2_x5 <= 100.000000
  0.000000 <= a2_x6 <= 100.000000
  0.000000 <= a3_x1 <= 100.000000
  0.000000 <= a3_x2 <= 100.000000
  0.000000 <= a3_x3 <= 100.000000
  0.000000 <= a3_x4 <= 100.000000
  0.000000 <= a3_x5 <= 100.000000
  0.000000 <= a3_x6 <= 100.000000
  0.000000 <= a4_x1 <= 100.000000
  0.000000 <= a4_x2 <= 100.000000
  0.000000 <= a4_x3 <= 100.000000
  0.000000 <= a4_x4 <= 100.000000
  0.000000 <= a4_x5 <= 100.000000
  0.000000 <= a4_x6 <= 100.000000
  0.000000 <= short_1 <= +inf
  0.000000 <= surp_1 <= +inf
  0.000000 <= short_2 <= +inf
  0.000000 <= surp_2 <= +inf
  0.000000 <= short_3 <= +inf
  0.000000 <= surp_3 <= +inf
 0 <= a1_z1 <= 1
 0 <= a1_z2 <= 1
 0 <= a2_z1 <= 1
 0 <= a2_z2 <= 1
 0 <= a3_z1 <= 1
 0 <= a3_z2 <= 1
 0 <= a4_z1 <= 1
 0 <= a4_z2 <= 1

binary
  a1_z1
  a1_z2
  a2_z1
  a2_z2
  a3_z1
  a3_z2
  a4_z1
  a4_z2
end
