min
obj: 
  +7.78207569299738466 a1_x1
  +2.62040292120299334 a1_x2
  +1.02293933329670939 a1_x3
  +7.19109322240713489 a1_x4
  +4.26327457704359070 a1_x5
  +6.02462654690972954 a1_x6
  +42.77102711119731282 a1_z1
  +28.11411837117618262 a1_z2
  +5.79112125901829966 a2_x1
  +5.43489317194582089 a2_x2
  +9.42596272358853859 a2_x3
  +8.92130525199075564 a2_x4
  +6.14845489869399664 a2_x5
  +2.14640938868183095 a2_x6
  +31.66094613130910673 a2_z1
  +6.98996133690631005 a2_z2
  +2.81862526144540748 a3_x1
  +1.36412059178846468 a3_x2
  +2.33366974601915000 a3_x3
  +2.45567759910651384 a3_x4
  +5.22782650613177147 a3_x5
  +6.66961894421152923 a3_x6
  +49.85791959361311854 a3_z1
  +30.64094479818616890 a3_z2
  +7.09948941464576322 a4_x1
  +9.56749156260526412 a4_x2
  +9.23547813869581802 a4_x3
  +8.94781396766327930 a4_x4
  +7.43389970639344355 a4_x5
  +1.79601697429660612 a4_x6
  +7.43041409826294341 a4_z1
  +14.53020430166953325 a4_z2
  +1000000.00000000000000000 short_1
  +1000000.00000000000000000 surp_1
  +1000000.00000000000000000 short_2
  +1000000.00000000000000000 surp_2
  +1000000.00000000000000000 short_3
  +1000000.00000000000000000 surp_3

s.t.

a1_local_1: 
+0.18315397585984924 a1_x4
+0.28141217277731051 a1_x6
+0.13075305890834499 a1_x3
<= 29.758045

a1_local_2: 
+0.00030215162932062 a1_x6
+0.00021182897369548 a1_x5
+0.00030824958040659 a1_x4
<= 0.043567

a1_local_3: 
+0.08185974936679997 a1_x4
+0.10800565829356826 a1_x2
+0.11491753882534310 a1_x3
<= 17.679673

a1_local_4: 
+0.00015812442142170 a1_x4
+0.00010528198933176 a1_x5
+0.00016558879683768 a1_x2
<= 0.021861

a1_local_5: 
+0.00833412707535762 a1_x2
+0.02028001343940448 a1_x5
+0.00989128533093518 a1_x4
<= 2.130130

a1_local_6: 
+0.08825136693326197 a1_x2
+0.10177165459804138 a1_x3
+0.05192198421515368 a1_x1
<= 13.114350

a1_local_7: 
+0.25011437902441774 a1_x5
+0.52242597235925592 a1_x2
+0.25138391647970942 a1_x6
<= 56.184378

a1_local_8: 
+0.01712150232395871 a1_x5
+0.03054568858412549 a1_x1
+0.02222536166988404 a1_x6
<= 4.294536

a1_act_1: 
+2.74246930166040803 a1_x1
-274.24693016604078366 a1_z1
<= 0.000000

a1_act_2: 
+365.62834758840654104 a1_x2
-36562.83475884065410355 a1_z2
<= 0.000000

a2_local_1: 
+0.00020495143739011 a2_x6
+0.00030593422063566 a2_x4
+0.00030434809107408 a2_x3
<= 0.051301

a2_local_2: 
+0.20323437046853174 a2_x5
+0.28179765047882027 a2_x4
+0.42336164771451390 a2_x6
<= 41.214269

a2_local_3: 
+0.01720081356461468 a2_x4
+0.01163517328927816 a2_x5
+0.02292051188653575 a2_x3
<= 1.603340

a2_local_4: 
+0.05232799167529850 a2_x5
+0.05167421854344880 a2_x6
+0.14860922246178357 a2_x4
<= 9.437839

a2_local_5: 
+0.68503845463905200 a2_x4
+0.42656229613003216 a2_x2
+0.85461168340546245 a2_x3
<= 93.643979

a2_local_6: 
+0.03189426650706800 a2_x5
+0.02819322710353804 a2_x4
+0.02904596899892160 a2_x3
<= 3.372614

a2_local_7: 
+60.72398383058750682 a2_x1
+97.40349054973246723 a2_x6
+65.07638516337596002 a2_x4
<= 15585.761410

a2_local_8: 
+0.00067265000592505 a2_x4
+0.00062475582805404 a2_x3
+0.00042012893187027 a2_x5
<= 0.065820

a2_act_1: 
+20.52088256250748088 a2_x1
-2052.08825625074814525 a2_z1
<= 0.000000

a2_act_2: 
+0.01800856727755041 a2_x2
-1.80085672775504069 a2_z2
<= 0.000000

a3_local_1: 
+611.03730660685289422 a3_x6
+934.90671631184557100 a3_x2
+770.07648600873312716 a3_x1
<= 154673.683679

a3_local_2: 
+19.90155078869076277 a3_x1
+13.38965142199830360 a3_x6
+11.09720645479803558 a3_x2
<= 3044.796518

a3_local_3: 
+1.17402603213153278 a3_x6
+2.81062283438857818 a3_x5
+1.32292883589368593 a3_x3
<= 281.431842

a3_local_4: 
+446.71755292683837979 a3_x2
+205.55548767807758281 a3_x6
+490.30147332959165851 a3_x4
<= 48462.196039

a3_local_5: 
+0.02213489489348543 a3_x1
+0.02951609888312214 a3_x5
+0.01977023764005706 a3_x3
<= 3.540487

a3_local_6: 
+1354.13905416735542531 a3_x5
+1602.93492255721730544 a3_x2
+1326.19531185705295684 a3_x3
<= 220715.109222

a3_local_7: 
+6.08615186994662061 a3_x2
+4.97685851001140911 a3_x3
+7.24056945559416398 a3_x1
<= 977.511174

a3_local_8: 
+36.24610471097061293 a3_x6
+16.84990142207871244 a3_x1
+29.51358126453888886 a3_x2
<= 3757.963309

a3_act_1: 
+0.03104090328188804 a3_x1
-3.10409032818880393 a3_z1
<= 0.000000

a3_act_2: 
+0.01973669689085708 a3_x2
-1.97366968908570772 a3_z2
<= 0.000000

a4_local_1: 
+97407.93507601680175867 a4_x1
+223808.31328580479021184 a4_x6
+118116.62777743108745199 a4_x5
<= 27751064.976553

a4_local_2: 
+91382.86080811721330974 a4_x2
+43437.38369741292990511 a4_x5
+85191.57585818661027588 a4_x4
<= 14791543.995591

a4_local_3: 
+82053.43279838783200830 a4_x6
+63824.73440414835931733 a4_x2
+37593.18494630689383484 a4_x5
<= 10684620.058260

a4_local_4: 
+17560.23927762168023037 a4_x6
+10666.33086443971660628 a4_x3
+18421.13331808184011606 a4_x4
<= 2953747.490873

a4_local_5: 
+3281.37029205597036707 a4_x5
+3338.09437344376692636 a4_x2
+5719.64528154138406535 a4_x3
<= 494393.208966

a4_local_6: 
+66838.68598191557975952 a4_x1
+56998.87065721436374588 a4_x5
+68424.76692374180129264 a4_x4
<= 10602238.634002

a4_local_7: 
+5.01072689253140346 a4_x6
+9.64697724139726631 a4_x3
+7.98662085178199987 a4_x2
<= 1361.503658

a4_local_8: 
+11493.32989915386315261 a4_x3
+18212.60041066865233006 a4_x6
+9137.46882365656529146 a4_x4
<= 1399954.495174

a4_act_1: 
+16.45227512731845820 a4_x1
-1645.22751273184576348 a4_z1
<= 0.000000

a4_act_2: 
+0.91457746355283298 a4_x2
-91.45774635528329100 a4_z2
<= 0.000000

coupling_1: 
+0.05454446767003035 a1_x1
+6.82161602784913335 a2_x1
+549.02580092247330867 a3_x1
+35988.59383628115756437 a4_x1
+55.38069154607764233 short_1
-55.38069154607764233 surp_1
= 2587852.183854

coupling_2: 
+0.00008392166715456 a1_x2
+0.00746040883921072 a2_x2
+0.78475720457614473 a3_x2
+59.28901641578028858 a4_x2
+0.06007188281603628 short_2
-0.06007188281603628 surp_2
= 1682.424020

coupling_3: 
+0.00123493915545916 a1_x3
+0.08692957413731647 a2_x3
+5.57365339837087959 a3_x3
+550.68533258950344589 a4_x3
+1.05615458892594960 short_3
-1.05615458892594960 surp_3
= 12477.406560

bounds
  0.000000 <= a1_x1 <= 100.000000
  0.000000 <= a1_x2 <= 100.000000
  0.000000 <= a1_x3 <= 100.000000
  0.000000 <= a1_x4 <= 100.000000
  0.000000 <= a1_x5 <= 100.000000
  0.000000 <= a1_x6 <= 100.000000
  0.000000 <= a2_x1 <= 100.000000
  0.000000 <= a2_x2 <= 100.000000
  0.000000 <= a2_x3 <= 100.000000
  0.000000 <= a2_x4 <= 100.000000
  0.000000 <= a2_x5 <= 100.000000
  0.000000 <= a2_x6 <= 100.000000
  0.000000 <= a3_x1 <= 100.000000
  0.000000 <= a3_x2 <= 100.000000
  0.000000 <= a3_x3 <= 100.000000
  0.000000 <= a3_x4 <= 100.000000
  0.000000 <= a3_x5 <= 100.000000
  0.000000 <= a3_x6 <= 100.000000
  0.000000 <= a4_x1 <= 100.000000
  0.000000 <= a4_x2 <= 100.000000
  0.000000 <= a4_x3 <= 100.000000
  0.000000 <= a4_x4 <= 100.000000
  0.000000 <= a4_x5 <= 100.000000
  0.000000 <= a4_x6 <= 100.000000
  0.000000 <= short_1 <= +inf
  0.000000 <= surp_1 <= +inf
  0.000000 <= short_2 <= +inf
  0.000000 <= surp_2 <= +inf
  0.000000 <= short_3 <= +inf
  0.000000 <= surp_3 <= +inf
 0 <= a1_z1 <= 1
 0 <= a1_z2 <= 1
 0 <= a2_z1 <= 1
 0 <= a2_z2 <= 1
 0 <= a3_z1 <= 1
 0 <= a3_z2 <= 1
 0 <= a4_z1 <= 1
 0 <= a4_z2 <= 1

binary
  a1_z1
  a1_z2
  a2_z1
  a2_z2
  a3_z1
  a3_z2
  a4_z1
  a4_z2
end
