min
obj: 
  +1.57709742578195788 a1_x1
  +5.24362332399284625 a1_x2
  +8.06959664561268042 a1_x3
  +3.47810228856863679 a1_x4
  +9.41205830682384104 a1_x5
  +8.31656886029670339 a1_x6
  +34.00140095985545230 a1_z1
  +10.41050343041974102 a1_z2
  +6.47735542906473949 a2_x1
  +9.58339357562265626 a2_x2
  +2.02682747423036602 a2_x3
  +2.51463833389198177 a2_x4
  +5.97191591647550446 a2_x5
  +2.17528344053247569 a2_x6
  +46.82093948760606850 a2_z1
  +31.11983884228734354 a2_z2
  +4.28980261171450117 a3_x1
  +6.29719392465862082 a3_x2
  +7.08124523691182794 a3_x3
  +4.94719983508523597 a3_x4
  +8.06509947106787273 a3_x5
  +5.84368483176889342 a3_x6
  +45.40847242123220440 a3_z1
  +47.68543785744964225 a3_z2
  +7.67454901318721916 a4_x1
  +9.54472766156331787 a4_x2
  +6.46859462349116754 a4_x3
  +6.10471800911878315 a4_x4
  +9.00917261972195327 a4_x5
  +9.20424430287105189 a4_x6
  +10.38795682780166985 a4_z1
  +22.65518679594919149 a4_z2
  +1000000.00000000000000000 short_1
  +1000000.00000000000000000 surp_1
  +1000000.00000000000000000 short_2
  +1000000.00000000000000000 surp_2
  +1000000.00000000000000000 short_3
  +1000000.00000000000000000 surp_3

s.t.

a1_local_1: 
+0.29855907340797011 a1_x1
+0.30522321731648122 a1_x6
+0.18615535234557951 a1_x5
<= 41.553176

a1_local_2: 
+0.00000921625683805 a1_x5
+0.00000508281265615 a1_x4
+0.00001434873435381 a1_x1
<= 0.000895

a1_local_3: 
+0.00007749133742490 a1_x2
+0.00011065386994574 a1_x3
+0.00006809648302352 a1_x5
<= 0.010080

a1_local_4: 
+0.21485246084692172 a1_x2
+0.17172438929723349 a1_x4
+0.07872404833167013 a1_x1
<= 23.395492

a1_local_5: 
+0.63604717020937129 a1_x1
+0.40518322353876191 a1_x3
+0.72659357489064047 a1_x2
<= 68.631404

a1_local_6: 
+0.00922947746803916 a1_x3
+0.00737721028751886 a1_x4
+0.00632064807803900 a1_x2
<= 0.962494

a1_local_7: 
+0.09186764684327949 a1_x1
+0.05729964722097235 a1_x4
+0.07914760808939697 a1_x3
<= 12.654794

a1_local_8: 
+0.00002368004271084 a1_x3
+0.00001525384550222 a1_x2
+0.00002098372000260 a1_x5
<= 0.002738

a1_act_1: 
+6.30076698994516793 a1_x1
-630.07669899451684614 a1_z1
<= 0.000000

a1_act_2: 
+3.04718404360156780 a1_x2
-304.71840436015679643 a1_z2
<= 0.000000

a2_local_1: 
+0.10364699238206654 a2_x3
+0.17855307294887537 a2_x6
+0.17856629008191993 a2_x4
<= 25.600700

a2_local_2: 
+134.65379719468052144 a2_x6
+55.69520381114079299 a2_x4
+125.31090602591528693 a2_x2
<= 16961.838730

a2_local_3: 
+1.31936025778393096 a2_x4
+1.88602484263254411 a2_x5
+2.27638806845300357 a2_x2
<= 247.796252

a2_local_4: 
+0.00047884953959373 a2_x6
+0.00054393015941663 a2_x5
+0.00038578612298272 a2_x1
<= 0.046849

a2_local_5: 
+0.34565793341420803 a2_x6
+0.34956425578551625 a2_x5
+0.33073549801562846 a2_x2
<= 40.399082

a2_local_6: 
+0.14303341954950238 a2_x1
+0.09894852905797126 a2_x6
+0.17371276488195964 a2_x3
<= 21.315562

a2_local_7: 
+1.49995686323549426 a2_x2
+1.65997020623091585 a2_x4
+2.31725290520245819 a2_x5
<= 288.539689

a2_local_8: 
+0.00011601211492976 a2_x4
+0.00011836329678753 a2_x3
+0.00014524803108679 a2_x2
<= 0.012226

a2_act_1: 
+73.55455242971146390 a2_x1
-7355.45524297114661749 a2_z1
<= 0.000000

a2_act_2: 
+4.61932106060446124 a2_x2
-461.93210606044613087 a2_z2
<= 0.000000

a3_local_1: 
+0.03765540760802352 a3_x3
+0.03318467748362993 a3_x4
+0.04316603275829227 a3_x2
<= 6.334210

a3_local_2: 
+8.45532356858304546 a3_x3
+10.18563987795797132 a3_x4
+14.89766901547189981 a3_x6
<= 2193.019175

a3_local_3: 
+3056.87635369341023761 a3_x2
+4875.47696183486368682 a3_x3
+2960.11388516998476916 a3_x5
<= 409957.752617

a3_local_4: 
+1.52285028246637166 a3_x2
+2.49542348099412159 a3_x5
+2.19849417676390280 a3_x3
<= 326.356127

a3_local_5: 
+2589.34973366925987648 a3_x2
+1274.15914147122271061 a3_x5
+2769.45163710967926818 a3_x3
<= 414462.165804

a3_local_6: 
+1106.63448176406063794 a3_x5
+949.67993127831800848 a3_x6
+1067.52738459383090230 a3_x1
<= 164815.781434

a3_local_7: 
+47.52301824306314870 a3_x3
+54.91685833628540081 a3_x5
+46.63053938782191921 a3_x2
<= 8772.896715

a3_local_8: 
+54.70425506936657456 a3_x5
+83.53612374769261351 a3_x3
+55.79426498367863019 a3_x2
<= 10806.965475

a3_act_1: 
+1.33416542392707460 a3_x1
-133.41654239270746984 a3_z1
<= 0.000000

a3_act_2: 
+418.75174341166410841 a3_x2
-41875.17434116641379660 a3_z2
<= 0.000000

a4_local_1: 
+1.68794061849724142 a4_x6
+1.88252658348414914 a4_x1
+1.67626142329501482 a4_x3
<= 195.988709

a4_local_2: 
+118772.98568964195146691 a4_x2
+198097.10710931604262441 a4_x4
+131711.49816747594741173 a4_x6
<= 25201379.379870

a4_local_3: 
+2641.48753239508187107 a4_x3
+2005.16538004281937901 a4_x2
+3932.37212331701812218 a4_x1
<= 258972.409566

a4_local_4: 
+8211.88079778781866480 a4_x3
+12388.24096927265418344 a4_x5
+12724.53524383286639932 a4_x2
<= 2049317.802318

a4_local_5: 
+2837.29012602894727024 a4_x3
+2926.37959681836855452 a4_x2
+2290.94032849809173058 a4_x1
<= 444229.392475

a4_local_6: 
+93997.16712327628920320 a4_x5
+34316.32967833994916873 a4_x1
+85972.74552328861318529 a4_x6
<= 10191828.836629

a4_local_7: 
+20236.23438103940134170 a4_x6
+10916.31251461504871259 a4_x3
+17085.29696067489931011 a4_x2
<= 3221312.094310

a4_local_8: 
+4.87515083690583406 a4_x2
+5.78043599298008726 a4_x6
+8.51241122258024596 a4_x5
<= 973.107787

a4_act_1: 
+160.28468589001914779 a4_x1
-16028.46858900191546127 a4_z1
<= 0.000000

a4_act_2: 
+0.06186442283902916 a4_x2
-6.18644228390291584 a4_z2
<= 0.000000

coupling_1: 
+0.00556283393912048 a1_x1
+0.82637413047470487 a2_x1
+72.63506596844199237 a3_x1
+7824.63459612439601187 a4_x1
+5.57272218927272434 short_1
-5.57272218927272434 surp_1
= 582496.014440

coupling_2: 
+0.00000419183844807 a1_x2
+0.00034758697698893 a2_x2
+0.05620337687400446 a3_x2
+5.18449700851236450 a4_x2
+0.00461627173460457 short_2
-0.00461627173460457 surp_2
= 188.794234

coupling_3: 
+0.00001031544527317 a1_x3
+0.00068198971663339 a2_x3
+0.05476539210826242 a3_x3
+7.10471523101980740 a4_x3
+0.00830923616343402 short_3
-0.00830923616343402 surp_3
= 417.952689

bounds
  0.000000 <= a1_x1 <= 100.000000
  0.000000 <= a1_x2 <= 100.000000
  0.000000 <= a1_x3 <= 100.000000
  0.000000 <= a1_x4 <= 100.000000
  0.000000 <= a1_x5 <= 100.000000
  0.000000 <= a1_x6 <= 100.000000
  0.000000 <= a2_x1 <= 100.000000
  0.000000 <= a2_x2 <= 100.000000
  0.000000 <= a2_x3 <= 100.000000
  0.000000 <= a2_x4 <= 100.000000
  0.000000 <= a2_x5 <= 100.000000
  0.000000 <= a2_x6 <= 100.000000
  0.000000 <= a3_x1 <= 100.000000
  0.000000 <= a3_x2 <= 100.000000
  0.000000 <= a3_x3 <= 100.000000
  0.000000 <= a3_x4 <= 100.000000
  0.000000 <= a3_x5 <= 100.000000
  0.000000 <= a3_x6 <= 100.000000
  0.000000 <= a4_x1 <= 100.000000
  0.000000 <= a4_x2 <= 100.000000
  0.000000 <= a4_x3 <= 100.000000
  0.000000 <= a4_x4 <= 100.000000
  0.000000 <= a4_x5 <= 100.000000
  0.000000 <= a4_x6 <= 100.000000
  0.000000 <= short_1 <= +inf
  0.000000 <= surp_1 <= +inf
  0.000000 <= short_2 <= +inf
  0.000000 <= surp_2 <= +inf
  0.000000 <= short_3 <= +inf
  0.000000 <= surp_3 <= +inf
 0 <= a1_z1 <= 1
 0 <= a1_z2 <= 1
 0 <= a2_z1 <= 1
 0 <= a2_z2 <= 1
 0 <= a3_z1 <= 1
 0 <= a3_z2 <= 1
 0 <= a4_z1 <= 1
 0 <= a4_z2 <= 1

binary
  a1_z1
  a1_z2
  a2_z1
  a2_z2
  a3_z1
  a3_z2
  a4_z1
  a4_z2
end
