min
obj: 
  +3.04305245350352704 a1_x1
  +8.52421046785006808 a1_x2
  +7.69307565210918742 a1_x3
  +6.91899621560824230 a1_x4
  +9.20970734213053355 a1_x5
  +1.67836132765545631 a1_x6
  +29.95730103851083470 a1_z1
  +31.08072985890714435 a1_z2
  +3.99822752437524187 a2_x1
  +4.07165663414877166 a2_x2
  +8.34795406785622518 a2_x3
  +4.87171054907478673 a2_x4
  +6.00614521080850050 a2_x5
  +2.78826542023549706 a2_x6
  +21.64829021237791906 a2_z1
  +42.54057128991149028 a2_z2
  +2.99288059555848207 a3_x1
  +5.53541108642779456 a3_x2
  +5.21389691922773402 a3_x3
  +2.06500474656608013 a3_x4
  +6.41053556614162368 a3_x5
  +2.65986220405491736 a3_x6
  +31.21797170368752461 a3_z1
  +44.91309333626589506 a3_z2
  +1.34783919856301182 a4_x1
  +6.31764736904795043 a4_x2
  +9.98943596309341864 a4_x3
  +5.70541292643470310 a4_x4
  +4.44152957180650887 a4_x5
  +5.06133401945766614 a4_x6
  +15.23838321132246598 a4_z1
  +39.66649904034947838 a4_z2
  +1000000.00000000000000000 short_1
  +1000000.00000000000000000 surp_1
  +1000000.00000000000000000 short_2
  +1000000.00000000000000000 surp_2
  +1000000.00000000000000000 short_3
  +1000000.00000000000000000 surp_3

s.t.

a1_local_1: 
+0.00000313139285441 a1_x4
+0.00000389566993964 a1_x3
+0.00000839246206615 a1_x1
<= 0.000958

a1_local_2: 
+0.00000121925057913 a1_x5
+0.00000074223030380 a1_x2
+0.00000091762012499 a1_x1
<= 0.000112

a1_local_3: 
+0.16338495189288835 a1_x1
+0.23132469117315857 a1_x5
+0.23257890961509800 a1_x4
<= 36.044074

a1_local_4: 
+0.04122439394197874 a1_x4
+0.03095244223265802 a1_x1
+0.03318924886299201 a1_x2
<= 4.430514

a1_local_5: 
+0.67965905899050794 a1_x4
+1.38920558730595478 a1_x6
+0.56317673343729513 a1_x3
<= 180.440866

a1_local_6: 
+0.00000213300751141 a1_x5
+0.00000364366610322 a1_x1
+0.00000205336809161 a1_x6
<= 0.000424

a1_local_7: 
+0.00360255690936359 a1_x1
+0.00377524419479968 a1_x2
+0.00252620122797044 a1_x4
<= 0.564252

a1_local_8: 
+0.00041239891066530 a1_x3
+0.00043796991611405 a1_x6
+0.00016861993881148 a1_x5
<= 0.052244

a1_act_1: 
+0.15953917916736107 a1_x1
-15.95391791673610804 a1_z1
<= 0.000000

a1_act_2: 
+0.14005234318508408 a1_x2
-14.00523431850840872 a1_z2
<= 0.000000

a2_local_1: 
+3.57115304081076168 a2_x5
+4.35249641241800322 a2_x3
+5.16871536356894179 a2_x6
<= 859.626806

a2_local_2: 
+24.15560259241074093 a2_x4
+37.66753491448591973 a2_x3
+25.65745840021457269 a2_x6
<= 4278.571331

a2_local_3: 
+0.00037985653526580 a2_x3
+0.00028444322790860 a2_x1
+0.00039901147289618 a2_x2
<= 0.070463

a2_local_4: 
+11.03970996746741129 a2_x4
+8.55634250295757326 a2_x5
+8.01202700436115833 a2_x1
<= 864.512526

a2_local_5: 
+18.93873614083844004 a2_x1
+21.25495576318905933 a2_x6
+11.30314512235724322 a2_x2
<= 3112.432104

a2_local_6: 
+0.06012366680632013 a2_x1
+0.04758711976469602 a2_x5
+0.06687551683354248 a2_x3
<= 9.544688

a2_local_7: 
+14.63050276001246353 a2_x3
+27.44644469449113799 a2_x6
+13.88566685262865796 a2_x1
<= 2580.798321

a2_local_8: 
+0.04611022510666920 a2_x4
+0.08086193092371385 a2_x1
+0.08725306898425764 a2_x6
<= 7.700563

a2_act_1: 
+0.09054818119099818 a2_x1
-9.05481811909981893 a2_z1
<= 0.000000

a2_act_2: 
+56.38114797045748361 a2_x2
-5638.11479704574867355 a2_z2
<= 0.000000

a3_local_1: 
+0.02697193115831209 a3_x4
+0.01044515786652144 a3_x2
+0.01928454714235202 a3_x5
<= 3.033273

a3_local_2: 
+138.30751103504772459 a3_x1
+127.54013885422466501 a3_x6
+133.00192710171054955 a3_x3
<= 12793.603143

a3_local_3: 
+31.36903015201454892 a3_x2
+26.71657633642493224 a3_x6
+23.97308229969556947 a3_x5
<= 5734.903041

a3_local_4: 
+709.27442933497286504 a3_x1
+1013.72249376676029442 a3_x5
+950.78850054004794856 a3_x4
<= 85161.153165

a3_local_5: 
+2170.77372520338985851 a3_x4
+1223.74221282940311539 a3_x2
+1878.42595744300547267 a3_x6
<= 213641.668332

a3_local_6: 
+172.58476365659171847 a3_x5
+149.22704229722160107 a3_x2
+236.40293689935640487 a3_x1
<= 27841.974285

a3_local_7: 
+0.03517790270483148 a3_x2
+0.03317586417561565 a3_x4
+0.01727678198779659 a3_x5
<= 5.496753

a3_local_8: 
+1.81832551854827695 a3_x3
+1.97481721232557383 a3_x5
+3.09245860883692680 a3_x6
<= 340.642698

a3_act_1: 
+0.01787370605515850 a3_x1
-1.78737060551585025 a3_z1
<= 0.000000

a3_act_2: 
+25.21760322397549459 a3_x2
-2521.76032239754931652 a3_z2
<= 0.000000

a4_local_1: 
+20025.64878864063939545 a4_x6
+31467.71003097928041825 a4_x2
+24440.69676333992902073 a4_x1
<= 2343730.880385

a4_local_2: 
+176087.49704880869830959 a4_x1
+210793.91943953561712988 a4_x6
+154569.88568422102252953 a4_x5
<= 17892921.060138

a4_local_3: 
+1566.37140570055885291 a4_x6
+1264.39318123180123621 a4_x3
+1578.29468475121234405 a4_x2
<= 189347.631974

a4_local_4: 
+1.91389930716007917 a4_x4
+2.77377137591183853 a4_x6
+2.56603975104640902 a4_x2
<= 281.525946

a4_local_5: 
+5.76874610605360161 a4_x5
+2.50409072161971258 a4_x6
+3.61898169631626399 a4_x1
<= 434.762693

a4_local_6: 
+28.27105410076226022 a4_x5
+24.30255005078778652 a4_x1
+19.11910353854608502 a4_x2
<= 4670.316718

a4_local_7: 
+4193.33224795565456589 a4_x4
+3492.68889130641628071 a4_x2
+2253.60742081438638706 a4_x5
<= 476135.114639

a4_local_8: 
+3.35590313851430633 a4_x3
+1.70741019980245867 a4_x1
+2.82634179663586860 a4_x2
<= 504.386325

a4_act_1: 
+1.27955912666454785 a4_x1
-127.95591266645477901 a4_z1
<= 0.000000

a4_act_2: 
+0.51068065813316343 a4_x2
-51.06806581331634476 a4_z2
<= 0.000000

coupling_1: 
+0.33821601537150853 a1_x1
+46.66203832317303579 a2_x1
+2852.87139064743405470 a3_x1
+255517.05242948394152336 a4_x1
+344.87290771207568696 short_1
-344.87290771207568696 surp_1
= 14771478.851286

coupling_2: 
+0.00457989779577561 a1_x2
+0.56091968383277191 a2_x2
+26.67468756106461569 a3_x2
+5733.24532624710718665 a4_x2
+4.27923952659995432 short_2
-4.27923952659995432 surp_2
= 411712.351769

coupling_3: 
+0.00544198392077516 a1_x3
+0.30670177147101646 a2_x3
+57.89093223076881145 a3_x3
+5246.24989648661539832 a4_x3
+4.47961183951891506 short_3
-4.47961183951891506 surp_3
= 130375.877329

bounds
  0.000000 <= a1_x1 <= 100.000000
  0.000000 <= a1_x2 <= 100.000000
  0.000000 <= a1_x3 <= 100.000000
  0.000000 <= a1_x4 <= 100.000000
  0.000000 <= a1_x5 <= 100.000000
  0.000000 <= a1_x6 <= 100.000000
  0.000000 <= a2_x1 <= 100.000000
  0.000000 <= a2_x2 <= 100.000000
  0.000000 <= a2_x3 <= 100.000000
  0.000000 <= a2_x4 <= 100.000000
  0.000000 <= a2_x5 <= 100.000000
  0.000000 <= a2_x6 <= 100.000000
  0.000000 <= a3_x1 <= 100.000000
  0.000000 <= a3_x2 <= 100.000000
  0.000000 <= a3_x3 <= 100.000000
  0.000000 <= a3_x4 <= 100.000000
  0.000000 <= a3_x5 <= 100.000000
  0.000000 <= a3_x6 <= 100.000000
  0.000000 <= a4_x1 <= 100.000000
  0.000000 <= a4_x2 <= 100.000000
  0.000000 <= a4_x3 <= 100.000000
  0.000000 <= a4_x4 <= 100.000000
  0.000000 <= a4_x5 <= 100.000000
  0.000000 <= a4_x6 <= 100.000000
  0.000000 <= short_1 <= +inf
  0.000000 <= surp_1 <= +inf
  0.000000 <= short_2 <= +inf
  0.000000 <= surp_2 <= +inf
  0.000000 <= short_3 <= +inf
  0.000000 <= surp_3 <= +inf
 0 <= a1_z1 <= 1
 0 <= a1_z2 <= 1
 0 <= a2_z1 <= 1
 0 <= a2_z2 <= 1
 0 <= a3_z1 <= 1
 0 <= a3_z2 <= 1
 0 <= a4_z1 <= 1
 0 <= a4_z2 <= 1

binary
  a1_z1
  a1_z2
  a2_z1
  a2_z2
  a3_z1
  a3_z2
  a4_z1
  a4_z2
end
