min
obj: 
  +1.58690782181034451 a1_x1
  +1.85914319529187777 a1_x2
  +3.32311090405199927 a1_x3
  +9.20870591814637862 a1_x4
  +9.62032466035919853 a1_x5
  +2.65221673698665317 a1_x6
  +45.97121590191820673 a1_z1
  +15.23159126469524693 a1_z2
  +7.38516429138446995 a2_x1
  +8.18461543331298103 a2_x2
  +6.32869026358351139 a2_x3
  +1.72084034317845602 a2_x4
  +2.51957804121249751 a2_x5
  +8.19694216322757185 a2_x6
  +32.90972281828447876 a2_z1
  +29.00608133785045339 a2_z2
  +9.62518175189459946 a3_x1
  +3.90094189534807345 a3_x2
  +1.32195101356612454 a3_x3
  +4.74857750195312356 a3_x4
  +3.55589835486331518 a3_x5
  +8.12436598238075014 a3_x6
  +20.82211554905935103 a3_z1
  +25.22287462451485496 a3_z2
  +3.97402812736189226 a4_x1
  +5.87257606585061964 a4_x2
  +8.54493066197249362 a4_x3
  +7.89453690964795740 a4_x4
  +2.70429770668290548 a4_x5
  +9.26226871331643586 a4_x6
  +13.31023289155729650 a4_z1
  +27.54299042523267715 a4_z2
  +1000000.00000000000000000 short_1
  +1000000.00000000000000000 surp_1
  +1000000.00000000000000000 short_2
  +1000000.00000000000000000 surp_2
  +1000000.00000000000000000 short_3
  +1000000.00000000000000000 surp_3

s.t.

a1_local_1: 
+0.53246830785528043 a1_x4
+0.69012198110526712 a1_x1
+0.49011136726776255 a1_x3
<= 75.931814

a1_local_2: 
+0.69617846452001120 a1_x2
+0.47322524293868901 a1_x4
+0.53980868368726553 a1_x3
<= 115.097453

a1_local_3: 
+0.39363520896456561 a1_x6
+0.78920363589640452 a1_x4
+0.47139043621112853 a1_x1
<= 71.439889

a1_local_4: 
+0.63759636823170907 a1_x6
+0.56665544691223801 a1_x2
+0.52189316502750516 a1_x1
<= 67.621855

a1_local_5: 
+0.40846880477800945 a1_x1
+0.59511297047828349 a1_x2
+0.69209377102509617 a1_x5
<= 88.502185

a1_local_6: 
+0.42686743713977271 a1_x1
+0.67541372727482640 a1_x2
+0.60133226099923198 a1_x6
<= 61.782550

a1_local_7: 
+0.33550665993360718 a1_x5
+0.71373623814206655 a1_x2
+0.61482994681700875 a1_x4
<= 110.233294

a1_local_8: 
+0.63697201480423715 a1_x1
+0.44880667154185588 a1_x2
+0.62676887601072795 a1_x3
<= 107.304967

a1_act_1: 
+0.00999950003749688 a1_x1
-0.99995000374968757 a1_z1
<= 0.000000

a1_act_2: 
+0.00999950003749688 a1_x2
-0.99995000374968768 a1_z2
<= 0.000000

a2_local_1: 
+0.24792846551420999 a2_x1
+0.63101896579301975 a2_x5
+0.37804780958388268 a2_x3
<= 67.286929

a2_local_2: 
+0.27663207421369351 a2_x4
+0.65373268083756764 a2_x2
+0.53352991591368026 a2_x5
<= 66.991549

a2_local_3: 
+0.63861542181410968 a2_x2
+0.56816630194893958 a2_x1
+0.51899652826474008 a2_x5
<= 57.358890

a2_local_4: 
+0.63488124547400782 a2_x6
+0.43309552396088680 a2_x2
+0.63980783933179308 a2_x4
<= 79.787787

a2_local_5: 
+0.38430315262398557 a2_x1
+0.69611865206745294 a2_x6
+0.60640737885274598 a2_x2
<= 79.963330

a2_local_6: 
+0.59168379616070732 a2_x4
+0.61987421276526100 a2_x6
+0.57007871762431406 a2_x5
<= 93.424164

a2_local_7: 
+0.45177316437931558 a2_x4
+0.31177802693303136 a2_x6
+0.60526436126237260 a2_x3
<= 84.210298

a2_local_8: 
+0.67337856361790527 a2_x5
+0.58705384102281077 a2_x1
+0.44936521650017713 a2_x4
<= 111.387106

a2_act_1: 
+0.00999950003749688 a2_x1
-0.99995000374968757 a2_z1
<= 0.000000

a2_act_2: 
+0.00999950003749688 a2_x2
-0.99995000374968745 a2_z2
<= 0.000000

a3_local_1: 
+0.36554576178837733 a3_x3
+0.42386759466282453 a3_x5
+0.18825210633589823 a3_x4
<= 33.873065

a3_local_2: 
+0.59764495162547260 a3_x3
+0.66446095025478280 a3_x5
+0.44867823368545245 a3_x2
<= 87.120231

a3_local_3: 
+0.46365429726410096 a3_x5
+0.59152824592302933 a3_x6
+0.65963552580478635 a3_x2
<= 86.025906

a3_local_4: 
+1.31547777204729854 a3_x4
+1.15078593149280195 a3_x3
+0.55391563952994038 a3_x1
<= 131.880045

a3_local_5: 
+0.71826790167457422 a3_x1
+0.61124667272427946 a3_x4
+0.33236835966665346 a3_x5
<= 95.346588

a3_local_6: 
+0.39874655304907541 a3_x5
+0.72397073837245551 a3_x4
+0.56290990079401049 a3_x6
<= 68.173857

a3_local_7: 
+0.64657871153568125 a3_x5
+0.49624509506998427 a3_x4
+0.57937619506486504 a3_x2
<= 104.555242

a3_local_8: 
+0.74893859942649510 a3_x6
+0.34223122238462650 a3_x2
+0.56742291521774502 a3_x3
<= 90.497383

a3_act_1: 
+0.00550313549370440 a3_x1
-0.55031354937043997 a3_z1
<= 0.000000

a3_act_2: 
+0.00999950003749688 a3_x2
-0.99995000374968757 a3_z2
<= 0.000000

a4_local_1: 
+0.53231102975291911 a4_x3
+0.44628892202161397 a4_x2
+0.71935468698283511 a4_x4
<= 100.501054

a4_local_2: 
+0.64808858862810526 a4_x5
+0.32804273085199476 a4_x4
+0.68729116684648028 a4_x1
<= 66.743245

a4_local_3: 
+0.48683511536909579 a4_x3
+0.58943244357704672 a4_x2
+0.64464018250676147 a4_x6
<= 98.660895

a4_local_4: 
+0.51997354613037339 a4_x1
+0.61544933228311516 a4_x6
+0.59232561207233980 a4_x5
<= 79.817993

a4_local_5: 
+0.56662000448558147 a4_x1
+0.62763989475477278 a4_x2
+0.53386321565451356 a4_x6
<= 67.980091

a4_local_6: 
+0.28357326232914637 a4_x6
+0.83305908349641022 a4_x3
+0.47497238687751725 a4_x5
<= 65.273324

a4_local_7: 
+0.48611282887096741 a4_x1
+0.51038557666546014 a4_x4
+0.70936653483155754 a4_x5
<= 54.928813

a4_local_8: 
+0.52642041201404344 a4_x5
+0.46379354365254510 a4_x1
+0.71258480104558741 a4_x6
<= 97.158698

a4_act_1: 
+0.00999950003749688 a4_x1
-0.99995000374968745 a4_z1
<= 0.000000

a4_act_2: 
+0.00999950003749688 a4_x2
-0.99995000374968757 a4_z2
<= 0.000000

coupling_1: 
+0.00000104177711999 a1_x1
+0.00007054108008473 a2_x1
+0.00508277354749314 a3_x1
+0.99998657740226882 a4_x1
+0.00070903146326515 short_1
-0.00070903146326515 surp_1
= 59.743617

coupling_2: 
+0.00000131097081782 a1_x2
+0.00006384904553520 a2_x2
+0.01589338964530234 a3_x2
+0.99987234543310410 a4_x2
+0.00115950965206646 short_2
-0.00115950965206646 surp_2
= 78.960729

coupling_3: 
+0.00000118767096854 a1_x3
+0.00010533723826394 a2_x3
+0.02155623272308705 a3_x3
+1.53168705582188625 a4_x3
+0.00180221634613758 short_3
-0.00180221634613758 surp_3
= 79.189638

bounds
  0.000000 <= a1_x1 <= 100.000000
  0.000000 <= a1_x2 <= 100.000000
  0.000000 <= a1_x3 <= 100.000000
  0.000000 <= a1_x4 <= 100.000000
  0.000000 <= a1_x5 <= 100.000000
  0.000000 <= a1_x6 <= 100.000000
  0.000000 <= a2_x1 <= 100.000000
  0.000000 <= a2_x2 <= 100.000000
  0.000000 <= a2_x3 <= 100.000000
  0.000000 <= a2_x4 <= 100.000000
  0.000000 <= a2_x5 <= 100.000000
  0.000000 <= a2_x6 <= 100.000000
  0.000000 <= a3_x1 <= 100.000000
  0.000000 <= a3_x2 <= 100.000000
  0.000000 <= a3_x3 <= 100.000000
  0.000000 <= a3_x4 <= 100.000000
  0.000000 <= a3_x5 <= 100.000000
  0.000000 <= a3_x6 <= 100.000000
  0.000000 <= a4_x1 <= 100.000000
  0.000000 <= a4_x2 <= 100.000000
  0.000000 <= a4_x3 <= 100.000000
  0.000000 <= a4_x4 <= 100.000000
  0.000000 <= a4_x5 <= 100.000000
  0.000000 <= a4_x6 <= 100.000000
  0.000000 <= short_1 <= +inf
  0.000000 <= surp_1 <= +inf
  0.000000 <= short_2 <= +inf
  0.000000 <= surp_2 <= +inf
  0.000000 <= short_3 <= +inf
  0.000000 <= surp_3 <= +inf
 0 <= a1_z1 <= 1
 0 <= a1_z2 <= 1
 0 <= a2_z1 <= 1
 0 <= a2_z2 <= 1
 0 <= a3_z1 <= 1
 0 <= a3_z2 <= 1
 0 <= a4_z1 <= 1
 0 <= a4_z2 <= 1

binary
  a1_z1
  a1_z2
  a2_z1
  a2_z2
  a3_z1
  a3_z2
  a4_z1
  a4_z2
end
