min
obj: 
  +2.37029411872895501 a1_x1
  +4.08711411622905185 a1_x2
  +7.66136637275760890 a1_x3
  +4.89991689432673461 a1_x4
  +9.18560754331382867 a1_x5
  +7.80552329567271030 a1_x6
  +17.43087311454965516 a1_z1
  +23.40237872614093462 a1_z2
  +7.76967499598976019 a2_x1
  +1.80336421538305247 a2_x2
  +9.57158160013941384 a2_x3
  +5.65827493894111466 a2_x4
  +2.44173723344263127 a2_x5
  +7.27299337053102857 a2_x6
  +31.32172731425238510 a2_z1
  +17.35876123031728824 a2_z2
  +2.34937597507828766 a3_x1
  +3.44404861330662637 a3_x2
  +8.97236298110027342 a3_x3
  +1.18282410761081147 a3_x4
  +8.94329086748358293 a3_x5
  +1.71905082189577563 a3_x6
  +16.00176469749968788 a3_z1
  +34.61198408971173990 a3_z2
  +6.56106695092732561 a4_x1
  +3.99053598556514322 a4_x2
  +4.10040873738996048 a4_x3
  +4.88744804784333908 a4_x4
  +2.91326732486744788 a4_x5
  +5.36841797601257653 a4_x6
  +43.70048480327027818 a4_z1
  +7.09598516541455737 a4_z2
  +1000000.00000000000000000 short_1
  +1000000.00000000000000000 surp_1
  +1000000.00000000000000000 short_2
  +1000000.00000000000000000 surp_2
  +1000000.00000000000000000 short_3
  +1000000.00000000000000000 surp_3

s.t.

a1_local_1: 
+1.03725235037062680 a1_x3
+0.74544290631240440 a1_x2
+0.41440856740815485 a1_x1
<= 153.684159

a1_local_2: 
+0.00000505205387624 a1_x6
+0.00000300417977977 a1_x3
+0.00000295531806352 a1_x2
<= 0.000341

a1_local_3: 
+0.24218771161057853 a1_x4
+0.28014360271422756 a1_x3
+0.20293179282498808 a1_x6
<= 22.322650

a1_local_4: 
+0.02190900937118606 a1_x5
+0.04137348037097446 a1_x3
+0.01991410612907963 a1_x6
<= 4.486680

a1_local_5: 
+0.02819023197019201 a1_x3
+0.02134480249561486 a1_x5
+0.01130368012760398 a1_x4
<= 3.687810

a1_local_6: 
+0.00177401235019928 a1_x3
+0.00128006435990731 a1_x1
+0.00097302258842428 a1_x6
<= 0.200483

a1_local_7: 
+0.00347499555192981 a1_x6
+0.00407812576612038 a1_x1
+0.00392096557193584 a1_x4
<= 0.528101

a1_local_8: 
+0.00515337659887756 a1_x3
+0.00784972293013953 a1_x2
+0.00840975172785712 a1_x4
<= 0.781161

a1_act_1: 
+10.81237922455757250 a1_x1
-1081.23792245575714333 a1_z1
<= 0.000000

a1_act_2: 
+170.48682286075174375 a1_x2
-17048.68228607517448836 a1_z2
<= 0.000000

a2_local_1: 
+0.55050479235961181 a2_x3
+0.64377804921711546 a2_x2
+0.32022670502124734 a2_x1
<= 95.921157

a2_local_2: 
+0.24711355322860210 a2_x6
+0.58431512168375754 a2_x2
+0.64569945923717720 a2_x1
<= 94.350026

a2_local_3: 
+0.01545206214885571 a2_x2
+0.02556004309746700 a2_x3
+0.01437890037322954 a2_x1
<= 3.090861

a2_local_4: 
+0.08704787678864326 a2_x1
+0.08346572505853257 a2_x4
+0.09918647902608478 a2_x5
<= 15.295626

a2_local_5: 
+0.18079093197437057 a2_x1
+0.27204575687786042 a2_x6
+0.24366519440099618 a2_x3
<= 21.554781

a2_local_6: 
+3.97483970465367120 a2_x1
+3.24011127338457561 a2_x6
+7.03164627400036135 a2_x2
<= 694.671764

a2_local_7: 
+0.00058068537436686 a2_x3
+0.00052230379240694 a2_x2
+0.00069019608662523 a2_x4
<= 0.073744

a2_local_8: 
+0.16089190144518592 a2_x4
+0.08287060262781538 a2_x3
+0.14206866239326510 a2_x1
<= 23.323319

a2_act_1: 
+0.08103809945015665 a2_x1
-8.10380994501566576 a2_z1
<= 0.000000

a2_act_2: 
+182.88117749700691661 a2_x2
-18288.11774970069018309 a2_z2
<= 0.000000

a3_local_1: 
+91.16276466947243762 a3_x5
+61.25834529679308105 a3_x4
+161.21982867558313046 a3_x2
<= 14078.254354

a3_local_2: 
+7443.30928712546574388 a3_x4
+5383.01749319836562790 a3_x5
+7620.32611115566669469 a3_x3
<= 1029211.587051

a3_local_3: 
+0.24025701093121368 a3_x4
+0.12720012433466252 a3_x3
+0.27726601906173887 a3_x6
<= 27.329193

a3_local_4: 
+525.46845325813274030 a3_x4
+553.65648042893496950 a3_x5
+675.21330440357769476 a3_x2
<= 96578.313372

a3_local_5: 
+0.02880790920541641 a3_x4
+0.01131086911931750 a3_x6
+0.02473220059344758 a3_x5
<= 2.668779

a3_local_6: 
+13.21675576030731136 a3_x1
+12.66592364032163509 a3_x5
+14.27409759951854085 a3_x3
<= 1330.314153

a3_local_7: 
+0.43793593683801402 a3_x6
+0.34299559613885788 a3_x4
+0.59915709157121722 a3_x1
<= 52.029891

a3_local_8: 
+18.45884815953009195 a3_x4
+9.01977593258018118 a3_x2
+17.33142025403623521 a3_x1
<= 2834.195856

a3_act_1: 
+61.65560158394689694 a3_x1
-6165.56015839469000639 a3_z1
<= 0.000000

a3_act_2: 
+0.08872073204282940 a3_x2
-8.87207320428294111 a3_z2
<= 0.000000

a4_local_1: 
+7391.59260977761186950 a4_x5
+9280.02277999507350614 a4_x2
+6979.34758966430399596 a4_x1
<= 1582375.445163

a4_local_2: 
+5.65311928638946881 a4_x4
+3.10024267321686953 a4_x2
+6.45435405062993528 a4_x6
<= 949.337366

a4_local_3: 
+4068.02093949698655706 a4_x1
+2904.48469463555375114 a4_x3
+3071.28813964241226131 a4_x6
<= 497550.496974

a4_local_4: 
+10078.87478580061360844 a4_x3
+13287.53930585800662811 a4_x4
+10856.34613124993302335 a4_x1
<= 2065880.277940

a4_local_5: 
+83.78182107225769926 a4_x6
+86.55459797893645657 a4_x3
+45.79577692368702913 a4_x4
<= 10338.579485

a4_local_6: 
+189.91593543757284124 a4_x5
+406.76792310535040542 a4_x4
+202.08084958661439146 a4_x2
<= 44729.866769

a4_local_7: 
+266842.00365515245357528 a4_x6
+193527.08161670994013548 a4_x2
+207784.71056224417407066 a4_x4
<= 45220364.321165

a4_local_8: 
+1164.58193424920023062 a4_x6
+1915.18965227477110602 a4_x2
+1880.71379068200963047 a4_x1
<= 179264.830191

a4_act_1: 
+0.00475839882370791 a4_x1
-0.47583988237079106 a4_z1
<= 0.000000

a4_act_2: 
+626.43919859465370337 a4_x2
-62643.91985946537170094 a4_z2
<= 0.000000

coupling_1: 
+0.00001979108125834 a1_x1
+0.00321216225405864 a2_x1
+0.28068677888654286 a3_x1
+31.24884237867462033 a4_x1
+0.02319475369751118 short_1
-0.02319475369751118 surp_1
= 660.133129

coupling_2: 
+0.00315503765952503 a1_x2
+0.45948907959665791 a2_x2
+39.40961638751311824 a3_x2
+4255.33782266112393700 a4_x2
+3.28714684373095434 short_2
-3.28714684373095434 surp_2
= 337333.562724

coupling_3: 
+0.00000690178951945 a1_x3
+0.00074079108668531 a2_x3
+0.14941062749647105 a3_x3
+13.49331086651044131 a4_x3
+0.01139437966651014 short_3
-0.01139437966651014 surp_3
= 758.450653

bounds
  0.000000 <= a1_x1 <= 100.000000
  0.000000 <= a1_x2 <= 100.000000
  0.000000 <= a1_x3 <= 100.000000
  0.000000 <= a1_x4 <= 100.000000
  0.000000 <= a1_x5 <= 100.000000
  0.000000 <= a1_x6 <= 100.000000
  0.000000 <= a2_x1 <= 100.000000
  0.000000 <= a2_x2 <= 100.000000
  0.000000 <= a2_x3 <= 100.000000
  0.000000 <= a2_x4 <= 100.000000
  0.000000 <= a2_x5 <= 100.000000
  0.000000 <= a2_x6 <= 100.000000
  0.000000 <= a3_x1 <= 100.000000
  0.000000 <= a3_x2 <= 100.000000
  0.000000 <= a3_x3 <= 100.000000
  0.000000 <= a3_x4 <= 100.000000
  0.000000 <= a3_x5 <= 100.000000
  0.000000 <= a3_x6 <= 100.000000
  0.000000 <= a4_x1 <= 100.000000
  0.000000 <= a4_x2 <= 100.000000
  0.000000 <= a4_x3 <= 100.000000
  0.000000 <= a4_x4 <= 100.000000
  0.000000 <= a4_x5 <= 100.000000
  0.000000 <= a4_x6 <= 100.000000
  0.000000 <= short_1 <= +inf
  0.000000 <= surp_1 <= +inf
  0.000000 <= short_2 <= +inf
  0.000000 <= surp_2 <= +inf
  0.000000 <= short_3 <= +inf
  0.000000 <= surp_3 <= +inf
 0 <= a1_z1 <= 1
 0 <= a1_z2 <= 1
 0 <= a2_z1 <= 1
 0 <= a2_z2 <= 1
 0 <= a3_z1 <= 1
 0 <= a3_z2 <= 1
 0 <= a4_z1 <= 1
 0 <= a4_z2 <= 1

binary
  a1_z1
  a1_z2
  a2_z1
  a2_z2
  a3_z1
  a3_z2
  a4_z1
  a4_z2
end
