min
obj: 
  +1.58690782181034451 a1_x1
  +1.85914319529187777 a1_x2
  +3.32311090405199927 a1_x3
  +9.20870591814637862 a1_x4
  +9.62032466035919853 a1_x5
  +2.65221673698665317 a1_x6
  +45.97121590191820673 a1_z1
  +15.23159126469524693 a1_z2
  +7.38516429138446995 a2_x1
  +8.18461543331298103 a2_x2
  +6.32869026358351139 a2_x3
  +1.72084034317845602 a2_x4
  +2.51957804121249751 a2_x5
  +8.19694216322757185 a2_x6
  +32.90972281828447876 a2_z1
  +29.00608133785045339 a2_z2
  +9.62518175189459946 a3_x1
  +3.90094189534807345 a3_x2
  +1.32195101356612454 a3_x3
  +4.74857750195312356 a3_x4
  +3.55589835486331518 a3_x5
  +8.12436598238075014 a3_x6
  +20.82211554905935103 a3_z1
  +25.22287462451485496 a3_z2
  +3.97402812736189226 a4_x1
  +5.87257606585061964 a4_x2
  +8.54493066197249362 a4_x3
  +7.89453690964795740 a4_x4
  +2.70429770668290548 a4_x5
  +9.26226871331643586 a4_x6
  +13.31023289155729650 a4_z1
  +27.54299042523267715 a4_z2
  +1000000.00000000000000000 short_1
  +1000000.00000000000000000 surp_1
  +1000000.00000000000000000 short_2
  +1000000.00000000000000000 surp_2
  +1000000.00000000000000000 short_3
  +1000000.00000000000000000 surp_3

s.t.

a1_local_1: 
+0.00000494157537717 a1_x4
+0.00000640468125289 a1_x1
+0.00000454848153183 a1_x3
<= 0.000705

a1_local_2: 
+0.09242976864170030 a1_x2
+0.06282886062899488 a1_x4
+0.07166896749441257 a1_x3
<= 15.281184

a1_local_3: 
+0.00000175145839681 a1_x6
+0.00000351151854154 a1_x4
+0.00000209742604034 a1_x1
<= 0.000318

a1_local_4: 
+0.00002286210108917 a1_x6
+0.00002031839382330 a1_x2
+0.00001871336615310 a1_x1
<= 0.002425

a1_local_5: 
+0.00011647055162815 a1_x1
+0.00016969015783309 a1_x2
+0.00019734320551972 a1_x5
<= 0.025235

a1_local_6: 
+0.00000223351882532 a1_x1
+0.00000353399941878 a1_x2
+0.00000314637943389 a1_x6
<= 0.000323

a1_local_7: 
+0.00000152004349728 a1_x5
+0.00000323364706911 a1_x2
+0.00000278554310301 a1_x4
<= 0.000499

a1_local_8: 
+0.00001525655058403 a1_x1
+0.00001074967428347 a1_x2
+0.00001501216825718 a1_x3
<= 0.002570

a1_act_1: 
+8.95149920837035928 a1_x1
-895.14992083703589287 a1_z1
<= 0.000000

a1_act_2: 
+21.19826434477331034 a1_x2
-2119.82643447733107678 a1_z2
<= 0.000000

a2_local_1: 
+0.24792846551420999 a2_x1
+0.63101896579301975 a2_x5
+0.37804780958388268 a2_x3
<= 67.286929

a2_local_2: 
+0.27663207421369351 a2_x4
+0.65373268083756764 a2_x2
+0.53352991591368026 a2_x5
<= 66.991549

a2_local_3: 
+0.02625736846053160 a2_x2
+0.02336077618475287 a2_x1
+0.02133910739842847 a2_x5
<= 2.358373

a2_local_4: 
+0.00853474817016705 a2_x6
+0.00582213013375908 a2_x2
+0.00860097667858912 a2_x4
<= 1.072592

a2_local_5: 
+0.00107805232811952 a2_x1
+0.00195276132497150 a2_x6
+0.00170110206512070 a2_x2
<= 0.224314

a2_local_6: 
+0.59168379616070732 a2_x4
+0.61987421276526100 a2_x6
+0.57007871762431406 a2_x5
<= 93.424164

a2_local_7: 
+0.45177316437931558 a2_x4
+0.31177802693303136 a2_x6
+0.60526436126237260 a2_x3
<= 84.210298

a2_local_8: 
+0.00020416230568975 a2_x5
+0.00017798942856644 a2_x1
+0.00013624347975162 a2_x4
<= 0.033772

a2_act_1: 
+0.65264814334906707 a2_x1
-65.26481433490670270 a2_z1
<= 0.000000

a2_act_2: 
+20.89828864257987462 a2_x2
-2089.82886425798733399 a2_z2
<= 0.000000

a3_local_1: 
+0.36554576178837733 a3_x3
+0.42386759466282453 a3_x5
+0.18825210633589823 a3_x4
<= 33.873065

a3_local_2: 
+1254.30669772226951864 a3_x3
+1394.53670279100765583 a3_x5
+941.66295909170366940 a3_x2
<= 182843.491895

a3_local_3: 
+215.22773690385531609 a3_x5
+274.58666173474972538 a3_x6
+306.20197469987124350 a3_x2
<= 39933.116374

a3_local_4: 
+1.31547777204729854 a3_x4
+1.15078593149280195 a3_x3
+0.55391563952994038 a3_x1
<= 131.880045

a3_local_5: 
+0.15842291736363359 a3_x1
+0.13481805451145970 a3_x4
+0.07330797471945641 a3_x5
<= 21.029876

a3_local_6: 
+0.02340192853930122 a3_x5
+0.04248892273647362 a3_x4
+0.03303646682765254 a3_x6
<= 4.001037

a3_local_7: 
+295.86199430452774095 a3_x5
+227.07222008985567641 a3_x4
+265.11141407259361813 a3_x2
<= 47842.469787

a3_local_8: 
+452.78869368030825626 a3_x6
+206.90404826084619572 a3_x2
+343.04905734923448790 a3_x3
<= 54712.351359

a3_act_1: 
+0.00550313549370440 a3_x1
-0.55031354937043997 a3_z1
<= 0.000000

a3_act_2: 
+357.96792309383454267 a3_x2
-35796.79230938345426694 a3_z2
<= 0.000000

a4_local_1: 
+3.27595958170540635 a4_x3
+2.74656054184018306 a4_x2
+4.42706753711257139 a4_x4
<= 618.505671

a4_local_2: 
+1879.57228098704035801 a4_x5
+951.38231826284413728 a4_x4
+1993.26673673800610231 a4_x1
<= 193567.292226

a4_local_3: 
+449.24375032635748539 a4_x3
+543.91894330757838816 a4_x2
+594.86377226680406238 a4_x6
<= 91042.714528

a4_local_4: 
+174749.38574043466360308 a4_x1
+206836.27767453595879488 a4_x6
+199065.00559167985920794 a4_x5
<= 26824720.852648

a4_local_5: 
+420.12257417325514552 a4_x1
+465.36600570182656611 a4_x2
+395.83492753809622400 a4_x6
<= 50404.098810

a4_local_6: 
+1153.84161552730552103 a4_x6
+3389.66456440980937259 a4_x3
+1932.63251162761571322 a4_x5
<= 265593.016355

a4_local_7: 
+123.26789977579537094 a4_x1
+129.42295363307363232 a4_x4
+179.88030293915596758 a4_x5
<= 13928.781604

a4_local_8: 
+2.92228025858201379 a4_x5
+2.57462417060961446 a4_x1
+3.95572141417183554 a4_x6
<= 539.350184

a4_act_1: 
+182.44207332917602571 a4_x1
-18244.20733291760188877 a4_z1
<= 0.000000

a4_act_2: 
+91.09804621194513174 a4_x2
-9109.80462119451294711 a4_z2
<= 0.000000

coupling_1: 
+0.00142067132195058 a1_x1
+0.09619686166361636 a2_x1
+6.93137762036544292 a3_x1
+1363.68156450536253033 a4_x1
+0.96690611350075140 short_1
-0.96690611350075140 surp_1
= 81472.362854

coupling_2: 
+0.09506374974848626 a1_x2
+4.62995026579717184 a2_x2
+1152.49340058050620428 a3_x2
+72504.75230595048924442 a4_x2
+84.08069340393818436 short_2
-84.08069340393818436 surp_2
= 5725759.040575

coupling_3: 
+0.00000118767096854 a1_x3
+0.00010533723826394 a2_x3
+0.02155623272308705 a3_x3
+1.53168705582188625 a4_x3
+0.00180221634613758 short_3
-0.00180221634613758 surp_3
= 79.189638

bounds
  0.000000 <= a1_x1 <= 100.000000
  0.000000 <= a1_x2 <= 100.000000
  0.000000 <= a1_x3 <= 100.000000
  0.000000 <= a1_x4 <= 100.000000
  0.000000 <= a1_x5 <= 100.000000
  0.000000 <= a1_x6 <= 100.000000
  0.000000 <= a2_x1 <= 100.000000
  0.000000 <= a2_x2 <= 100.000000
  0.000000 <= a2_x3 <= 100.000000
  0.000000 <= a2_x4 <= 100.000000
  0.000000 <= a2_x5 <= 100.000000
  0.000000 <= a2_x6 <= 100.000000
  0.000000 <= a3_x1 <= 100.000000
  0.000000 <= a3_x2 <= 100.000000
  0.000000 <= a3_x3 <= 100.000000
  0.000000 <= a3_x4 <= 100.000000
  0.000000 <= a3_x5 <= 100.000000
  0.000000 <= a3_x6 <= 100.000000
  0.000000 <= a4_x1 <= 100.000000
  0.000000 <= a4_x2 <= 100.000000
  0.000000 <= a4_x3 <= 100.000000
  0.000000 <= a4_x4 <= 100.000000
  0.000000 <= a4_x5 <= 100.000000
  0.000000 <= a4_x6 <= 100.000000
  0.000000 <= short_1 <= +inf
  0.000000 <= surp_1 <= +inf
  0.000000 <= short_2 <= +inf
  0.000000 <= surp_2 <= +inf
  0.000000 <= short_3 <= +inf
  0.000000 <= surp_3 <= +inf
 0 <= a1_z1 <= 1
 0 <= a1_z2 <= 1
 0 <= a2_z1 <= 1
 0 <= a2_z2 <= 1
 0 <= a3_z1 <= 1
 0 <= a3_z2 <= 1
 0 <= a4_z1 <= 1
 0 <= a4_z2 <= 1

binary
  a1_z1
  a1_z2
  a2_z1
  a2_z2
  a3_z1
  a3_z2
  a4_z1
  a4_z2
end
