min
obj: 
  +2.86702301288668870 a1_x1
  +4.61217347674817457 a1_x2
  +8.37266539443051627 a1_x3
  +3.88741117842564377 a1_x4
  +3.57352147071314707 a1_x5
  +7.90632682258909369 a1_x6
  +32.52167325628295202 a1_z1
  +46.95512094955829951 a1_z2
  +1.34162249297538905 a2_x1
  +5.04177078463243156 a2_x2
  +1.10989142532268992 a2_x3
  +7.53499127677043390 a2_x4
  +4.74514201764349153 a2_x5
  +4.92271964690250208 a2_x6
  +7.37175972020868908 a2_z1
  +32.23919956008293042 a2_z2
  +7.19883337190115391 a3_x1
  +9.69659328832065093 a3_x2
  +2.68145044350852224 a3_x3
  +4.74181989860472974 a3_x4
  +5.40392510460596665 a3_x5
  +9.85025370993833427 a3_x6
  +17.99205279831755888 a3_z1
  +28.73085531973273987 a3_z2
  +5.38171902546503311 a4_x1
  +3.72975403904797487 a4_x2
  +6.65779047476273789 a4_x3
  +5.43042814174023825 a4_x4
  +9.71759449267787367 a4_x5
  +8.04794548671517163 a4_x6
  +7.84716545501873153 a4_z1
  +24.37447779336789466 a4_z2
  +1000000.00000000000000000 short_1
  +1000000.00000000000000000 surp_1
  +1000000.00000000000000000 short_2
  +1000000.00000000000000000 surp_2
  +1000000.00000000000000000 short_3
  +1000000.00000000000000000 surp_3

s.t.

a1_local_1: 
+0.75472573801036946 a1_x3
+1.32498462638392334 a1_x1
+1.17726940492991550 a1_x2
<= 195.876542

a1_local_2: 
+1.20311966167186646 a1_x4
+0.90361891902783420 a1_x6
+0.83117251912448220 a1_x2
<= 110.084938

a1_local_3: 
+1.45778828517307835 a1_x3
+0.68597066540514362 a1_x4
+0.73088131078761542 a1_x1
<= 187.598018

a1_local_4: 
+0.66872221773875962 a1_x3
+0.60839304254108095 a1_x6
+1.64367428631874346 a1_x1
<= 160.044109

a1_local_5: 
+0.83167637709024866 a1_x5
+1.20239077067291289 a1_x1
+1.12922768985952926 a1_x3
<= 161.332482

a1_local_6: 
+1.15620194750512595 a1_x6
+0.93250323884611397 a1_x3
+0.86490080920363321 a1_x1
<= 134.954570

a1_local_7: 
+0.85552678483154143 a1_x4
+1.16887047574659619 a1_x3
+1.06819923722896859 a1_x6
<= 107.082191

a1_local_8: 
+0.91465463065916663 a1_x6
+1.12884328451427018 a1_x3
+0.88586255835351868 a1_x2
<= 107.684544

a1_act_1: 
+0.10000000000000001 a1_x1
-10.00000000000000000 a1_z1
<= 0.000000

a1_act_2: 
+0.10000000000000001 a1_x2
-10.00000000000000178 a1_z2
<= 0.000000

a2_local_1: 
+0.80143586396699196 a2_x3
+1.24776048210538515 a2_x1
+1.03579858280022274 a2_x4
<= 139.464286

a2_local_2: 
+1.26408441133474336 a2_x3
+0.79108641087038067 a2_x4
+0.91668418827015519 a2_x1
<= 193.362131

a2_local_3: 
+0.73450215460200563 a2_x2
+1.02354628101806067 a2_x5
+1.36146639425701332 a2_x6
<= 190.730980

a2_local_4: 
+1.20505755482941734 a2_x3
+1.06106299765293821 a2_x4
+0.82983588293552968 a2_x2
<= 186.307815

a2_local_5: 
+0.45347852699720409 a2_x3
+0.69434697064346951 a2_x5
+0.85108758233358484 a2_x6
<= 125.071266

a2_local_6: 
+0.65532467351982360 a2_x2
+1.52596116155505945 a2_x5
+0.81324738353424664 a2_x1
<= 201.113926

a2_local_7: 
+0.45962061792496889 a2_x6
+0.72883681314772064 a2_x2
+0.49324882994363073 a2_x5
<= 81.911533

a2_local_8: 
+0.89561606987628650 a2_x2
+1.20140218311110081 a2_x4
+0.83236073153325030 a2_x6
<= 191.798337

a2_act_1: 
+0.09999999999999999 a2_x1
-10.00000000000000000 a2_z1
<= 0.000000

a2_act_2: 
+0.10000000000000001 a2_x2
-10.00000000000000178 a2_z2
<= 0.000000

a3_local_1: 
+0.85396775625603771 a3_x6
+1.17100439996024708 a3_x2
+0.85954162289799774 a3_x1
<= 147.746378

a3_local_2: 
+1.20725089716054179 a3_x3
+0.82832823098496233 a3_x1
+0.96282836761533974 a3_x4
<= 172.858378

a3_local_3: 
+1.02241018488976709 a3_x4
+0.82643913357730203 a3_x1
+1.21001046461997430 a3_x6
<= 178.266010

a3_local_4: 
+1.18416876126276027 a3_x1
+1.19212969924258383 a3_x3
+0.83883490247357073 a3_x5
<= 117.935688

a3_local_5: 
+0.59863986406980207 a3_x5
+1.27085449992803201 a3_x4
+1.67045340616240523 a3_x6
<= 152.735331

a3_local_6: 
+0.76733689581740516 a3_x2
+1.26823822040903722 a3_x3
+1.30320854562160826 a3_x6
<= 178.510910

a3_local_7: 
+1.20064068599480200 a3_x4
+0.69594678063841819 a3_x1
+1.43689148052766646 a3_x2
<= 179.022851

a3_local_8: 
+1.45743217326549512 a3_x2
+0.68613827685676709 a3_x1
+1.07372631953375008 a3_x5
<= 105.291825

a3_act_1: 
+0.10000000000000001 a3_x1
-10.00000000000000000 a3_z1
<= 0.000000

a3_act_2: 
+0.09999999999999999 a3_x2
-9.99999999999999822 a3_z2
<= 0.000000

a4_local_1: 
+0.74796130182463094 a4_x1
+1.33696756444555054 a4_x4
+1.00400659758937794 a4_x3
<= 123.786758

a4_local_2: 
+1.17680838340659921 a4_x1
+0.84975601304370540 a4_x6
+0.87646179667627655 a4_x3
<= 136.197927

a4_local_3: 
+1.07719103296801011 a4_x2
+0.67935411715235661 a4_x5
+1.47198636874637945 a4_x1
<= 183.999455

a4_local_4: 
+0.81124402459131406 a4_x5
+0.83831920664339410 a4_x4
+1.23267471893401859 a4_x3
<= 124.586613

a4_local_5: 
+0.69082944963965465 a4_x1
+1.25211364852442242 a4_x4
+1.44753527881825583 a4_x2
<= 137.289562

a4_local_6: 
+1.13741571699877042 a4_x4
+1.35098159865453593 a4_x2
+0.74020253199297148 a4_x6
<= 164.533615

a4_local_7: 
+0.88127640658120243 a4_x2
+0.94058996728456079 a4_x1
+1.13471777132826035 a4_x3
<= 142.332347

a4_local_8: 
+1.18634613849520765 a4_x1
+0.74023993197972604 a4_x2
+1.35091334146965236 a4_x5
<= 213.581294

a4_act_1: 
+0.09999999999999999 a4_x1
-10.00000000000000000 a4_z1
<= 0.000000

a4_act_2: 
+0.10000000000000001 a4_x2
-10.00000000000000000 a4_z2
<= 0.000000

coupling_1: 
+0.00109924198248452 a1_x1
+0.09149322289726802 a2_x1
+8.98707947166001198 a3_x1
+909.71780184358124188 a4_x1
+0.74504118795258445 short_1
-0.74504118795258445 surp_1
= 23000.385163

coupling_2: 
+0.00095799392791436 a1_x2
+0.11395207762323162 a2_x2
+16.06072101149995746 a3_x2
+1087.63131085290592637 a4_x2
+1.42824117948671980 short_2
-1.42824117948671980 surp_2
= 25046.644795

coupling_3: 
+0.00150339420687149 a1_x3
+0.14573963710098170 a2_x3
+10.93642793224470822 a3_x3
+665.16153609568698357 a4_x3
+1.02303462915561671 short_3
-1.02303462915561671 surp_3
= 13923.674485

bounds
  0.000000 <= a1_x1 <= 100.000000
  0.000000 <= a1_x2 <= 100.000000
  0.000000 <= a1_x3 <= 100.000000
  0.000000 <= a1_x4 <= 100.000000
  0.000000 <= a1_x5 <= 100.000000
  0.000000 <= a1_x6 <= 100.000000
  0.000000 <= a2_x1 <= 100.000000
  0.000000 <= a2_x2 <= 100.000000
  0.000000 <= a2_x3 <= 100.000000
  0.000000 <= a2_x4 <= 100.000000
  0.000000 <= a2_x5 <= 100.000000
  0.000000 <= a2_x6 <= 100.000000
  0.000000 <= a3_x1 <= 100.000000
  0.000000 <= a3_x2 <= 100.000000
  0.000000 <= a3_x3 <= 100.000000
  0.000000 <= a3_x4 <= 100.000000
  0.000000 <= a3_x5 <= 100.000000
  0.000000 <= a3_x6 <= 100.000000
  0.000000 <= a4_x1 <= 100.000000
  0.000000 <= a4_x2 <= 100.000000
  0.000000 <= a4_x3 <= 100.000000
  0.000000 <= a4_x4 <= 100.000000
  0.000000 <= a4_x5 <= 100.000000
  0.000000 <= a4_x6 <= 100.000000
  0.000000 <= short_1 <= +inf
  0.000000 <= surp_1 <= +inf
  0.000000 <= short_2 <= +inf
  0.000000 <= surp_2 <= +inf
  0.000000 <= short_3 <= +inf
  0.000000 <= surp_3 <= +inf
 0 <= a1_z1 <= 1
 0 <= a1_z2 <= 1
 0 <= a2_z1 <= 1
 0 <= a2_z2 <= 1
 0 <= a3_z1 <= 1
 0 <= a3_z2 <= 1
 0 <= a4_z1 <= 1
 0 <= a4_z2 <= 1

binary
  a1_z1
  a1_z2
  a2_z1
  a2_z2
  a3_z1
  a3_z2
  a4_z1
  a4_z2
end
