min
obj: 
  +4.68205187695116365 a1_x1
  +5.71291625483064269 a1_x2
  +9.00563589084773142 a1_x3
  +9.01724711762336106 a1_x4
  +9.40638568868457803 a1_x5
  +5.77535620951187667 a1_x6
  +36.44079832510822570 a1_z1
  +20.35589591192510284 a1_z2
  +9.85237733259970305 a2_x1
  +8.66656609951932211 a2_x2
  +1.31834896047554095 a2_x3
  +8.26919439786070853 a2_x4
  +6.06353184831551140 a2_x5
  +3.26315819103542193 a2_x6
  +31.01579944565894920 a2_z1
  +42.14273897613190911 a2_z2
  +3.40700085697226296 a3_x1
  +9.41882509326676143 a3_x2
  +9.74900107951637906 a3_x3
  +7.04508203399397814 a3_x4
  +9.97637618984075480 a3_x5
  +5.84735535483849578 a3_x6
  +49.07354774414897491 a3_z1
  +13.99914181947612590 a3_z2
  +1.91431389506638183 a4_x1
  +6.10422017205319989 a4_x2
  +2.25748963263893865 a4_x3
  +5.65946667698913863 a4_x4
  +4.35204976180165826 a4_x5
  +6.78234121926408484 a4_x6
  +29.95675458969477134 a4_z1
  +32.97214499302464219 a4_z2
  +1000000.00000000000000000 short_1
  +1000000.00000000000000000 surp_1
  +1000000.00000000000000000 short_2
  +1000000.00000000000000000 surp_2
  +1000000.00000000000000000 short_3
  +1000000.00000000000000000 surp_3

s.t.

a1_local_1: 
+0.00000715541849522 a1_x4
+0.00000585455723128 a1_x2
+0.00000385504317922 a1_x6
<= 0.000740

a1_local_2: 
+0.00049729052074675 a1_x3
+0.00022240921365143 a1_x4
+0.00044816302380063 a1_x5
<= 0.049059

a1_local_3: 
+0.01930407415022711 a1_x1
+0.03393878812842129 a1_x3
+0.02538387651412204 a1_x6
<= 4.094142

a1_local_4: 
+0.00000533229232645 a1_x2
+0.00000463277685465 a1_x1
+0.00000917238241396 a1_x5
<= 0.000915

a1_local_5: 
+0.03934822275148451 a1_x2
+0.06406659610473030 a1_x3
+0.06568914270169827 a1_x5
<= 7.201748

a1_local_6: 
+0.00000505507385683 a1_x6
+0.00000355589883064 a1_x1
+0.00000449022143722 a1_x3
<= 0.000684

a1_local_7: 
+0.04581601560256127 a1_x4
+0.03709201244356942 a1_x2
+0.03417367547395400 a1_x5
<= 6.165279

a1_local_8: 
+0.00000265907426549 a1_x6
+0.00000259557463139 a1_x2
+0.00000212124847991 a1_x4
<= 0.000461

a1_act_1: 
+0.00443037256837444 a1_x1
-0.44303725683744438 a1_z1
<= 0.000000

a1_act_2: 
+0.26968627298348519 a1_x2
-26.96862729834851891 a1_z2
<= 0.000000

a2_local_1: 
+49.39321101065340969 a2_x2
+67.88266916191128075 a2_x6
+71.14431946359479753 a2_x5
<= 6247.411129

a2_local_2: 
+0.34395444023143756 a2_x1
+0.40356223555149418 a2_x4
+0.50836301212764079 a2_x5
<= 87.208246

a2_local_3: 
+5.07228101053253422 a2_x2
+3.52243568797586271 a2_x5
+2.18299761055002151 a2_x1
<= 680.295537

a2_local_4: 
+0.56446442010231734 a2_x6
+1.08335090885215690 a2_x4
+0.60046721498173028 a2_x5
<= 83.842629

a2_local_5: 
+0.00028497825797206 a2_x5
+0.00052805127753786 a2_x3
+0.00037079179511600 a2_x6
<= 0.061181

a2_local_6: 
+5.59587506039083493 a2_x6
+3.91263362580237040 a2_x4
+5.11141082711179262 a2_x1
<= 769.480276

a2_local_7: 
+9.61327128137558873 a2_x3
+8.77992852798012358 a2_x6
+10.93220347033103401 a2_x1
<= 1370.708035

a2_local_8: 
+0.33990370110577212 a2_x5
+0.34065341549344075 a2_x3
+0.36766242339390326 a2_x6
<= 72.910414

a2_act_1: 
+0.60307165466123980 a2_x1
-60.30716546612397622 a2_z1
<= 0.000000

a2_act_2: 
+0.00289253188097310 a2_x2
-0.28925318809731049 a2_z2
<= 0.000000

a3_local_1: 
+109.79177596745410028 a3_x5
+74.22684204033598121 a3_x2
+88.84370311399167974 a3_x3
<= 10566.163910

a3_local_2: 
+35.93083792968239010 a3_x2
+23.61485065898372326 a3_x3
+32.25970263233376301 a3_x4
<= 4654.026330

a3_local_3: 
+1.05092212376276106 a3_x6
+2.13610372087227551 a3_x4
+1.83366196988742147 a3_x1
<= 344.503007

a3_local_4: 
+0.07186318999766310 a3_x4
+0.08086951184486943 a3_x2
+0.03255265540241201 a3_x1
<= 9.122018

a3_local_5: 
+10.42319496547793101 a3_x3
+20.38627995050741859 a3_x5
+23.79118392759501788 a3_x2
<= 2700.760998

a3_local_6: 
+1.10134391833371903 a3_x1
+0.99775808879054306 a3_x6
+0.89734935065531762 a3_x2
<= 135.984044

a3_local_7: 
+932.70949541891241097 a3_x1
+1244.34284072913897035 a3_x4
+701.91036795399224957 a3_x6
<= 98265.526946

a3_local_8: 
+71.99924739581001631 a3_x4
+34.31139832042457982 a3_x3
+55.21553475817965051 a3_x5
<= 10267.417773

a3_act_1: 
+0.02262243700343038 a3_x1
-2.26224370034303757 a3_z1
<= 0.000000

a3_act_2: 
+1.88264544411057333 a3_x2
-188.26454441105732940 a3_z2
<= 0.000000

a4_local_1: 
+5328.50525114047923125 a4_x3
+4061.69999305711007764 a4_x5
+4651.28783813885002019 a4_x2
<= 897166.290284

a4_local_2: 
+436.99053938718304835 a4_x3
+205.12790605468129002 a4_x2
+305.66905281832555374 a4_x6
<= 32563.658745

a4_local_3: 
+4.77940768050957931 a4_x5
+7.40827780831184679 a4_x6
+8.81528421751150049 a4_x3
<= 1230.056376

a4_local_4: 
+2555.50108163439426789 a4_x3
+2413.89600522312957764 a4_x6
+2765.66787770895598442 a4_x1
<= 525774.981482

a4_local_5: 
+10.85897813505418696 a4_x3
+11.18876010744976490 a4_x6
+4.12170439734443939 a4_x5
<= 1352.384550

a4_local_6: 
+1166.01922554309157931 a4_x3
+1212.40211604809246637 a4_x4
+1640.94704418064293350 a4_x6
<= 235610.195623

a4_local_7: 
+23.86464195235634023 a4_x6
+21.34874772998253789 a4_x3
+31.52666820857073304 a4_x1
<= 5192.276085

a4_local_8: 
+4.51078582371459547 a4_x1
+10.25292875855019226 a4_x6
+7.82195852068339192 a4_x3
<= 1196.023635

a4_act_1: 
+0.01996051782142931 a4_x1
-1.99605178214293066 a4_z1
<= 0.000000

a4_act_2: 
+0.04817236456580058 a4_x2
-4.81723645658005850 a4_z2
<= 0.000000

coupling_1: 
+0.73292338207187502 a1_x1
+48.63676680652133655 a2_x1
+4682.02390362969254056 a3_x1
+976604.75159990135580301 a4_x1
+817.08059306382097020 short_1
-817.08059306382097020 surp_1
= 49520990.557022

coupling_2: 
+0.00065055828534624 a1_x2
+0.03087762696737830 a2_x2
+3.19507222234544574 a3_x2
+746.42547167129600894 a4_x2
+0.53827215397569872 short_2
-0.53827215397569872 surp_2
= 17839.704044

coupling_3: 
+0.00962090789383420 a1_x3
+1.61129282205868307 a2_x3
+79.11535051061574109 a3_x3
+15475.26757426181575283 a4_x3
+12.50485650361812873 short_3
-12.50485650361812873 surp_3
= 935391.314237

bounds
  0.000000 <= a1_x1 <= 100.000000
  0.000000 <= a1_x2 <= 100.000000
  0.000000 <= a1_x3 <= 100.000000
  0.000000 <= a1_x4 <= 100.000000
  0.000000 <= a1_x5 <= 100.000000
  0.000000 <= a1_x6 <= 100.000000
  0.000000 <= a2_x1 <= 100.000000
  0.000000 <= a2_x2 <= 100.000000
  0.000000 <= a2_x3 <= 100.000000
  0.000000 <= a2_x4 <= 100.000000
  0.000000 <= a2_x5 <= 100.000000
  0.000000 <= a2_x6 <= 100.000000
  0.000000 <= a3_x1 <= 100.000000
  0.000000 <= a3_x2 <= 100.000000
  0.000000 <= a3_x3 <= 100.000000
  0.000000 <= a3_x4 <= 100.000000
  0.000000 <= a3_x5 <= 100.000000
  0.000000 <= a3_x6 <= 100.000000
  0.000000 <= a4_x1 <= 100.000000
  0.000000 <= a4_x2 <= 100.000000
  0.000000 <= a4_x3 <= 100.000000
  0.000000 <= a4_x4 <= 100.000000
  0.000000 <= a4_x5 <= 100.000000
  0.000000 <= a4_x6 <= 100.000000
  0.000000 <= short_1 <= +inf
  0.000000 <= surp_1 <= +inf
  0.000000 <= short_2 <= +inf
  0.000000 <= surp_2 <= +inf
  0.000000 <= short_3 <= +inf
  0.000000 <= surp_3 <= +inf
 0 <= a1_z1 <= 1
 0 <= a1_z2 <= 1
 0 <= a2_z1 <= 1
 0 <= a2_z2 <= 1
 0 <= a3_z1 <= 1
 0 <= a3_z2 <= 1
 0 <= a4_z1 <= 1
 0 <= a4_z2 <= 1

binary
  a1_z1
  a1_z2
  a2_z1
  a2_z2
  a3_z1
  a3_z2
  a4_z1
  a4_z2
end
