min
obj: 
  +3.05711040055168581 a1_x1
  +8.05560131874530505 a1_x2
  +1.97423451738110156 a1_x3
  +4.43855917145081946 a1_x4
  +2.09177435273224699 a1_x5
  +8.36067334918018190 a1_x6
  +15.66642560195388789 a1_z1
  +12.32473257168471292 a1_z2
  +3.90447270498543908 a2_x1
  +3.19064241710492480 a2_x2
  +7.25662050376060552 a2_x3
  +4.24034203150857802 a2_x4
  +1.72165381936256479 a2_x5
  +9.86521199550605488 a2_x6
  +47.43293385770623871 a2_z1
  +10.01849972745584338 a2_z2
  +7.66342890098139051 a3_x1
  +6.60319515439368221 a3_x2
  +5.66277254283255616 a3_x3
  +4.15025934339557701 a3_x4
  +2.04336446202724131 a3_x5
  +3.95648142420414572 a3_x6
  +26.64691344464440093 a3_z1
  +25.19269856348255487 a3_z2
  +2.43191733608034033 a4_x1
  +1.25980278183489802 a4_x2
  +6.71866199762658312 a4_x3
  +9.23282830324045278 a4_x4
  +5.85378359150520033 a4_x5
  +9.83498899970064500 a4_x6
  +10.08347259986509314 a4_z1
  +40.29173016694412013 a4_z2
  +1000000.00000000000000000 short_1
  +1000000.00000000000000000 surp_1
  +1000000.00000000000000000 short_2
  +1000000.00000000000000000 surp_2
  +1000000.00000000000000000 short_3
  +1000000.00000000000000000 surp_3

s.t.

a1_local_1: 
+0.00042275913865406 a1_x5
+0.00069584490332133 a1_x1
+0.00029291419282680 a1_x6
<= 0.055221

a1_local_2: 
+0.00063266566323345 a1_x6
+0.00126206165245362 a1_x4
+0.00110058986103312 a1_x2
<= 0.128194

a1_local_3: 
+0.15766412767227525 a1_x4
+0.07011453612386730 a1_x5
+0.12216514535871753 a1_x1
<= 23.132262

a1_local_4: 
+0.37979983081268986 a1_x3
+0.13503761431485364 a1_x1
+0.16731445688047494 a1_x4
<= 30.076390

a1_local_5: 
+0.02098503274023676 a1_x4
+0.02482344233462509 a1_x5
+0.02804357479688694 a1_x1
<= 2.281132

a1_local_6: 
+0.00181967008148514 a1_x2
+0.00236720972561382 a1_x5
+0.00304251318150358 a1_x6
<= 0.274203

a1_local_7: 
+0.00000316375036339 a1_x1
+0.00000353709755180 a1_x3
+0.00000285248216306 a1_x5
<= 0.000560

a1_local_8: 
+0.02376682202513367 a1_x3
+0.02086516754457552 a1_x4
+0.01531198497087682 a1_x1
<= 2.127958

a1_act_1: 
+0.00727149134468315 a1_x1
-0.72714913446831475 a1_z1
<= 0.000000

a1_act_2: 
+3.35918456317260938 a1_x2
-335.91845631726096144 a1_z2
<= 0.000000

a2_local_1: 
+3.86386443267213364 a2_x2
+2.21562795975761961 a2_x6
+5.68459360385479773 a2_x4
<= 800.508738

a2_local_2: 
+0.00367766751847930 a2_x2
+0.00398805174030668 a2_x5
+0.00414524732709945 a2_x3
<= 0.716631

a2_local_3: 
+0.06763303089148870 a2_x3
+0.05360167877751873 a2_x5
+0.05626651850549676 a2_x2
<= 8.129487

a2_local_4: 
+0.00175130620463876 a2_x1
+0.00374193306990076 a2_x5
+0.00253599578253522 a2_x6
<= 0.515346

a2_local_5: 
+1.78849949053826518 a2_x2
+2.16426272692036115 a2_x6
+1.21928774976571463 a2_x1
<= 309.671392

a2_local_6: 
+0.00038127840826591 a2_x1
+0.00048859966020955 a2_x5
+0.00028522330898435 a2_x4
<= 0.075669

a2_local_7: 
+0.31548587832217934 a2_x6
+0.21376626632492146 a2_x3
+0.35306176986093840 a2_x4
<= 28.022226

a2_local_8: 
+0.02569483812900065 a2_x3
+0.02887819313153503 a2_x1
+0.01725178406455771 a2_x4
<= 3.830721

a2_act_1: 
+16.62545177961943921 a2_x1
-1662.54517796194386392 a2_z1
<= 0.000000

a2_act_2: 
+0.23479626078916677 a2_x2
-23.47962607891667730 a2_z2
<= 0.000000

a3_local_1: 
+21.66293819588400993 a3_x5
+19.96830259154043929 a3_x6
+11.45938716419268211 a3_x2
<= 2457.007074

a3_local_2: 
+632.01405970430869274 a3_x3
+477.38409301137340890 a3_x1
+821.95871050109883527 a3_x5
<= 124627.195501

a3_local_3: 
+7.38019653773044926 a3_x6
+13.80685996621390110 a3_x2
+15.60044366385016268 a3_x3
<= 1796.331684

a3_local_4: 
+266.11586959701929800 a3_x5
+363.74955727167468922 a3_x6
+328.95116602717075693 a3_x3
<= 39732.952473

a3_local_5: 
+0.05083362142264770 a3_x5
+0.03605705339339869 a3_x6
+0.02924507045860603 a3_x4
<= 4.392416

a3_local_6: 
+0.37660339751817606 a3_x3
+0.30640292994962981 a3_x6
+0.40359271948011777 a3_x2
<= 34.929293

a3_local_7: 
+2693.89243004069930976 a3_x4
+2684.15713512757338322 a3_x6
+2854.73884441850623261 a3_x3
<= 286662.152171

a3_local_8: 
+16.39764407102740407 a3_x6
+9.91660956672894045 a3_x3
+7.71865848478370697 a3_x5
<= 1779.675000

a3_act_1: 
+0.00362329230163447 a3_x1
-0.36232923016344681 a3_z1
<= 0.000000

a3_act_2: 
+3.00426796121032647 a3_x2
-300.42679612103262343 a3_z2
<= 0.000000

a4_local_1: 
+25775.51135823774529854 a4_x4
+51318.20039299887866946 a4_x1
+20166.76057634104654426 a4_x6
<= 6252887.880210

a4_local_2: 
+10926.71114906802722544 a4_x2
+12035.32280222847475670 a4_x6
+5149.71225833444532327 a4_x1
<= 1494169.254427

a4_local_3: 
+257123.83182937631499954 a4_x4
+373629.49473153240978718 a4_x3
+280380.80451638816157356 a4_x5
<= 37493677.814678

a4_local_4: 
+798.52214916785339938 a4_x1
+1520.49517887762294777 a4_x6
+922.29710872604653105 a4_x4
<= 223527.573130

a4_local_5: 
+285769.19569490669528022 a4_x3
+279982.27778635878348723 a4_x6
+302185.06523981707869098 a4_x4
<= 53733075.286636

a4_local_6: 
+68.70200608538421250 a4_x3
+40.94092266190576623 a4_x1
+51.91947403079950618 a4_x5
<= 6941.374913

a4_local_7: 
+9365.27106389786968066 a4_x5
+15824.06705558835164993 a4_x4
+9030.18922093751825741 a4_x3
<= 1969567.864009

a4_local_8: 
+3.63634333920064590 a4_x1
+4.74406998381689782 a4_x4
+3.73136072116952588 a4_x6
<= 479.575585

a4_act_1: 
+1.15367258113184401 a4_x1
-115.36725811318440549 a4_z1
<= 0.000000

a4_act_2: 
+0.02732099206595226 a4_x2
-2.73209920659522654 a4_z2
<= 0.000000

coupling_1: 
+0.00002349240785223 a1_x1
+0.00130274554045096 a2_x1
+0.16374026146181089 a3_x1
+16.83119711212448166 a4_x1
+0.01781294532608765 short_1
-0.01781294532608765 surp_1
= 537.173165

coupling_2: 
+0.00012216111760925 a1_x2
+0.01027370508323658 a2_x2
+0.88124985162831937 a3_x2
+100.66690459173908323 a4_x2
+0.09158252906338167 short_2
-0.09158252906338167 surp_2
= 4455.958991

coupling_3: 
+0.00000061998835470 a1_x3
+0.00009471190591287 a2_x3
+0.00991104027774810 a3_x3
+1.66730431358695852 a4_x3
+0.00112604435904430 short_3
-0.00112604435904430 surp_3
= 115.307181

bounds
  0.000000 <= a1_x1 <= 100.000000
  0.000000 <= a1_x2 <= 100.000000
  0.000000 <= a1_x3 <= 100.000000
  0.000000 <= a1_x4 <= 100.000000
  0.000000 <= a1_x5 <= 100.000000
  0.000000 <= a1_x6 <= 100.000000
  0.000000 <= a2_x1 <= 100.000000
  0.000000 <= a2_x2 <= 100.000000
  0.000000 <= a2_x3 <= 100.000000
  0.000000 <= a2_x4 <= 100.000000
  0.000000 <= a2_x5 <= 100.000000
  0.000000 <= a2_x6 <= 100.000000
  0.000000 <= a3_x1 <= 100.000000
  0.000000 <= a3_x2 <= 100.000000
  0.000000 <= a3_x3 <= 100.000000
  0.000000 <= a3_x4 <= 100.000000
  0.000000 <= a3_x5 <= 100.000000
  0.000000 <= a3_x6 <= 100.000000
  0.000000 <= a4_x1 <= 100.000000
  0.000000 <= a4_x2 <= 100.000000
  0.000000 <= a4_x3 <= 100.000000
  0.000000 <= a4_x4 <= 100.000000
  0.000000 <= a4_x5 <= 100.000000
  0.000000 <= a4_x6 <= 100.000000
  0.000000 <= short_1 <= +inf
  0.000000 <= surp_1 <= +inf
  0.000000 <= short_2 <= +inf
  0.000000 <= surp_2 <= +inf
  0.000000 <= short_3 <= +inf
  0.000000 <= surp_3 <= +inf
 0 <= a1_z1 <= 1
 0 <= a1_z2 <= 1
 0 <= a2_z1 <= 1
 0 <= a2_z2 <= 1
 0 <= a3_z1 <= 1
 0 <= a3_z2 <= 1
 0 <= a4_z1 <= 1
 0 <= a4_z2 <= 1

binary
  a1_z1
  a1_z2
  a2_z1
  a2_z2
  a3_z1
  a3_z2
  a4_z1
  a4_z2
end
