min
obj: 
  +3.04305245350352704 a1_x1
  +8.52421046785006808 a1_x2
  +7.69307565210918742 a1_x3
  +6.91899621560824230 a1_x4
  +9.20970734213053355 a1_x5
  +1.67836132765545631 a1_x6
  +29.95730103851083470 a1_z1
  +31.08072985890714435 a1_z2
  +3.99822752437524187 a2_x1
  +4.07165663414877166 a2_x2
  +8.34795406785622518 a2_x3
  +4.87171054907478673 a2_x4
  +6.00614521080850050 a2_x5
  +2.78826542023549706 a2_x6
  +21.64829021237791906 a2_z1
  +42.54057128991149028 a2_z2
  +2.99288059555848207 a3_x1
  +5.53541108642779456 a3_x2
  +5.21389691922773402 a3_x3
  +2.06500474656608013 a3_x4
  +6.41053556614162368 a3_x5
  +2.65986220405491736 a3_x6
  +31.21797170368752461 a3_z1
  +44.91309333626589506 a3_z2
  +1.34783919856301182 a4_x1
  +6.31764736904795043 a4_x2
  +9.98943596309341864 a4_x3
  +5.70541292643470310 a4_x4
  +4.44152957180650887 a4_x5
  +5.06133401945766614 a4_x6
  +15.23838321132246598 a4_z1
  +39.66649904034947838 a4_z2
  +1000000.00000000000000000 short_1
  +1000000.00000000000000000 surp_1
  +1000000.00000000000000000 short_2
  +1000000.00000000000000000 surp_2
  +1000000.00000000000000000 short_3
  +1000000.00000000000000000 surp_3

s.t.

a1_local_1: 
+0.32057420966845829 a1_x4
+0.39881655547319067 a1_x3
+0.85917258520971362 a1_x1
<= 98.060632

a1_local_2: 
+0.71851210683700539 a1_x5
+0.43740103016539977 a1_x2
+0.54075936528080093 a1_x1
<= 66.230323

a1_local_3: 
+0.44583703621762527 a1_x1
+0.63122774479384325 a1_x5
+0.63465019604437423 a1_x4
<= 98.355344

a1_local_4: 
+0.67238242082710009 a1_x4
+0.50484375993973962 a1_x1
+0.54132675734032876 a1_x2
<= 72.263039

a1_local_5: 
+0.67965905899050794 a1_x4
+1.38920558730595478 a1_x6
+0.56317673343729513 a1_x3
<= 180.440866

a1_local_6: 
+0.45432171448337549 a1_x5
+0.77608570160407864 a1_x1
+0.43735884981853451 a1_x6
<= 90.231901

a1_local_7: 
+0.62138382017165450 a1_x1
+0.65116963280946361 a1_x2
+0.43572956903986848 a1_x4
<= 97.324578

a1_local_8: 
+0.66009330918955356 a1_x3
+0.70102273254504954 a1_x6
+0.26989618674271099 a1_x5
<= 83.622159

a1_act_1: 
+0.00999950003749688 a1_x1
-0.99995000374968757 a1_z1
<= 0.000000

a1_act_2: 
+0.00999950003749687 a1_x2
-0.99995000374968734 a1_z2
<= 0.000000

a2_local_1: 
+0.46725481970829108 a2_x5
+0.56948691451308953 a2_x3
+0.67628218049696809 a2_x6
<= 112.474812

a2_local_2: 
+0.46830058037843825 a2_x4
+0.73025412611403584 a2_x3
+0.49741680481327116 a2_x6
<= 82.947938

a2_local_3: 
+0.61266458497935938 a2_x3
+0.45877397385008217 a2_x1
+0.64355928027639631 a2_x2
<= 113.649161

a2_local_4: 
+0.68560532977285060 a2_x4
+0.53137936056987278 a2_x5
+0.49757542839996999 a2_x1
<= 53.689309

a2_local_5: 
+0.61830245895774449 a2_x1
+0.69392124773728781 a2_x6
+0.36901947263732870 a2_x2
<= 101.613139

a2_local_6: 
+0.59093418824796340 a2_x1
+0.46771691553338901 a2_x5
+0.65729572650645862 a2_x3
<= 93.811356

a2_local_7: 
+0.42953475260766749 a2_x3
+0.80579608405734904 a2_x6
+0.40766722608042888 a2_x1
<= 75.769274

a2_local_8: 
+0.36140821265773371 a2_x4
+0.63378927037520971 a2_x1
+0.68388249325509243 a2_x6
<= 60.356386

a2_act_1: 
+0.00999950003749688 a2_x1
-0.99995000374968757 a2_z1
<= 0.000000

a2_act_2: 
+0.00999950003749688 a2_x2
-0.99995000374968757 a2_z2
<= 0.000000

a3_local_1: 
+0.77587593470491301 a3_x4
+0.30046593902603058 a3_x2
+0.55474025762602019 a3_x5
<= 87.255291

a3_local_2: 
+0.60028845242800910 a3_x1
+0.55355542155519710 a3_x6
+0.57726091947093916 a3_x3
<= 55.527369

a3_local_3: 
+0.65803520434094120 a3_x2
+0.56043963372902372 a3_x6
+0.50288874196352162 a3_x5
<= 120.302352

a3_local_4: 
+0.45456016235262342 a3_x1
+0.64967499502156922 a3_x5
+0.60934182496007994 a3_x4
<= 54.578124

a3_local_5: 
+0.69562191725744782 a3_x4
+0.39214676980554591 a3_x2
+0.60193941486012414 a3_x6
<= 68.461224

a3_local_6: 
+0.52530328897034662 a3_x5
+0.45420843915298614 a3_x2
+0.71954926752734905 a3_x1
<= 84.743753

a3_local_7: 
+0.68508900262603045 a3_x2
+0.64609933940739339 a3_x4
+0.33646500872780316 a3_x5
<= 107.049165

a3_local_8: 
+0.44402910180242122 a3_x3
+0.48224385791657942 a3_x5
+0.75516820527235451 a3_x6
<= 83.183825

a3_act_1: 
+0.01787370605515850 a3_x1
-1.78737060551585025 a3_z1
<= 0.000000

a3_act_2: 
+0.00999950003749688 a3_x2
-0.99995000374968768 a3_z2
<= 0.000000

a4_local_1: 
+0.44906980633884042 a4_x6
+0.70565496272732198 a4_x2
+0.54807607374624390 a4_x1
<= 52.557537

a4_local_2: 
+0.55870470512122916 a4_x1
+0.66882405949111445 a4_x6
+0.49043188102041940 a4_x5
<= 56.772112

a4_local_3: 
+0.61234879185445101 a4_x6
+0.49429505297309523 a4_x3
+0.61701001427911961 a4_x2
<= 74.022542

a4_local_4: 
+0.45184677256682371 a4_x4
+0.65485140171962775 a4_x6
+0.60580866268714229 a4_x2
<= 66.464620

a4_local_5: 
+0.79505838499632708 a4_x5
+0.34511803577662203 a4_x6
+0.49877420325104904 a4_x1
<= 59.919733

a4_local_6: 
+0.67476592541544200 a4_x5
+0.58004673672683371 a4_x1
+0.45632962769339608 a4_x2
<= 111.469865

a4_local_7: 
+0.71020750681948663 a4_x4
+0.59154241136036001 a4_x2
+0.38168425801861361 a4_x5
<= 80.641054

a4_local_8: 
+0.71280416022467408 a4_x3
+0.36265918395011693 a4_x1
+0.60032370056747941 a4_x2
<= 107.133208

a4_act_1: 
+0.00999950003749688 a4_x1
-0.99995000374968745 a4_z1
<= 0.000000

a4_act_2: 
+0.00999950003749687 a4_x2
-0.99995000374968734 a4_z2
<= 0.000000

coupling_1: 
+0.00000132356847260 a1_x1
+0.00018260638167603 a2_x1
+0.01116437559853596 a3_x1
+0.99993583815433462 a4_x1
+0.00134961943537982 short_1
-0.00134961943537982 surp_1
= 57.806440

coupling_2: 
+0.00000079882255026 a1_x2
+0.00009783521648526 a2_x2
+0.00465258023106115 a3_x2
+0.99998861481159163 a4_x2
+0.00074638194654977 short_2
-0.00074638194654977 surp_2
= 71.810579

coupling_3: 
+0.00000103724541530 a1_x3
+0.00005845754249814 a2_x3
+0.01103404657529638 a3_x3
+0.99993839229816694 a4_x3
+0.00085381671657085 short_3
-0.00085381671657085 surp_3
= 24.849721

bounds
  0.000000 <= a1_x1 <= 100.000000
  0.000000 <= a1_x2 <= 100.000000
  0.000000 <= a1_x3 <= 100.000000
  0.000000 <= a1_x4 <= 100.000000
  0.000000 <= a1_x5 <= 100.000000
  0.000000 <= a1_x6 <= 100.000000
  0.000000 <= a2_x1 <= 100.000000
  0.000000 <= a2_x2 <= 100.000000
  0.000000 <= a2_x3 <= 100.000000
  0.000000 <= a2_x4 <= 100.000000
  0.000000 <= a2_x5 <= 100.000000
  0.000000 <= a2_x6 <= 100.000000
  0.000000 <= a3_x1 <= 100.000000
  0.000000 <= a3_x2 <= 100.000000
  0.000000 <= a3_x3 <= 100.000000
  0.000000 <= a3_x4 <= 100.000000
  0.000000 <= a3_x5 <= 100.000000
  0.000000 <= a3_x6 <= 100.000000
  0.000000 <= a4_x1 <= 100.000000
  0.000000 <= a4_x2 <= 100.000000
  0.000000 <= a4_x3 <= 100.000000
  0.000000 <= a4_x4 <= 100.000000
  0.000000 <= a4_x5 <= 100.000000
  0.000000 <= a4_x6 <= 100.000000
  0.000000 <= short_1 <= +inf
  0.000000 <= surp_1 <= +inf
  0.000000 <= short_2 <= +inf
  0.000000 <= surp_2 <= +inf
  0.000000 <= short_3 <= +inf
  0.000000 <= surp_3 <= +inf
 0 <= a1_z1 <= 1
 0 <= a1_z2 <= 1
 0 <= a2_z1 <= 1
 0 <= a2_z2 <= 1
 0 <= a3_z1 <= 1
 0 <= a3_z2 <= 1
 0 <= a4_z1 <= 1
 0 <= a4_z2 <= 1

binary
  a1_z1
  a1_z2
  a2_z1
  a2_z2
  a3_z1
  a3_z2
  a4_z1
  a4_z2
end
