min
obj: 
  +7.78207569299738466 a1_x1
  +2.62040292120299334 a1_x2
  +1.02293933329670939 a1_x3
  +7.19109322240713489 a1_x4
  +4.26327457704359070 a1_x5
  +6.02462654690972954 a1_x6
  +42.77102711119731282 a1_z1
  +28.11411837117618262 a1_z2
  +5.79112125901829966 a2_x1
  +5.43489317194582089 a2_x2
  +9.42596272358853859 a2_x3
  +8.92130525199075564 a2_x4
  +6.14845489869399664 a2_x5
  +2.14640938868183095 a2_x6
  +31.66094613130910673 a2_z1
  +6.98996133690631005 a2_z2
  +2.81862526144540748 a3_x1
  +1.36412059178846468 a3_x2
  +2.33366974601915000 a3_x3
  +2.45567759910651384 a3_x4
  +5.22782650613177147 a3_x5
  +6.66961894421152923 a3_x6
  +49.85791959361311854 a3_z1
  +30.64094479818616890 a3_z2
  +7.09948941464576322 a4_x1
  +9.56749156260526412 a4_x2
  +9.23547813869581802 a4_x3
  +8.94781396766327930 a4_x4
  +7.43389970639344355 a4_x5
  +1.79601697429660612 a4_x6
  +7.43041409826294341 a4_z1
  +14.53020430166953325 a4_z2
  +1000000.00000000000000000 short_1
  +1000000.00000000000000000 surp_1
  +1000000.00000000000000000 short_2
  +1000000.00000000000000000 surp_2
  +1000000.00000000000000000 short_3
  +1000000.00000000000000000 surp_3

s.t.

a1_local_1: 
+0.50830128584377543 a1_x4
+0.78099407126304776 a1_x6
+0.36287472144189675 a1_x3
<= 82.586536

a1_local_2: 
+0.62841303478021893 a1_x6
+0.44056055071972738 a1_x5
+0.64109551462153114 a1_x4
<= 90.610197

a1_local_3: 
+0.46069916733291405 a1_x4
+0.60784594660963664 a1_x2
+0.64674537679754185 a1_x3
<= 99.499579

a1_local_4: 
+0.62746166085074528 a1_x4
+0.41777488442219124 a1_x5
+0.65708143339197245 a1_x2
<= 86.745949

a1_local_5: 
+0.34648194375364338 a1_x2
+0.84311871084991374 a1_x5
+0.41121904390175895 a1_x4
<= 88.557774

a1_local_6: 
+0.61130116884469299 a1_x2
+0.70495374262121402 a1_x3
+0.35965414182719407 a1_x1
<= 90.840718

a1_local_7: 
+0.25011437902441774 a1_x5
+0.52242597235925592 a1_x2
+0.25138391647970942 a1_x6
<= 56.184378

a1_local_8: 
+0.41281788352611265 a1_x5
+0.73648948985633611 a1_x1
+0.53587743596103632 a1_x6
<= 103.545886

a1_act_1: 
+0.00999950003749688 a1_x1
-0.99995000374968757 a1_z1
<= 0.000000

a1_act_2: 
+0.00999950003749688 a1_x2
-0.99995000374968757 a1_z2
<= 0.000000

a2_local_1: 
+0.42900853832239955 a2_x6
+0.64038776448239676 a2_x4
+0.63706764566073859 a2_x3
<= 107.383424

a2_local_2: 
+0.20323437046853174 a2_x5
+0.28179765047882027 a2_x4
+0.42336164771451390 a2_x6
<= 41.214269

a2_local_3: 
+0.55614099615882651 a2_x4
+0.37619132602491417 a2_x5
+0.74107170949583878 a2_x3
<= 51.839586

a2_local_4: 
+0.31558900133435130 a2_x5
+0.31164610952493615 a2_x6
+0.89625904997091010 a2_x4
<= 56.919407

a2_local_5: 
+0.68503845463905200 a2_x4
+0.42656229613003216 a2_x2
+0.85461168340546245 a2_x3
<= 93.643979

a2_local_6: 
+0.61889551998623804 a2_x5
+0.54707832658473365 a2_x4
+0.56362544293370187 a2_x3
<= 65.444237

a2_local_7: 
+0.46021803969222491 a2_x1
+0.73820656439537047 a2_x6
+0.49320424189723838 a2_x4
<= 118.122167

a2_local_8: 
+0.66625591748106316 a2_x4
+0.61881701294173630 a2_x3
+0.41613526276360430 a2_x5
<= 65.194753

a2_act_1: 
+0.00999950003749688 a2_x1
-0.99995000374968745 a2_z1
<= 0.000000

a2_act_2: 
+0.01800856727755041 a2_x2
-1.80085672775504069 a2_z2
<= 0.000000

a3_local_1: 
+0.45040944646498604 a3_x6
+0.68914092811905814 a3_x2
+0.56764082986190134 a3_x1
<= 114.013478

a3_local_2: 
+0.75301381339081763 a3_x1
+0.50662345785546781 a3_x6
+0.41988435168887628 a3_x2
<= 115.205788

a3_local_3: 
+0.35353124402877617 a3_x6
+0.84635515733245292 a3_x5
+0.39836993756083655 a3_x3
<= 84.746800

a3_local_4: 
+0.64330523934530270 a3_x2
+0.29601460997692880 a3_x6
+0.70606920320255395 a3_x4
<= 69.789030

a3_local_5: 
+0.52882068558906281 a3_x1
+0.70516366679839348 a3_x5
+0.47232709589918487 a3_x3
<= 84.585132

a3_local_6: 
+0.54551462774739479 a3_x5
+0.64574199000543042 a3_x2
+0.53425749714669224 a3_x3
<= 88.915034

a3_local_7: 
+0.56943071577997528 a3_x2
+0.46564334315836153 a3_x3
+0.67743998767315872 a3_x1
<= 91.457607

a3_local_8: 
+0.72949566772882757 a3_x6
+0.33912416760590086 a3_x1
+0.59399568155877769 a3_x2
<= 75.633450

a3_act_1: 
+0.00999950003749687 a3_x1
-0.99995000374968734 a3_z1
<= 0.000000

a3_act_2: 
+0.01973669689085708 a3_x2
-1.97366968908570772 a3_z2
<= 0.000000

a4_local_1: 
+0.35922126688313899 a4_x1
+0.82536095005775423 a4_x6
+0.43559084418595612 a4_x5
<= 102.340458

a4_local_2: 
+0.69088349963423645 a4_x2
+0.32840043962771276 a4_x5
+0.64407541575926897 a4_x4
<= 111.828778

a4_local_3: 
+0.74228054919970943 a4_x6
+0.57737814604835969 a4_x2
+0.34007949474429783 a4_x5
<= 96.656354

a4_local_4: 
+0.63636137378935309 a4_x6
+0.38653465108739332 a4_x3
+0.66755911008514757 a4_x4
<= 107.040159

a4_local_5: 
+0.44397761964560301 a4_x5
+0.45165252993905786 a4_x2
+0.77388233308008325 a4_x3
<= 66.892640

a4_local_6: 
+0.60027196439209518 a4_x1
+0.51190150666328871 a4_x5
+0.61451640843895294 a4_x4
<= 95.217710

a4_local_7: 
+0.37146299245302000 a4_x6
+0.71516470785044883 a4_x3
+0.59207658785247519 a4_x2
<= 100.933105

a4_local_8: 
+0.49128963235348300 a4_x3
+0.77850908644126027 a4_x6
+0.39058686546064747 a4_x4
<= 59.841937

a4_act_1: 
+0.00999950003749688 a4_x1
-0.99995000374968757 a4_z1
<= 0.000000

a4_act_2: 
+0.00999950003749688 a4_x2
-0.99995000374968757 a4_z2
<= 0.000000

coupling_1: 
+0.00000151542435396 a1_x1
+0.00018952688519249 a2_x1
+0.01525373892554834 a3_x1
+0.99988126924794252 a4_x1
+0.00153865739814198 short_1
-0.00153865739814198 surp_1
= 71.899028

coupling_2: 
+0.00000141534191430 a1_x2
+0.00012582006156409 a2_x2
+0.01323495828723022 a3_x2
+0.99991137969555499 a4_x2
+0.00101311444950039 short_2
-0.00101311444950039 surp_2
= 28.374141

coupling_3: 
+0.00000224242643851 a1_x3
+0.00015784840449232 a2_x3
+0.01012074779908967 a3_x3
+0.99994509336106330 a4_x3
+0.00191778595965351 short_3
-0.00191778595965351 surp_3
= 22.656717

bounds
  0.000000 <= a1_x1 <= 100.000000
  0.000000 <= a1_x2 <= 100.000000
  0.000000 <= a1_x3 <= 100.000000
  0.000000 <= a1_x4 <= 100.000000
  0.000000 <= a1_x5 <= 100.000000
  0.000000 <= a1_x6 <= 100.000000
  0.000000 <= a2_x1 <= 100.000000
  0.000000 <= a2_x2 <= 100.000000
  0.000000 <= a2_x3 <= 100.000000
  0.000000 <= a2_x4 <= 100.000000
  0.000000 <= a2_x5 <= 100.000000
  0.000000 <= a2_x6 <= 100.000000
  0.000000 <= a3_x1 <= 100.000000
  0.000000 <= a3_x2 <= 100.000000
  0.000000 <= a3_x3 <= 100.000000
  0.000000 <= a3_x4 <= 100.000000
  0.000000 <= a3_x5 <= 100.000000
  0.000000 <= a3_x6 <= 100.000000
  0.000000 <= a4_x1 <= 100.000000
  0.000000 <= a4_x2 <= 100.000000
  0.000000 <= a4_x3 <= 100.000000
  0.000000 <= a4_x4 <= 100.000000
  0.000000 <= a4_x5 <= 100.000000
  0.000000 <= a4_x6 <= 100.000000
  0.000000 <= short_1 <= +inf
  0.000000 <= surp_1 <= +inf
  0.000000 <= short_2 <= +inf
  0.000000 <= surp_2 <= +inf
  0.000000 <= short_3 <= +inf
  0.000000 <= surp_3 <= +inf
 0 <= a1_z1 <= 1
 0 <= a1_z2 <= 1
 0 <= a2_z1 <= 1
 0 <= a2_z2 <= 1
 0 <= a3_z1 <= 1
 0 <= a3_z2 <= 1
 0 <= a4_z1 <= 1
 0 <= a4_z2 <= 1

binary
  a1_z1
  a1_z2
  a2_z1
  a2_z2
  a3_z1
  a3_z2
  a4_z1
  a4_z2
end
