min
obj: 
  +4.00927114806491947 a1_x1
  +1.96797315584533505 a1_x2
  +5.12450639908132288 a1_x3
  +5.32896604620880687 a1_x4
  +7.73264361972508052 a1_x5
  +5.13954220661915251 a1_x6
  +7.46013036925632012 a1_z1
  +49.87266735161764331 a1_z2
  +9.36843435344059650 a2_x1
  +1.05737072364449292 a2_x2
  +6.60719118774421155 a2_x3
  +2.15746424177711438 a2_x4
  +4.02884955809363987 a2_x5
  +6.58160214482754569 a2_x6
  +37.18631761224219190 a2_z1
  +14.56992703067312611 a2_z2
  +7.57718464422320714 a3_x1
  +6.32546719961394732 a3_x2
  +1.31829467185166682 a3_x3
  +2.45084274434978422 a3_x4
  +7.58215052014305346 a3_x5
  +8.03960198396170256 a3_x6
  +34.57098216458418705 a3_z1
  +17.01923611963366056 a3_z2
  +9.65762920804675851 a4_x1
  +1.01038921150930694 a4_x2
  +8.26245311728527554 a4_x3
  +1.87174926104206407 a4_x4
  +5.72310336143512366 a4_x5
  +2.03823444273170651 a4_x6
  +33.41705432517787955 a4_z1
  +11.21145989114648600 a4_z2
  +1000000.00000000000000000 short_1
  +1000000.00000000000000000 surp_1
  +1000000.00000000000000000 short_2
  +1000000.00000000000000000 surp_2
  +1000000.00000000000000000 short_3
  +1000000.00000000000000000 surp_3

s.t.

a1_local_1: 
+0.81484865006639706 a1_x3
+0.34618784076617559 a1_x6
+0.55081002916895927 a1_x4
<= 64.708723

a1_local_2: 
+0.82850689794525345 a1_x4
+0.45899830670512554 a1_x6
+0.32077542689389565 a1_x2
<= 91.172631

a1_local_3: 
+0.46417792727740476 a1_x6
+0.78499407322668380 a1_x4
+0.41027205221344576 a1_x1
<= 105.350889

a1_local_4: 
+0.53665171784237475 a1_x2
+0.63353613472461745 a1_x5
+0.62227563456439949 a1_x3
<= 120.985010

a1_local_5: 
+0.78788977519871017 a1_x1
+0.35732272634753820 a1_x4
+0.50154777576307563 a1_x2
<= 112.712521

a1_local_6: 
+0.65598510136492894 a1_x1
+0.67245144267999746 a1_x3
+0.34277194171173625 a1_x6
<= 104.329587

a1_local_7: 
+0.70076781639280994 a1_x2
+1.13024603693555314 a1_x5
+0.89271659226711952 a1_x4
<= 151.518292

a1_local_8: 
+0.51093370724646558 a1_x4
+0.79654162038621512 a1_x5
+0.32321539844488512 a1_x6
<= 84.492688

a1_act_1: 
+0.00999950003749688 a1_x1
-0.99995000374968745 a1_z1
<= 0.000000

a1_act_2: 
+0.01995741996324700 a1_x2
-1.99574199632470006 a1_z2
<= 0.000000

a2_local_1: 
+0.38210255802832649 a2_x4
+0.72087130775669539 a2_x2
+0.57822330703748126 a2_x6
<= 97.014553

a2_local_2: 
+0.95011035691327472 a2_x1
+1.31099613379535418 a2_x4
+0.83763079917862970 a2_x5
<= 199.041323

a2_local_3: 
+0.52461682870637993 a2_x4
+0.38778363135704452 a2_x5
+0.75789249784491519 a2_x3
<= 106.708416

a2_local_4: 
+0.64829000143276161 a2_x2
+0.43879281768829254 a2_x1
+0.62223864970562448 a2_x5
<= 78.142519

a2_local_5: 
+0.60093396416614819 a2_x2
+0.37891042526939894 a2_x3
+0.70377926961066539 a2_x6
<= 94.924375

a2_local_6: 
+0.59465521118310694 a2_x6
+0.42678360136503857 a2_x5
+0.68135228583946394 a2_x2
<= 94.872890

a2_local_7: 
+0.49411300730548158 a2_x2
+0.33720292569426186 a2_x5
+0.35645761095818285 a2_x6
<= 79.195778

a2_local_8: 
+0.67651343220211591 a2_x2
+0.55603899934844991 a2_x4
+0.48285630083254316 a2_x5
<= 113.909435

a2_act_1: 
+0.00999950003749688 a2_x1
-0.99995000374968757 a2_z1
<= 0.000000

a2_act_2: 
+0.00999950003749687 a2_x2
-0.99995000374968734 a2_z2
<= 0.000000

a3_local_1: 
+0.49468250114607065 a3_x1
+0.41145761448933232 a3_x2
+0.76550104803234320 a3_x6
<= 75.497629

a3_local_2: 
+0.46662846550291309 a3_x2
+0.38557347806034403 a3_x1
+0.79598427635151570 a3_x6
<= 70.957978

a3_local_3: 
+0.49835127935034829 a3_x1
+0.38496605246954752 a3_x5
+0.77681860225916632 a3_x2
<= 85.990269

a3_local_4: 
+0.43162885350286867 a3_x4
+0.65674618696769393 a3_x6
+0.61836961336016005 a3_x5
<= 109.594837

a3_local_5: 
+0.30927732583720291 a3_x4
+0.45424024095148546 a3_x1
+0.30164031307114336 a3_x5
<= 34.663743

a3_local_6: 
+0.79391229039661282 a3_x5
+0.45027480819936783 a3_x6
+0.40860234000581419 a3_x1
<= 97.407677

a3_local_7: 
+0.46854196695973072 a3_x6
+0.57841122714162541 a3_x1
+0.66776408821830635 a3_x4
<= 107.566683

a3_local_8: 
+0.43026423891893589 a3_x3
+0.55207984558105172 a3_x1
+0.35316040245004049 a3_x6
<= 54.401036

a3_act_1: 
+0.00999950003749688 a3_x1
-0.99995000374968757 a3_z1
<= 0.000000

a3_act_2: 
+0.01134128736694763 a3_x2
-1.13412873669476344 a3_z2
<= 0.000000

a4_local_1: 
+0.51419106913609913 a4_x3
+0.49951346644504346 a4_x2
+0.69720430381684528 a4_x5
<= 101.950278

a4_local_2: 
+0.31264890934173256 a4_x2
+0.61642671719781394 a4_x5
+0.72268164623999653 a4_x3
<= 114.278486

a4_local_3: 
+0.83160858398989945 a4_x4
+0.38857517482686521 a4_x5
+0.39678268175738912 a4_x2
<= 54.811034

a4_local_4: 
+0.60294574131329626 a4_x5
+0.61426306685376231 a4_x3
+0.50905531893063438 a4_x1
<= 57.122532

a4_local_5: 
+0.50491806736059974 a4_x5
+0.77040214169723154 a4_x6
+0.38927918685842389 a4_x1
<= 89.357969

a4_local_6: 
+0.80582327724305713 a4_x3
+0.36422630603993728 a4_x2
+0.46689189738285364 a4_x1
<= 80.286419

a4_local_7: 
+0.42261030873506084 a4_x1
+0.37320564837512726 a4_x2
+0.82590439578183461 a4_x3
<= 99.069870

a4_local_8: 
+0.60604053711379935 a4_x3
+0.43312868347014027 a4_x1
+0.66716895231286089 a4_x4
<= 98.074138

a4_act_1: 
+0.00999950003749688 a4_x1
-0.99995000374968745 a4_z1
<= 0.000000

a4_act_2: 
+0.00999950003749687 a4_x2
-0.99995000374968734 a4_z2
<= 0.000000

coupling_1: 
+0.00000190312310105 a1_x1
+0.00024426752562400 a2_x1
+0.02470822384795258 a3_x1
+0.99969183177095211 a4_x1
+0.00168604484990057 short_1
-0.00168604484990057 surp_1
= 57.941761

coupling_2: 
+0.00000086047382566 a1_x2
+0.00007877220488125 a2_x2
+0.00644602596252842 a3_x2
+0.99997808738301552 a4_x2
+0.00106472937778460 short_2
-0.00106472937778460 surp_2
= 55.281482

coupling_3: 
+0.00000092883421003 a1_x3
+0.00006186299563869 a2_x3
+0.00885522024156334 a3_x3
+0.99995942969399121 a4_x3
+0.00116623596421849 short_3
-0.00116623596421849 surp_3
= 22.014835

bounds
  0.000000 <= a1_x1 <= 100.000000
  0.000000 <= a1_x2 <= 100.000000
  0.000000 <= a1_x3 <= 100.000000
  0.000000 <= a1_x4 <= 100.000000
  0.000000 <= a1_x5 <= 100.000000
  0.000000 <= a1_x6 <= 100.000000
  0.000000 <= a2_x1 <= 100.000000
  0.000000 <= a2_x2 <= 100.000000
  0.000000 <= a2_x3 <= 100.000000
  0.000000 <= a2_x4 <= 100.000000
  0.000000 <= a2_x5 <= 100.000000
  0.000000 <= a2_x6 <= 100.000000
  0.000000 <= a3_x1 <= 100.000000
  0.000000 <= a3_x2 <= 100.000000
  0.000000 <= a3_x3 <= 100.000000
  0.000000 <= a3_x4 <= 100.000000
  0.000000 <= a3_x5 <= 100.000000
  0.000000 <= a3_x6 <= 100.000000
  0.000000 <= a4_x1 <= 100.000000
  0.000000 <= a4_x2 <= 100.000000
  0.000000 <= a4_x3 <= 100.000000
  0.000000 <= a4_x4 <= 100.000000
  0.000000 <= a4_x5 <= 100.000000
  0.000000 <= a4_x6 <= 100.000000
  0.000000 <= short_1 <= +inf
  0.000000 <= surp_1 <= +inf
  0.000000 <= short_2 <= +inf
  0.000000 <= surp_2 <= +inf
  0.000000 <= short_3 <= +inf
  0.000000 <= surp_3 <= +inf
 0 <= a1_z1 <= 1
 0 <= a1_z2 <= 1
 0 <= a2_z1 <= 1
 0 <= a2_z2 <= 1
 0 <= a3_z1 <= 1
 0 <= a3_z2 <= 1
 0 <= a4_z1 <= 1
 0 <= a4_z2 <= 1

binary
  a1_z1
  a1_z2
  a2_z1
  a2_z2
  a3_z1
  a3_z2
  a4_z1
  a4_z2
end
