min
obj: 
  +9.92789069156587445 a1_x1
  +4.10293210566149646 a1_x2
  +3.32901181929639423 a1_x3
  +9.10176472428019245 a1_x4
  +1.02767819950250816 a1_x5
  +7.50152284301075145 a1_x6
  +48.47610588570461232 a1_z1
  +46.46239370281180214 a1_z2
  +3.18500776910177885 a2_x1
  +1.07942930179392071 a2_x2
  +3.49956447593909603 a2_x3
  +4.21239525423910788 a2_x4
  +5.82517656009187501 a2_x5
  +3.89342540667494053 a2_x6
  +48.49908581708631061 a2_z1
  +41.13663869847970034 a2_z2
  +2.67192419795283609 a3_x1
  +3.86821883222705321 a3_x2
  +5.91403436703844054 a3_x3
  +8.81180590098727734 a3_x4
  +5.97909561349352625 a3_x5
  +2.68685564033826729 a3_x6
  +5.18637677701330446 a3_z1
  +6.88066661844991856 a3_z2
  +1.28562252519206366 a4_x1
  +5.29948947704055140 a4_x2
  +9.02951063485292771 a4_x3
  +3.08226664425655672 a4_x4
  +2.19298535751718138 a4_x5
  +7.06762935071550480 a4_x6
  +41.57694264723444633 a4_z1
  +44.44096075316435446 a4_z2
  +1000000.00000000000000000 short_1
  +1000000.00000000000000000 surp_1
  +1000000.00000000000000000 short_2
  +1000000.00000000000000000 surp_2
  +1000000.00000000000000000 short_3
  +1000000.00000000000000000 surp_3

s.t.

a1_local_1: 
+0.00021185123557558 a1_x4
+0.00020603241419736 a1_x6
+0.00014350435855183 a1_x1
<= 0.022383

a1_local_2: 
+0.47749044367553245 a1_x6
+0.57407049842735403 a1_x5
+0.76261841892306748 a1_x4
<= 80.910694

a1_local_3: 
+0.00708883838950699 a1_x3
+0.00573372717296346 a1_x1
+0.00467427549962483 a1_x6
<= 1.039136

a1_local_4: 
+0.00040640340670916 a1_x5
+0.00042901069152599 a1_x2
+0.00023032712649572 a1_x4
<= 0.044924

a1_local_5: 
+0.68989612026160030 a1_x4
+1.35700926376640485 a1_x2
+0.83665774675490345 a1_x5
<= 171.978312

a1_local_6: 
+0.40417115018398819 a1_x3
+0.38134916990410539 a1_x4
+0.19876395896508675 a1_x1
<= 37.902126

a1_local_7: 
+0.00028162620719915 a1_x1
+0.00021010066249151 a1_x2
+0.00024188144152213 a1_x5
<= 0.038725

a1_local_8: 
+0.17772514307991741 a1_x5
+0.19231300137749857 a1_x2
+0.13793824662808649 a1_x4
<= 23.062360

a1_act_1: 
+0.01461655073259480 a1_x1
-1.46165507325948019 a1_z1
<= 0.000000

a1_act_2: 
+0.00310905117830472 a1_x2
-0.31090511783047209 a1_z2
<= 0.000000

a2_local_1: 
+0.14873722863163749 a2_x6
+0.09067318046845721 a2_x4
+0.21386211475584480 a2_x1
<= 30.041195

a2_local_2: 
+0.01595318027925757 a2_x2
+0.01540494635047680 a2_x1
+0.01375475743195362 a2_x4
<= 2.512609

a2_local_3: 
+0.05287253809135069 a2_x3
+0.05438037046056793 a2_x4
+0.02754331139165399 a2_x5
<= 9.367443

a2_local_4: 
+0.69960515190139205 a2_x4
+1.19903516810129385 a2_x3
+1.21229938239759005 a2_x2
<= 115.164026

a2_local_5: 
+0.76560967632259569 a2_x1
+0.50416216570169492 a2_x4
+0.81019833923564533 a2_x2
<= 90.282244

a2_local_6: 
+0.00008175388597537 a2_x3
+0.00016875741379614 a2_x5
+0.00012738496497924 a2_x1
<= 0.023979

a2_local_7: 
+0.00012475094704507 a2_x3
+0.00016027080234894 a2_x6
+0.00019145461226657 a2_x4
<= 0.031359

a2_local_8: 
+0.21081017695932555 a2_x1
+0.38580676975577255 a2_x6
+0.36434006330295821 a2_x5
<= 56.428521

a2_act_1: 
+0.03055911671441862 a2_x1
-3.05591167144186171 a2_z1
<= 0.000000

a2_act_2: 
+140.83022265586751587 a2_x2
-14083.02226558675101842 a2_z2
<= 0.000000

a3_local_1: 
+2265.40465808007411397 a3_x1
+2005.64307962768361904 a3_x4
+961.24718096255583077 a3_x2
<= 201497.555832

a3_local_2: 
+103.31842369237404000 a3_x6
+186.55771875663168657 a3_x4
+159.68150707715903991 a3_x1
<= 17492.961214

a3_local_3: 
+8000.04934524749205593 a3_x2
+4913.09126313514025242 a3_x3
+4103.65878664303545520 a3_x5
<= 890218.940291

a3_local_4: 
+0.52755043460227158 a3_x5
+0.95054779539014478 a3_x1
+0.78519568839394460 a3_x6
<= 101.230058

a3_local_5: 
+6047.78578290518726135 a3_x6
+4214.61652372879689210 a3_x3
+7825.90057051787516684 a3_x1
<= 688927.313370

a3_local_6: 
+0.01830097904206813 a3_x2
+0.02250055081695814 a3_x6
+0.01911777075731885 a3_x4
<= 2.471994

a3_local_7: 
+0.36311171618923099 a3_x2
+0.17133647769049273 a3_x5
+0.38581120867114072 a3_x4
<= 48.834434

a3_local_8: 
+41.03529040756369994 a3_x2
+44.18119350362820796 a3_x1
+28.72148698875450634 a3_x5
<= 7079.173848

a3_act_1: 
+28.74022875154125600 a3_x1
-2874.02287515412581342 a3_z1
<= 0.000000

a3_act_2: 
+0.00917602504732128 a3_x2
-0.91760250473212812 a3_z2
<= 0.000000

a4_local_1: 
+25891.80001337929934380 a4_x2
+11621.64028356389826513 a4_x6
+25049.81922613384085707 a4_x5
<= 4113030.348393

a4_local_2: 
+97414.26910883809614461 a4_x3
+246820.07677367172436789 a4_x5
+199275.74586109255324118 a4_x1
<= 31291477.652250

a4_local_3: 
+736.34512829901439090 a4_x4
+1055.54110854714303969 a4_x3
+922.38218126460276380 a4_x6
<= 166616.366195

a4_local_4: 
+262.52527818737905818 a4_x5
+171.86198890426857133 a4_x1
+172.94236378791183029 a4_x4
<= 29287.449568

a4_local_5: 
+8393.42972998625373293 a4_x5
+15055.46397713711485267 a4_x6
+8014.86382085705008649 a4_x1
<= 1937443.140079

a4_local_6: 
+14970.16845283409566036 a4_x4
+14967.33707641789987974 a4_x3
+12927.20758165851293597 a4_x2
<= 1789511.285371

a4_local_7: 
+43.25323510932950200 a4_x3
+69.03498976960003120 a4_x6
+33.22923132653845357 a4_x1
<= 8848.264756

a4_local_8: 
+898620.27847955236211419 a4_x3
+931478.91759680095128715 a4_x2
+1007575.34680377214681357 a4_x6
<= 107870338.644895

a4_act_1: 
+0.39517173651570631 a4_x1
-39.51717365157063000 a4_z1
<= 0.000000

a4_act_2: 
+881.82468353754609325 a4_x2
-88182.46835375460796058 a4_z2
<= 0.000000

coupling_1: 
+0.00000428192253055 a1_x1
+0.00055022488595766 a2_x1
+0.04903948423929381 a3_x1
+5.05906354646520739 a4_x1
+0.00440435657054093 short_1
-0.00440435657054093 surp_1
= 149.143513

coupling_2: 
+0.27822069725313220 a1_x2
+21.36145703158588915 a2_x2
+4965.14287938053985272 a3_x2
+213766.63572076190030202 a4_x2
+387.83572281574470253 short_2
-387.83572281574470253 surp_2
= 12298884.392249

coupling_3: 
+0.00296012256653529 a1_x3
+0.22056710617455672 a2_x3
+38.23236873241401668 a3_x3
+5509.55791637709808128 a4_x3
+3.81676980171949998 short_3
-3.81676980171949998 surp_3
= 196764.323550

bounds
  0.000000 <= a1_x1 <= 100.000000
  0.000000 <= a1_x2 <= 100.000000
  0.000000 <= a1_x3 <= 100.000000
  0.000000 <= a1_x4 <= 100.000000
  0.000000 <= a1_x5 <= 100.000000
  0.000000 <= a1_x6 <= 100.000000
  0.000000 <= a2_x1 <= 100.000000
  0.000000 <= a2_x2 <= 100.000000
  0.000000 <= a2_x3 <= 100.000000
  0.000000 <= a2_x4 <= 100.000000
  0.000000 <= a2_x5 <= 100.000000
  0.000000 <= a2_x6 <= 100.000000
  0.000000 <= a3_x1 <= 100.000000
  0.000000 <= a3_x2 <= 100.000000
  0.000000 <= a3_x3 <= 100.000000
  0.000000 <= a3_x4 <= 100.000000
  0.000000 <= a3_x5 <= 100.000000
  0.000000 <= a3_x6 <= 100.000000
  0.000000 <= a4_x1 <= 100.000000
  0.000000 <= a4_x2 <= 100.000000
  0.000000 <= a4_x3 <= 100.000000
  0.000000 <= a4_x4 <= 100.000000
  0.000000 <= a4_x5 <= 100.000000
  0.000000 <= a4_x6 <= 100.000000
  0.000000 <= short_1 <= +inf
  0.000000 <= surp_1 <= +inf
  0.000000 <= short_2 <= +inf
  0.000000 <= surp_2 <= +inf
  0.000000 <= short_3 <= +inf
  0.000000 <= surp_3 <= +inf
 0 <= a1_z1 <= 1
 0 <= a1_z2 <= 1
 0 <= a2_z1 <= 1
 0 <= a2_z2 <= 1
 0 <= a3_z1 <= 1
 0 <= a3_z2 <= 1
 0 <= a4_z1 <= 1
 0 <= a4_z2 <= 1

binary
  a1_z1
  a1_z2
  a2_z1
  a2_z2
  a3_z1
  a3_z2
  a4_z1
  a4_z2
end
