min
obj: 
  +2.86702301288668870 a1_x1
  +4.61217347674817457 a1_x2
  +8.37266539443051627 a1_x3
  +3.88741117842564377 a1_x4
  +3.57352147071314707 a1_x5
  +7.90632682258909369 a1_x6
  +32.52167325628295202 a1_z1
  +46.95512094955829951 a1_z2
  +1.34162249297538905 a2_x1
  +5.04177078463243156 a2_x2
  +1.10989142532268992 a2_x3
  +7.53499127677043390 a2_x4
  +4.74514201764349153 a2_x5
  +4.92271964690250208 a2_x6
  +7.37175972020868908 a2_z1
  +32.23919956008293042 a2_z2
  +7.19883337190115391 a3_x1
  +9.69659328832065093 a3_x2
  +2.68145044350852224 a3_x3
  +4.74181989860472974 a3_x4
  +5.40392510460596665 a3_x5
  +9.85025370993833427 a3_x6
  +17.99205279831755888 a3_z1
  +28.73085531973273987 a3_z2
  +5.38171902546503311 a4_x1
  +3.72975403904797487 a4_x2
  +6.65779047476273789 a4_x3
  +5.43042814174023825 a4_x4
  +9.71759449267787367 a4_x5
  +8.04794548671517163 a4_x6
  +7.84716545501873153 a4_z1
  +24.37447779336789466 a4_z2
  +1000000.00000000000000000 short_1
  +1000000.00000000000000000 surp_1
  +1000000.00000000000000000 short_2
  +1000000.00000000000000000 surp_2
  +1000000.00000000000000000 short_3
  +1000000.00000000000000000 surp_3

s.t.

a1_local_1: 
+0.03137081679766271 a1_x3
+0.05507411219814335 a1_x1
+0.04893420346430846 a1_x2
<= 8.141775

a1_local_2: 
+0.43041855446562399 a1_x4
+0.32327154256234436 a1_x6
+0.29735369272909662 a1_x2
<= 39.383115

a1_local_3: 
+0.05779477838096884 a1_x3
+0.02719566550655127 a1_x4
+0.02897617151227629 a1_x1
<= 7.437421

a1_local_4: 
+0.07142976341632085 a1_x3
+0.06498568454894962 a1_x6
+0.17556955981250755 a1_x1
<= 17.095159

a1_local_5: 
+0.00001273870108896 a1_x5
+0.00001841689513091 a1_x1
+0.00001729626378571 a1_x3
<= 0.002471

a1_local_6: 
+0.00004020254926040 a1_x6
+0.00003242427283235 a1_x3
+0.00003007365405533 a1_x1
<= 0.004693

a1_local_7: 
+0.07160957617032701 a1_x4
+0.09783716985868977 a1_x3
+0.08941075370129417 a1_x6
<= 8.963028

a1_local_8: 
+0.00241149377254602 a1_x6
+0.00297620375990963 a1_x3
+0.00233558325863573 a1_x2
<= 0.283911

a1_act_1: 
+0.25200442742436469 a1_x1
-25.20044274243646854 a1_z1
<= 0.000000

a1_act_2: 
+0.00239563230947599 a1_x2
-0.23956323094759926 a1_z2
<= 0.000000

a2_local_1: 
+3.07999846642603536 a2_x3
+4.79526877213705394 a2_x1
+3.98067791820499473 a2_x4
<= 535.975249

a2_local_2: 
+6.30629422433566855 a2_x3
+3.94659060667841777 a2_x4
+4.57317577069390069 a2_x1
<= 964.649573

a2_local_3: 
+0.00324161893279395 a2_x2
+0.00451727334269950 a2_x5
+0.00600863484515938 a2_x6
<= 0.841764

a2_local_4: 
+0.28659468026142648 a2_x3
+0.25234895157569542 a2_x4
+0.19735700472251083 a2_x2
<= 44.308945

a2_local_5: 
+0.45347852699720409 a2_x3
+0.69434697064346951 a2_x5
+0.85108758233358484 a2_x6
<= 125.071266

a2_local_6: 
+0.01847831723989671 a2_x2
+0.04302782357869316 a2_x5
+0.02293129460050337 a2_x1
<= 5.670848

a2_local_7: 
+0.45962061792496889 a2_x6
+0.72883681314772064 a2_x2
+0.49324882994363073 a2_x5
<= 81.911533

a2_local_8: 
+0.00017513654392497 a2_x2
+0.00023493261598472 a2_x4
+0.00016276704574955 a2_x6
<= 0.037506

a2_act_1: 
+0.01261907309766582 a2_x1
-1.26190730976658205 a2_z1
<= 0.000000

a2_act_2: 
+11.89690780375847190 a2_x2
-1189.69078037584722551 a2_z2
<= 0.000000

a3_local_1: 
+1.87177736588915722 a3_x6
+2.56667715513258621 a3_x2
+1.88399449861398738 a3_x1
<= 323.839306

a3_local_2: 
+0.05986380280582709 a3_x3
+0.04107421083290300 a3_x1
+0.04774365268259249 a3_x4
<= 8.571507

a3_local_3: 
+39.24225366785408653 a3_x4
+31.72047246808155663 a3_x1
+46.44274704530112530 a3_x6
<= 6842.224471

a3_local_4: 
+41.78201339626775734 a3_x1
+42.06290580637081433 a3_x3
+29.59731102434536609 a3_x5
<= 4161.223185

a3_local_5: 
+13.16549989166492729 a3_x5
+27.94908222011337173 a3_x4
+36.73720287912220073 a3_x6
<= 3359.009486

a3_local_6: 
+31.82449826211919586 a3_x2
+52.59885880811970083 a3_x3
+54.04921661056535953 a3_x6
<= 7403.554019

a3_local_7: 
+2136.97764630367100835 a3_x4
+1238.69091776533628035 a3_x1
+2557.47203128272440154 a3_x2
<= 318636.403682

a3_local_8: 
+72.92724787326585556 a3_x2
+34.33310798920705054 a3_x1
+53.72730675846203496 a3_x5
<= 5268.610915

a3_act_1: 
+2.34400329006114383 a3_x1
-234.40032900611439004 a3_z1
<= 0.000000

a3_act_2: 
+0.00547632037561417 a3_x2
-0.54763203756141676 a3_z2
<= 0.000000

a4_local_1: 
+10530.77324093312745390 a4_x1
+18823.57044049293835997 a4_x4
+14135.71235012035685941 a4_x3
<= 1742831.175591

a4_local_2: 
+2448.91700867506324357 a4_x1
+1768.32692807868852469 a4_x6
+1823.90118187392454274 a4_x3
<= 283425.427951

a4_local_3: 
+52.04802315928038325 a4_x2
+32.82522574057522036 a4_x5
+71.12385664737689694 a4_x1
<= 8890.538056

a4_local_4: 
+3.18497749853307299 a4_x5
+3.29127577992627529 a4_x4
+4.83953178551087415 a4_x3
<= 489.132182

a4_local_5: 
+144128.51371892399038188 a4_x1
+261229.85819891892606393 a4_x4
+302000.88951130857458338 a4_x2
<= 28642873.405339

a4_local_6: 
+3140.45895199042570312 a4_x4
+3730.12452005141449263 a4_x2
+2043.73443512546396050 a4_x6
<= 454285.144725

a4_local_7: 
+3788.18645339317981779 a4_x2
+4043.14712802491658294 a4_x1
+4877.60985959646495758 a4_x3
<= 611818.793762

a4_local_8: 
+822.41664512163970358 a4_x1
+513.16021664304196293 a4_x2
+936.50038727379694592 a4_x5
<= 148062.024518

a4_act_1: 
+0.35260508522758999 a4_x1
-35.26050852275899672 a4_z1
<= 0.000000

a4_act_2: 
+0.02083361278539814 a4_x2
-2.08336127853981345 a4_z2
<= 0.000000

coupling_1: 
+0.57570270500129594 a1_x1
+47.91747108511236775 a2_x1
+4706.77616424565076159 a3_x1
+476443.77457768423482776 a4_x1
+390.19818572815569269 short_1
-390.19818572815569269 surp_1
= 12045922.704603

coupling_2: 
+0.00095799392791436 a1_x2
+0.11395207762323162 a2_x2
+16.06072101149995746 a3_x2
+1087.63131085290592637 a4_x2
+1.42824117948671980 short_2
-1.42824117948671980 surp_2
= 25046.644795

coupling_3: 
+0.00641679290363253 a1_x3
+0.62204647646849409 a2_x3
+46.67890352773915907 a3_x3
+2839.04501233251721715 a4_x3
+4.36652031684808772 short_3
-4.36652031684808772 surp_3
= 59429.080690

bounds
  0.000000 <= a1_x1 <= 100.000000
  0.000000 <= a1_x2 <= 100.000000
  0.000000 <= a1_x3 <= 100.000000
  0.000000 <= a1_x4 <= 100.000000
  0.000000 <= a1_x5 <= 100.000000
  0.000000 <= a1_x6 <= 100.000000
  0.000000 <= a2_x1 <= 100.000000
  0.000000 <= a2_x2 <= 100.000000
  0.000000 <= a2_x3 <= 100.000000
  0.000000 <= a2_x4 <= 100.000000
  0.000000 <= a2_x5 <= 100.000000
  0.000000 <= a2_x6 <= 100.000000
  0.000000 <= a3_x1 <= 100.000000
  0.000000 <= a3_x2 <= 100.000000
  0.000000 <= a3_x3 <= 100.000000
  0.000000 <= a3_x4 <= 100.000000
  0.000000 <= a3_x5 <= 100.000000
  0.000000 <= a3_x6 <= 100.000000
  0.000000 <= a4_x1 <= 100.000000
  0.000000 <= a4_x2 <= 100.000000
  0.000000 <= a4_x3 <= 100.000000
  0.000000 <= a4_x4 <= 100.000000
  0.000000 <= a4_x5 <= 100.000000
  0.000000 <= a4_x6 <= 100.000000
  0.000000 <= short_1 <= +inf
  0.000000 <= surp_1 <= +inf
  0.000000 <= short_2 <= +inf
  0.000000 <= surp_2 <= +inf
  0.000000 <= short_3 <= +inf
  0.000000 <= surp_3 <= +inf
 0 <= a1_z1 <= 1
 0 <= a1_z2 <= 1
 0 <= a2_z1 <= 1
 0 <= a2_z2 <= 1
 0 <= a3_z1 <= 1
 0 <= a3_z2 <= 1
 0 <= a4_z1 <= 1
 0 <= a4_z2 <= 1

binary
  a1_z1
  a1_z2
  a2_z1
  a2_z2
  a3_z1
  a3_z2
  a4_z1
  a4_z2
end
