min
obj: 
  +4.00927114806491947 a1_x1
  +1.96797315584533505 a1_x2
  +5.12450639908132288 a1_x3
  +5.32896604620880687 a1_x4
  +7.73264361972508052 a1_x5
  +5.13954220661915251 a1_x6
  +7.46013036925632012 a1_z1
  +49.87266735161764331 a1_z2
  +9.36843435344059650 a2_x1
  +1.05737072364449292 a2_x2
  +6.60719118774421155 a2_x3
  +2.15746424177711438 a2_x4
  +4.02884955809363987 a2_x5
  +6.58160214482754569 a2_x6
  +37.18631761224219190 a2_z1
  +14.56992703067312611 a2_z2
  +7.57718464422320714 a3_x1
  +6.32546719961394732 a3_x2
  +1.31829467185166682 a3_x3
  +2.45084274434978422 a3_x4
  +7.58215052014305346 a3_x5
  +8.03960198396170256 a3_x6
  +34.57098216458418705 a3_z1
  +17.01923611963366056 a3_z2
  +9.65762920804675851 a4_x1
  +1.01038921150930694 a4_x2
  +8.26245311728527554 a4_x3
  +1.87174926104206407 a4_x4
  +5.72310336143512366 a4_x5
  +2.03823444273170651 a4_x6
  +33.41705432517787955 a4_z1
  +11.21145989114648600 a4_z2
  +1000000.00000000000000000 short_1
  +1000000.00000000000000000 surp_1
  +1000000.00000000000000000 short_2
  +1000000.00000000000000000 surp_2
  +1000000.00000000000000000 short_3
  +1000000.00000000000000000 surp_3

s.t.

a1_local_1: 
+0.81484865006639706 a1_x3
+0.34618784076617559 a1_x6
+0.55081002916895927 a1_x4
<= 64.708723

a1_local_2: 
+0.00016390586869488 a1_x4
+0.00009080493641823 a1_x6
+0.00006345991220038 a1_x2
<= 0.018037

a1_local_3: 
+0.00488593757536694 a1_x6
+0.00826284882031120 a1_x4
+0.00431852425165965 a1_x1
<= 1.108924

a1_local_4: 
+0.53665171784237475 a1_x2
+0.63353613472461745 a1_x5
+0.62227563456439949 a1_x3
<= 120.985010

a1_local_5: 
+0.08632123514088128 a1_x1
+0.03914829212556725 a1_x4
+0.05494959428190498 a1_x2
<= 12.348788

a1_local_6: 
+0.00008288035538634 a1_x1
+0.00008496079321529 a1_x3
+0.00004330747799977 a1_x6
<= 0.013182

a1_local_7: 
+0.70076781639280994 a1_x2
+1.13024603693555314 a1_x5
+0.89271659226711952 a1_x4
<= 151.518292

a1_local_8: 
+0.00027205734071023 a1_x4
+0.00042413524872955 a1_x5
+0.00017210280028578 a1_x6
<= 0.044990

a1_act_1: 
+31.82797924072702855 a1_x1
-3182.79792407270269905 a1_z1
<= 0.000000

a1_act_2: 
+0.01995741996324700 a1_x2
-1.99574199632470006 a1_z2
<= 0.000000

a2_local_1: 
+0.00271939293758248 a2_x4
+0.00513038267352839 a2_x2
+0.00411516841346753 a2_x6
<= 0.690445

a2_local_2: 
+0.95011035691327472 a2_x1
+1.31099613379535418 a2_x4
+0.83763079917862970 a2_x5
<= 199.041323

a2_local_3: 
+0.04003420192151414 a2_x4
+0.02959228021313592 a2_x5
+0.05783577581440073 a2_x3
<= 8.143060

a2_local_4: 
+0.00216759585119625 a2_x2
+0.00146712966273397 a2_x1
+0.00208049162037826 a2_x5
<= 0.261274

a2_local_5: 
+0.03494544844228853 a2_x2
+0.02203435904787108 a2_x3
+0.04092609778689624 a2_x6
<= 5.520032

a2_local_6: 
+16.99524073354562859 a2_x6
+12.19747159349279109 a2_x5
+19.47304236879483597 a2_x2
<= 2711.466353

a2_local_7: 
+0.49411300730548158 a2_x2
+0.33720292569426186 a2_x5
+0.35645761095818285 a2_x6
<= 79.195778

a2_local_8: 
+61.65574653972613106 a2_x2
+50.67600727222300350 a2_x4
+44.00631869545297548 a2_x5
<= 10381.421737

a2_act_1: 
+71.80250231758512314 a2_x1
-7180.25023175851220003 a2_z1
<= 0.000000

a2_act_2: 
+822.12451377479601433 a2_x2
-82212.45137747960689012 a2_z2
<= 0.000000

a3_local_1: 
+96.20202325737375304 a3_x1
+80.01709158262326582 a3_x2
+148.86871772447457829 a3_x6
<= 14682.194364

a3_local_2: 
+0.17199121481701771 a3_x2
+0.14211574259909204 a3_x1
+0.29338609361817269 a3_x6
<= 26.153889

a3_local_3: 
+7.94209630056184857 a3_x1
+6.13510507115778569 a3_x5
+12.37995848079854966 a3_x2
<= 1370.404827

a3_local_4: 
+1.09449691429542750 a3_x4
+1.66533508888013104 a3_x6
+1.56802222146220260 a3_x5
<= 277.903596

a3_local_5: 
+0.30927732583720291 a3_x4
+0.45424024095148546 a3_x1
+0.30164031307114336 a3_x5
<= 34.663743

a3_local_6: 
+3.79450980117559888 a3_x5
+2.15209185397724090 a3_x6
+1.95291797682184032 a3_x1
<= 465.560729

a3_local_7: 
+2.02192212890084999 a3_x6
+2.49604633572313972 a3_x1
+2.88163511929323990 a3_x4
<= 464.187785

a3_local_8: 
+0.43026423891893589 a3_x3
+0.55207984558105172 a3_x1
+0.35316040245004049 a3_x6
<= 54.401036

a3_act_1: 
+828.65138942756584584 a3_x1
-82865.13894275658822153 a3_z1
<= 0.000000

a3_act_2: 
+0.01134128736694763 a3_x2
-1.13412873669476344 a3_z2
<= 0.000000

a4_local_1: 
+13400.99106624127125542 a4_x3
+13018.45929090891149826 a4_x2
+18170.73303605257024174 a4_x5
<= 2657056.576191

a4_local_2: 
+746.62739026327380998 a4_x2
+1472.06997177433527213 a4_x5
+1725.81414935808447808 a4_x3
<= 272904.992075

a4_local_3: 
+372.24738896571892610 a4_x4
+173.93530686301232890 a4_x5
+177.60917830160090602 a4_x2
<= 24534.696724

a4_local_4: 
+285383.66687471762998030 a4_x5
+290740.33438333653612062 a4_x3
+240943.85879908967763186 a4_x1
<= 27036989.601899

a4_local_5: 
+457673.31347819895017892 a4_x5
+698316.26890360447578132 a4_x6
+352854.66461701103253290 a4_x1
<= 80996820.023073

a4_local_6: 
+125.34317826465472479 a4_x3
+56.65421202876264317 a4_x2
+72.62350936820882907 a4_x1
<= 12488.290252

a4_local_7: 
+0.85990313566602627 a4_x1
+0.75937737592490484 a4_x2
+1.68050273505842318 a4_x3
<= 201.581670

a4_local_8: 
+85.28496249356521730 a4_x3
+60.95196816463434430 a4_x1
+93.88724943359562758 a4_x4
<= 13801.468131

a4_act_1: 
+0.04294512529263800 a4_x1
-4.29451252926380000 a4_z1
<= 0.000000

a4_act_2: 
+267.49153779604318970 a4_x2
-26749.15377960431942483 a4_z2
<= 0.000000

coupling_1: 
+0.00091942160570960 a1_x1
+0.11800857259731438 a2_x1
+11.93683941515847735 a3_x1
+482.96311924032971774 a4_x1
+0.81454849785512862 short_1
-0.81454849785512862 surp_1
= 27992.360141

coupling_2: 
+0.00000341638072796 a1_x2
+0.00031275308397629 a2_x2
+0.02559296775063098 a3_x2
+3.97026122614198496 a4_x2
+0.00422734639717493 short_2
-0.00422734639717493 surp_2
= 219.486735

coupling_3: 
+0.00000869443165497 a1_x3
+0.00057907383442830 a2_x3
+0.08289004253751887 a3_x3
+9.36020532545160222 a4_x3
+0.01091665097488172 short_3
-0.01091665097488172 surp_3
= 206.071735

bounds
  0.000000 <= a1_x1 <= 100.000000
  0.000000 <= a1_x2 <= 100.000000
  0.000000 <= a1_x3 <= 100.000000
  0.000000 <= a1_x4 <= 100.000000
  0.000000 <= a1_x5 <= 100.000000
  0.000000 <= a1_x6 <= 100.000000
  0.000000 <= a2_x1 <= 100.000000
  0.000000 <= a2_x2 <= 100.000000
  0.000000 <= a2_x3 <= 100.000000
  0.000000 <= a2_x4 <= 100.000000
  0.000000 <= a2_x5 <= 100.000000
  0.000000 <= a2_x6 <= 100.000000
  0.000000 <= a3_x1 <= 100.000000
  0.000000 <= a3_x2 <= 100.000000
  0.000000 <= a3_x3 <= 100.000000
  0.000000 <= a3_x4 <= 100.000000
  0.000000 <= a3_x5 <= 100.000000
  0.000000 <= a3_x6 <= 100.000000
  0.000000 <= a4_x1 <= 100.000000
  0.000000 <= a4_x2 <= 100.000000
  0.000000 <= a4_x3 <= 100.000000
  0.000000 <= a4_x4 <= 100.000000
  0.000000 <= a4_x5 <= 100.000000
  0.000000 <= a4_x6 <= 100.000000
  0.000000 <= short_1 <= +inf
  0.000000 <= surp_1 <= +inf
  0.000000 <= short_2 <= +inf
  0.000000 <= surp_2 <= +inf
  0.000000 <= short_3 <= +inf
  0.000000 <= surp_3 <= +inf
 0 <= a1_z1 <= 1
 0 <= a1_z2 <= 1
 0 <= a2_z1 <= 1
 0 <= a2_z2 <= 1
 0 <= a3_z1 <= 1
 0 <= a3_z2 <= 1
 0 <= a4_z1 <= 1
 0 <= a4_z2 <= 1

binary
  a1_z1
  a1_z2
  a2_z1
  a2_z2
  a3_z1
  a3_z2
  a4_z1
  a4_z2
end
