min
obj: 
  +8.52421046785006808 a1_x1
  +7.69307565210918742 a1_x2
  +6.91899621560824230 a1_x3
  +9.20970734213053355 a1_x4
  +1.67836132765545631 a1_x5
  +5.99146020770216658 a1_x6
  +31.08072985890714435 a1_z1
  +20.88386702402789297 a1_z2
  +6.90777420422215815 a2_x1
  +5.08754459362986733 a2_x2
  +7.59170235780382363 a2_x3
  +8.27944903727416381 a2_x4
  +1.03512879040065853 a2_x5
  +5.78577237729060112 a2_x6
  +23.93421358976911506 a2_z1
  +21.52150514949614646 a2_z2
  +3.33875162916421697 a3_x1
  +6.11068986646011059 a3_x2
  +6.55082117265498010 a3_x3
  +5.19513264683116827 a3_x4
  +3.93701514527552376 a3_x5
  +3.37060916575937597 a3_x6
  +38.53959756350231913 a3_z1
  +26.75553244557287869 a3_z2
  +8.54382197580174818 a4_x1
  +7.14956107064012691 a4_x2
  +5.56590579337685210 a4_x3
  +2.52647125500070402 a4_x4
  +2.35011295395534869 a4_x5
  +8.78080461108212518 a4_x6
  +7.45391026181894656 a4_z1
  +36.01444945313909329 a4_z2
  +1000000.00000000000000000 short_1
  +1000000.00000000000000000 surp_1
  +1000000.00000000000000000 short_2
  +1000000.00000000000000000 surp_2
  +1000000.00000000000000000 short_3
  +1000000.00000000000000000 surp_3

s.t.

a1_local_1: 
+0.68131254181031731 a1_x6
+1.46775516173957055 a1_x2
+1.40754996964424306 a1_x4
<= 125.447921

a1_local_2: 
+1.28167273121496295 a1_x5
+0.78023037835255249 a1_x2
+0.96459965814708049 a1_x1
<= 118.140805

a1_local_3: 
+1.22690057916387030 a1_x4
+0.81506196751614324 a1_x2
+1.15398606627043687 a1_x1
<= 134.795277

a1_local_4: 
+0.73019925673316299 a1_x4
+1.36948920555451981 a1_x2
+1.07964263751880818 a1_x6
<= 126.370588

a1_local_5: 
+1.19975014196621577 a1_x5
+1.27605916547806819 a1_x2
+0.78366272274323245 a1_x1
<= 123.043914

a1_local_6: 
+1.53862774696009996 a1_x2
+1.07366973440144742 a1_x5
+0.64992978449512662 a1_x6
<= 109.455020

a1_local_7: 
+1.16293979610824549 a1_x3
+0.88376798517439947 a1_x4
+0.85988974093627168 a1_x6
<= 158.325215

a1_local_8: 
+0.85704984940830453 a1_x6
+0.95750103918481122 a1_x2
+1.16679327426565216 a1_x5
<= 191.412588

a1_act_1: 
+0.10000000000000001 a1_x1
-10.00000000000000000 a1_z1
<= 0.000000

a1_act_2: 
+0.10000000000000001 a1_x2
-10.00000000000000000 a1_z2
<= 0.000000

a2_local_1: 
+0.97149888919247918 a2_x6
+1.09777479472200690 a2_x3
+0.91093364942236055 a2_x2
<= 95.360441

a2_local_2: 
+0.80748412254300839 a2_x5
+1.23841444318521288 a2_x3
+0.98717057528545504 a2_x2
<= 206.162021

a2_local_3: 
+0.86026178831809252 a2_x3
+1.16243684606183817 a2_x5
+1.07219276406967112 a2_x4
<= 139.648328

a2_local_4: 
+1.21164887394750687 a2_x3
+0.82532161049433184 a2_x5
+0.90979569418380701 a2_x4
<= 195.734944

a2_local_5: 
+1.12753261154025974 a2_x3
+0.84431617156280259 a2_x1
+1.18439043770656616 a2_x2
<= 209.157079

a2_local_6: 
+0.91736007905954431 a2_x3
+1.13588601248743259 a2_x6
+0.88037002745560622 a2_x5
<= 115.900684

a2_local_7: 
+1.26923710339468720 a2_x4
+1.20705794911425124 a2_x5
+0.78787485594725459 a2_x2
<= 162.991804

a2_local_8: 
+0.84764868967032581 a2_x4
+1.17973402446823594 a2_x2
+0.96608882126994378 a2_x1
<= 144.889085

a2_act_1: 
+0.10000000000000001 a2_x1
-10.00000000000000000 a2_z1
<= 0.000000

a2_act_2: 
+0.10000000000000001 a2_x2
-10.00000000000000000 a2_z2
<= 0.000000

a3_local_1: 
+1.04812728607050976 a3_x6
+0.92988072416007139 a3_x1
+1.07540674198109110 a3_x5
<= 137.497707

a3_local_2: 
+0.81908842992306041 a3_x4
+1.22086940001573829 a3_x2
+1.04321958012860971 a3_x6
<= 190.152581

a3_local_3: 
+0.94036714089829343 a3_x3
+1.10361769479236660 a3_x2
+0.90611087944556634 a3_x6
<= 92.204898

a3_local_4: 
+1.04639185156534142 a3_x2
+0.93985697510636634 a3_x3
+1.06399167797507399 a3_x5
<= 176.049291

a3_local_5: 
+1.19840642895897043 a3_x6
+0.60950483162535718 a3_x1
+1.64067608345829785 a3_x5
<= 217.552948

a3_local_6: 
+1.57682079009350873 a3_x6
+0.63418747791922370 a3_x2
+1.33799981666868861 a3_x1
<= 233.718885

a3_local_7: 
+0.94180729507703098 a3_x2
+0.84509420335242713 a3_x1
+1.18330003452049803 a3_x6
<= 155.453123

a3_local_8: 
+0.83646468463381485 a3_x1
+1.19550773436152569 a3_x5
+1.12128813667140914 a3_x4
<= 100.432631

a3_act_1: 
+0.10000000000000001 a3_x1
-10.00000000000000000 a3_z1
<= 0.000000

a3_act_2: 
+0.10000000000000001 a3_x2
-10.00000000000000000 a3_z2
<= 0.000000

a4_local_1: 
+0.76039190621515773 a4_x3
+1.31511131539719939 a4_x5
+0.79903043055460921 a4_x6
<= 120.363535

a4_local_2: 
+1.20325285796031078 a4_x4
+0.83108051095357138 a4_x3
+1.15808865905020064 a4_x2
<= 99.057889

a4_local_3: 
+0.91906606012508330 a4_x5
+1.49290669866315762 a4_x6
+0.66983422399769710 a4_x4
<= 169.837124

a4_local_4: 
+0.95882762460478632 a4_x1
+0.75795205839786073 a4_x3
+1.31934465896665531 a4_x6
<= 95.777433

a4_local_5: 
+1.16728971309182650 a4_x6
+0.75999202379546948 a4_x5
+1.31580328304750993 a4_x1
<= 202.643657

a4_local_6: 
+0.59960678824137315 a4_x4
+1.10198151079195661 a4_x1
+1.66775963783359904 a4_x3
<= 152.748796

a4_local_7: 
+0.93828398815112501 a4_x6
+0.99838780846361841 a4_x2
+1.06577540768918499 a4_x1
<= 159.623183

a4_local_8: 
+0.64935992640976536 a4_x3
+1.53997799884092390 a4_x2
+1.27469931835963157 a4_x6
<= 233.468115

a4_act_1: 
+0.10000000000000001 a4_x1
-10.00000000000000000 a4_z1
<= 0.000000

a4_act_2: 
+0.10000000000000001 a4_x2
-10.00000000000000000 a4_z2
<= 0.000000

coupling_1: 
+0.01055519295686048 a1_x1
+0.21984375572934214 a2_x1
+10.90443235798008459 a3_x1
+94.74009656545760549 a4_x1
+1.88348031001481875 short_1
-1.88348031001481875 surp_1
= 7639.439697

coupling_2: 
+0.00783482863995479 a1_x2
+0.20509710796744890 a2_x2
+6.40389860159757607 a3_x2
+127.63521015639852862 a4_x2
+1.04443415810274276 short_2
-1.04443415810274276 surp_2
= 4459.443730

coupling_3: 
+0.00720024960505043 a1_x3
+0.18153350833265272 a2_x3
+5.70334177254693664 a3_x3
+138.88407414356527170 a4_x3
+1.30039842265412320 short_3
-1.30039842265412320 surp_3
= 3368.502336

bounds
  0.000000 <= a1_x1 <= 100.000000
  0.000000 <= a1_x2 <= 100.000000
  0.000000 <= a1_x3 <= 100.000000
  0.000000 <= a1_x4 <= 100.000000
  0.000000 <= a1_x5 <= 100.000000
  0.000000 <= a1_x6 <= 100.000000
  0.000000 <= a2_x1 <= 100.000000
  0.000000 <= a2_x2 <= 100.000000
  0.000000 <= a2_x3 <= 100.000000
  0.000000 <= a2_x4 <= 100.000000
  0.000000 <= a2_x5 <= 100.000000
  0.000000 <= a2_x6 <= 100.000000
  0.000000 <= a3_x1 <= 100.000000
  0.000000 <= a3_x2 <= 100.000000
  0.000000 <= a3_x3 <= 100.000000
  0.000000 <= a3_x4 <= 100.000000
  0.000000 <= a3_x5 <= 100.000000
  0.000000 <= a3_x6 <= 100.000000
  0.000000 <= a4_x1 <= 100.000000
  0.000000 <= a4_x2 <= 100.000000
  0.000000 <= a4_x3 <= 100.000000
  0.000000 <= a4_x4 <= 100.000000
  0.000000 <= a4_x5 <= 100.000000
  0.000000 <= a4_x6 <= 100.000000
  0.000000 <= short_1 <= +inf
  0.000000 <= surp_1 <= +inf
  0.000000 <= short_2 <= +inf
  0.000000 <= surp_2 <= +inf
  0.000000 <= short_3 <= +inf
  0.000000 <= surp_3 <= +inf
 0 <= a1_z1 <= 1
 0 <= a1_z2 <= 1
 0 <= a2_z1 <= 1
 0 <= a2_z2 <= 1
 0 <= a3_z1 <= 1
 0 <= a3_z2 <= 1
 0 <= a4_z1 <= 1
 0 <= a4_z2 <= 1

binary
  a1_z1
  a1_z2
  a2_z1
  a2_z2
  a3_z1
  a3_z2
  a4_z1
  a4_z2
end
