min
obj: 
  +5.71291625483064269 a1_x1
  +9.00563589084773142 a1_x2
  +9.01724711762336106 a1_x3
  +9.40638568868457803 a1_x4
  +5.77535620951187667 a1_x5
  +7.28815966502164514 a1_x6
  +20.35589591192510284 a1_z1
  +36.98632201902846361 a1_z2
  +9.57055811069523088 a2_x1
  +1.26049992587512483 a2_x2
  +5.39403189015226747 a2_x3
  +5.18163926236740036 a2_x4
  +3.59512023493198285 a2_x5
  +8.32429931763050135 a2_x6
  +8.22405720557796727 a2_z1
  +9.84830187035061044 a2_z2
  +4.44432428569451421 a3_x1
  +6.87835612826100196 a3_x2
  +6.09227189830646143 a3_x3
  +7.96998209317280093 a3_x4
  +3.38862436120579025 a3_x5
  +8.87685055794251454 a3_x6
  +46.43685776379189178 a3_z1
  +46.77504748135883261 a3_z2
  +2.14266889482626155 a4_x1
  +3.71753864038075932 a4_x2
  +7.47528281002840789 a4_x3
  +1.46230104481487744 a4_x4
  +9.33481878718765401 a4_x5
  +5.50998435696904032 a4_x6
  +29.02492698326168252 a4_z1
  +40.43054682310305736 a4_z2
  +1000000.00000000000000000 short_1
  +1000000.00000000000000000 surp_1
  +1000000.00000000000000000 short_2
  +1000000.00000000000000000 surp_2
  +1000000.00000000000000000 short_3
  +1000000.00000000000000000 surp_3

s.t.

a1_local_1: 
+0.01060188095637868 a1_x1
+0.00698100765834143 a1_x3
+0.00846790547956128 a1_x4
<= 0.910408

a1_local_2: 
+0.01188089909120491 a1_x3
+0.00531363722835275 a1_x4
+0.01070718109444154 a1_x5
<= 1.172093

a1_local_3: 
+0.00989026338684520 a1_x2
+0.00609199406742069 a1_x4
+0.01071042798140918 a1_x1
<= 1.122231

a1_local_4: 
+0.00823210472182871 a1_x2
+0.01009844083533842 a1_x3
+0.00655799371727808 a1_x4
<= 0.816114

a1_local_5: 
+0.01170806721422342 a1_x1
+0.00610850461328330 a1_x3
+0.01081951895387302 a1_x2
<= 0.991667

a1_local_6: 
+0.00851127791341383 a1_x2
+0.00834686311500774 a1_x3
+0.00755695878714537 a1_x4
<= 1.524365

a1_local_7: 
+0.00866528074602993 a1_x1
+0.01250179503752081 a1_x2
+0.01372097433906581 a1_x4
<= 2.304131

a1_local_8: 
+0.01231479306389708 a1_x2
+0.01178239837155356 a1_x6
+0.00696961477481228 a1_x5
<= 1.842222

a1_act_1: 
+1.00000000000000000 a1_x1
-100.00000000000000000 a1_z1
<= 0.000000

a1_act_2: 
+1.00000000000000000 a1_x2
-100.00000000000000000 a1_z2
<= 0.000000

a2_local_1: 
+0.15698102447829759 a2_x5
+0.22640822766052343 a2_x6
+0.25322159328832672 a2_x2
<= 24.105073

a2_local_2: 
+0.23227582520079390 a2_x4
+0.28554752413043394 a2_x6
+0.28632533973238933 a2_x2
<= 36.092071

a2_local_3: 
+0.29354079405932654 a2_x6
+0.12472454033329508 a2_x1
+0.31303236207043195 a2_x2
<= 35.767710

a2_local_4: 
+0.23012480326455395 a2_x6
+0.28988574214081031 a2_x2
+0.32014882552870921 a2_x5
<= 45.241352

a2_local_5: 
+0.28793535947703408 a2_x2
+0.19995615068369019 a2_x5
+0.12392101313512094 a2_x1
<= 38.617959

a2_local_6: 
+0.19432968481919774 a2_x2
+0.16008429143266378 a2_x4
+0.30724250535595077 a2_x3
<= 27.536516

a2_local_7: 
+0.14230969160046911 a2_x5
+0.12736291289021598 a2_x1
+0.11931172617642311 a2_x6
<= 19.856216

a2_local_8: 
+0.13894960164161968 a2_x3
+0.19263803322689838 a2_x2
+0.28447210267532697 a2_x5
<= 37.270317

a2_act_1: 
+1.00000000000000000 a2_x1
-100.00000000000000000 a2_z1
<= 0.000000

a2_act_2: 
+1.00000000000000000 a2_x2
-100.00000000000000000 a2_z2
<= 0.000000

a3_local_1: 
+6.24139049174952909 a3_x6
+4.95745219987757135 a3_x4
+6.77002232070194054 a3_x5
<= 1038.342103

a3_local_2: 
+6.91091210465649741 a3_x3
+5.09415838682315680 a3_x6
+4.47168263609575600 a3_x5
<= 544.971702

a3_local_3: 
+4.48250690958669207 a3_x3
+3.68299554761944847 a3_x5
+5.39410627607864335 a3_x2
<= 474.394485

a3_local_4: 
+3.24902366528145858 a3_x1
+6.78663789216235536 a3_x4
+3.57249212868502619 a3_x2
<= 740.636172

a3_local_5: 
+3.33305833894317960 a3_x2
+5.43793919439109708 a3_x5
+4.69254127063309312 a3_x3
<= 706.851646

a3_local_6: 
+4.20010285878732859 a3_x5
+4.72217579641313545 a3_x3
+5.06866691491138166 a3_x2
<= 682.470440

a3_local_7: 
+5.10194130190745554 a3_x5
+4.37957934649606884 a3_x6
+6.80186497948579838 a3_x1
<= 736.937568

a3_local_8: 
+5.77289814493773434 a3_x4
+6.49639203222746175 a3_x2
+2.61501283190312872 a3_x1
<= 732.787948

a3_act_1: 
+1.00000000000000000 a3_x1
-100.00000000000000000 a3_z1
<= 0.000000

a3_act_2: 
+1.00000000000000000 a3_x2
-100.00000000000000000 a3_z2
<= 0.000000

a4_local_1: 
+139.06669355693827583 a4_x2
+145.94185742939478700 a4_x5
+60.53937875292970716 a4_x4
<= 14961.919128

a4_local_2: 
+103.03358935906308602 a4_x2
+93.57178363754523787 a4_x4
+88.40087826494263368 a4_x3
<= 16231.305407

a4_local_3: 
+91.02256530232928355 a4_x6
+143.23163774225068323 a4_x4
+116.12648742356537923 a4_x1
<= 13321.900627

a4_local_4: 
+112.19372786962161115 a4_x1
+72.57565645849271618 a4_x6
+104.57947562777847850 a4_x3
<= 9856.268835

a4_local_5: 
+99.66831368253848211 a4_x1
+122.25237943971805521 a4_x3
+106.13345986633677853 a4_x6
<= 16267.677762

a4_local_6: 
+82.44167143630834005 a4_x6
+63.99721452951430933 a4_x2
+77.95361563185771558 a4_x4
<= 14572.637056

a4_local_7: 
+112.57466778863411605 a4_x3
+70.49312297263490734 a4_x6
+73.25323878047528581 a4_x4
<= 14056.761014

a4_local_8: 
+60.89388128920988663 a4_x4
+93.05256520589254876 a4_x5
+119.77451305109762814 a4_x6
<= 13505.097269

a4_act_1: 
+1.00000000000000000 a4_x1
-100.00000000000000000 a4_z1
<= 0.000000

a4_act_2: 
+1.00000000000000000 a4_x2
-100.00000000000000000 a4_z2
<= 0.000000

coupling_1: 
+0.00105955342691927 a1_x1
+0.01015265786295106 a2_x1
+0.40000131579729425 a3_x1
+4.66569971850270715 a4_x1
+0.08117130021117921 short_1
-0.08117130021117921 surp_1
= 384.136441

coupling_2: 
+0.00110258977009288 a1_x2
+0.02368644467123095 a2_x2
+0.48203180938296597 a3_x2
+11.89845304912698332 a4_x2
+0.08117130021117921 short_2
-0.08117130021117921 surp_2
= 954.702258

coupling_3: 
+0.00084901284162551 a1_x3
+0.01116963176080165 a2_x3
+0.22754803378230951 a3_x3
+5.88168630469724807 a4_x3
+0.08117130021117921 short_3
-0.08117130021117921 surp_3
= 174.455196

bounds
  0.000000 <= a1_x1 <= 100.000000
  0.000000 <= a1_x2 <= 100.000000
  0.000000 <= a1_x3 <= 100.000000
  0.000000 <= a1_x4 <= 100.000000
  0.000000 <= a1_x5 <= 100.000000
  0.000000 <= a1_x6 <= 100.000000
  0.000000 <= a2_x1 <= 100.000000
  0.000000 <= a2_x2 <= 100.000000
  0.000000 <= a2_x3 <= 100.000000
  0.000000 <= a2_x4 <= 100.000000
  0.000000 <= a2_x5 <= 100.000000
  0.000000 <= a2_x6 <= 100.000000
  0.000000 <= a3_x1 <= 100.000000
  0.000000 <= a3_x2 <= 100.000000
  0.000000 <= a3_x3 <= 100.000000
  0.000000 <= a3_x4 <= 100.000000
  0.000000 <= a3_x5 <= 100.000000
  0.000000 <= a3_x6 <= 100.000000
  0.000000 <= a4_x1 <= 100.000000
  0.000000 <= a4_x2 <= 100.000000
  0.000000 <= a4_x3 <= 100.000000
  0.000000 <= a4_x4 <= 100.000000
  0.000000 <= a4_x5 <= 100.000000
  0.000000 <= a4_x6 <= 100.000000
  0.000000 <= short_1 <= +inf
  0.000000 <= surp_1 <= +inf
  0.000000 <= short_2 <= +inf
  0.000000 <= surp_2 <= +inf
  0.000000 <= short_3 <= +inf
  0.000000 <= surp_3 <= +inf
 0 <= a1_z1 <= 1
 0 <= a1_z2 <= 1
 0 <= a2_z1 <= 1
 0 <= a2_z2 <= 1
 0 <= a3_z1 <= 1
 0 <= a3_z2 <= 1
 0 <= a4_z1 <= 1
 0 <= a4_z2 <= 1

binary
  a1_z1
  a1_z2
  a2_z1
  a2_z2
  a3_z1
  a3_z2
  a4_z1
  a4_z2
end
