min
obj: 
  +4.08711411622905185 a1_x1
  +7.66136637275760890 a1_x2
  +4.89991689432673461 a1_x3
  +9.18560754331382867 a1_x4
  +7.80552329567271030 a1_x5
  +3.48617462290993085 a1_x6
  +23.40237872614093462 a1_z1
  +18.26756086639244359 a1_z2
  +9.86731097874472596 a2_x1
  +9.26152928173022261 a2_x2
  +3.50078905131847584 a2_x3
  +7.16373731684462012 a2_x4
  +7.92452849914212010 a2_x5
  +2.45821067970353369 a2_x6
  +33.65890549127213660 a2_z1
  +35.25440952037810405 a2_z2
  +2.67328543975586186 a3_x1
  +9.89718173180398963 a3_x2
  +5.22112132820410846 a3_x3
  +8.01142911451852413 a3_x4
  +2.58297506253818687 a3_x5
  +9.90251287309686745 a3_x6
  +27.09261525514139990 a3_z1
  +47.99613585574002173 a3_z2
  +8.20462741556096375 a4_x1
  +7.12140565612760490 a4_x2
  +6.26647229654029836 a4_x3
  +7.50796663445631296 a4_x4
  +5.57360575198759278 a4_x5
  +1.80810837019631565 a4_x6
  +27.56107960188447947 a4_z1
  +34.98595155711783633 a4_z2
  +1000000.00000000000000000 short_1
  +1000000.00000000000000000 surp_1
  +1000000.00000000000000000 short_2
  +1000000.00000000000000000 surp_2
  +1000000.00000000000000000 short_3
  +1000000.00000000000000000 surp_3

s.t.

a1_local_1: 
+1.06566257281247490 a1_x6
+0.59242592075137368 a1_x4
+1.68797475764007809 a1_x2
<= 231.914354

a1_local_2: 
+1.30747042081618181 a1_x6
+0.77748105960196789 a1_x3
+0.76483565829026945 a1_x2
<= 88.260681

a1_local_3: 
+0.81272925667282048 a1_x6
+1.06371553120111972 a1_x4
+1.23042205234967805 a1_x1
<= 165.885308

a1_local_4: 
+1.58382649837093781 a1_x4
+0.63138228905032256 a1_x5
+0.81960818071188057 a1_x2
<= 202.060716

a1_local_5: 
+1.09293888525223948 a1_x5
+1.17451686334374505 a1_x1
+0.85141391427372870 a1_x4
<= 211.053887

a1_local_6: 
+1.06779972894766573 a1_x2
+1.33420700472967346 a1_x6
+0.74950888164660190 a1_x1
<= 154.739924

a1_local_7: 
+1.31195258125912440 a1_x2
+1.30073735966880544 a1_x1
+0.76222267045678349 a1_x3
<= 150.379204

a1_local_8: 
+0.85159783855422322 a1_x2
+0.98699080019187468 a1_x4
+1.17426319646104571 a1_x3
<= 172.564313

a1_act_1: 
+0.10000000000000001 a1_x1
-10.00000000000000000 a1_z1
<= 0.000000

a1_act_2: 
+0.10000000000000001 a1_x2
-10.00000000000000000 a1_z2
<= 0.000000

a2_local_1: 
+0.97104831734877328 a2_x6
+1.02981487340431488 a2_x2
+1.02465229288076443 a2_x4
<= 145.380989

a2_local_2: 
+1.18345185725236024 a2_x2
+0.84498578786442291 a2_x3
+0.90593064778866450 a2_x6
<= 202.543719

a2_local_3: 
+0.70916782110507870 a2_x4
+1.41010346245226503 a2_x6
+1.17722933814418718 a2_x2
<= 100.117547

a2_local_4: 
+0.95127996802830195 a2_x6
+1.05121524010715706 a2_x2
+1.02715913906962109 a2_x4
<= 165.028455

a2_local_5: 
+0.80601443189449951 a2_x2
+1.33326952855476577 a2_x3
+0.75003589190550057 a2_x1
<= 161.226271

a2_local_6: 
+0.93238834201535603 a2_x4
+1.07251448236525726 a2_x6
+1.02837888997278748 a2_x2
<= 190.193130

a2_local_7: 
+1.20627274181839428 a2_x5
+1.16558524915071793 a2_x2
+0.82899991463999378 a2_x3
<= 215.992401

a2_local_8: 
+0.66126219546857135 a2_x5
+1.34273876300912476 a2_x4
+1.51225944391301326 a2_x6
<= 153.514321

a2_act_1: 
+0.10000000000000001 a2_x1
-10.00000000000000000 a2_z1
<= 0.000000

a2_act_2: 
+0.10000000000000001 a2_x2
-10.00000000000000000 a2_z2
<= 0.000000

a3_local_1: 
+0.66751899238673573 a3_x3
+0.91372985334281454 a3_x5
+1.49808471579882330 a3_x6
<= 192.950554

a3_local_2: 
+1.24162799307403238 a3_x4
+0.99506386261673740 a3_x1
+0.80539421274176648 a3_x2
<= 197.982389

a3_local_3: 
+0.93395598526667190 a3_x3
+1.09887406974198698 a3_x5
+0.91002238339721464 a3_x2
<= 117.116069

a3_local_4: 
+1.26160361510115582 a3_x2
+1.00212303789582946 a3_x6
+0.79264198994849855 a3_x4
<= 207.927320

a3_local_5: 
+0.85216755892787932 a3_x2
+1.14522941149944457 a3_x3
+1.17347813763071440 a3_x1
<= 179.058761

a3_local_6: 
+1.02405086899382125 a3_x1
+0.82980173854346673 a3_x5
+1.20510714011672060 a3_x4
<= 136.543727

a3_local_7: 
+0.67732240915929154 a3_x2
+1.47640176447317528 a3_x1
+0.82736712568288273 a3_x3
<= 114.932047

a3_local_8: 
+0.88217110480703187 a3_x4
+0.92949395153058523 a3_x5
+1.13356694018984250 a3_x2
<= 162.138368

a3_act_1: 
+0.10000000000000001 a3_x1
-10.00000000000000000 a3_z1
<= 0.000000

a3_act_2: 
+0.10000000000000001 a3_x2
-10.00000000000000000 a3_z2
<= 0.000000

a4_local_1: 
+1.46421319662035665 a4_x3
+0.68296065238871184 a4_x2
+0.75259185294200059 a4_x6
<= 183.990164

a4_local_2: 
+1.33639712176018666 a4_x6
+1.20974944187619315 a4_x1
+0.74828056998722547 a4_x5
<= 147.907237

a4_local_3: 
+0.67666482755310220 a4_x4
+1.35498272148100130 a4_x5
+1.47783652892986161 a4_x6
<= 176.648404

a4_local_4: 
+0.99027006515845539 a4_x6
+1.25473500900512502 a4_x2
+0.79698103011638810 a4_x4
<= 166.444865

a4_local_5: 
+0.85191403797391785 a4_x3
+0.92599852333938204 a4_x6
+1.17382735279051209 a4_x1
<= 205.023491

a4_local_6: 
+0.74893010630541257 a4_x5
+1.33523808374209119 a4_x6
+0.97931843461311563 a4_x2
<= 179.525378

a4_local_7: 
+1.49169434739858997 a4_x4
+0.67037862129324932 a4_x3
+1.05660282855996623 a4_x2
<= 204.938855

a4_local_8: 
+1.46106945467873017 a4_x3
+0.68443015956410291 a4_x6
+1.21604159996680861 a4_x2
<= 223.838007

a4_act_1: 
+0.10000000000000001 a4_x1
-10.00000000000000000 a4_z1
<= 0.000000

a4_act_2: 
+0.10000000000000001 a4_x2
-10.00000000000000000 a4_z2
<= 0.000000

coupling_1: 
+0.00005961533562090 a1_x1
+0.00177526931850704 a2_x1
+0.04471654166109559 a3_x1
+0.99893796792301948 a4_x1
+0.00775280621963133 short_1
-0.00775280621963133 surp_1
= 61.908527

coupling_2: 
+0.00011601318939577 a1_x2
+0.00199678721552913 a2_x2
+0.05671496039930313 a3_x2
+0.99832072180069387 a4_x2
+0.00822037322763426 short_2
-0.00822037322763426 surp_2
= 69.294522

coupling_3: 
+0.00011422357901920 a1_x3
+0.00229956074568276 a2_x3
+0.03686486835938004 a3_x3
+0.99922033291635060 a4_x3
+0.00985917696194195 short_3
-0.00985917696194195 surp_3
= 69.220316

bounds
  0.000000 <= a1_x1 <= 100.000000
  0.000000 <= a1_x2 <= 100.000000
  0.000000 <= a1_x3 <= 100.000000
  0.000000 <= a1_x4 <= 100.000000
  0.000000 <= a1_x5 <= 100.000000
  0.000000 <= a1_x6 <= 100.000000
  0.000000 <= a2_x1 <= 100.000000
  0.000000 <= a2_x2 <= 100.000000
  0.000000 <= a2_x3 <= 100.000000
  0.000000 <= a2_x4 <= 100.000000
  0.000000 <= a2_x5 <= 100.000000
  0.000000 <= a2_x6 <= 100.000000
  0.000000 <= a3_x1 <= 100.000000
  0.000000 <= a3_x2 <= 100.000000
  0.000000 <= a3_x3 <= 100.000000
  0.000000 <= a3_x4 <= 100.000000
  0.000000 <= a3_x5 <= 100.000000
  0.000000 <= a3_x6 <= 100.000000
  0.000000 <= a4_x1 <= 100.000000
  0.000000 <= a4_x2 <= 100.000000
  0.000000 <= a4_x3 <= 100.000000
  0.000000 <= a4_x4 <= 100.000000
  0.000000 <= a4_x5 <= 100.000000
  0.000000 <= a4_x6 <= 100.000000
  0.000000 <= short_1 <= +inf
  0.000000 <= surp_1 <= +inf
  0.000000 <= short_2 <= +inf
  0.000000 <= surp_2 <= +inf
  0.000000 <= short_3 <= +inf
  0.000000 <= surp_3 <= +inf
 0 <= a1_z1 <= 1
 0 <= a1_z2 <= 1
 0 <= a2_z1 <= 1
 0 <= a2_z2 <= 1
 0 <= a3_z1 <= 1
 0 <= a3_z2 <= 1
 0 <= a4_z1 <= 1
 0 <= a4_z2 <= 1

binary
  a1_z1
  a1_z2
  a2_z1
  a2_z2
  a3_z1
  a3_z2
  a4_z1
  a4_z2
end
