min
obj: 
  +1.85914319529187777 a1_x1
  +3.32311090405199927 a1_x2
  +9.20870591814637862 a1_x3
  +9.62032466035919853 a1_x4
  +2.65221673698665317 a1_x5
  +9.19424318038364063 a1_x6
  +15.23159126469524693 a1_z1
  +37.87053616888882601 a1_z2
  +9.50992409015265672 a2_x1
  +7.57539983332453648 a2_x2
  +7.25458697589536605 a2_x3
  +4.07761765395989872 a2_x4
  +7.08231795774132511 a2_x5
  +8.34807126494008500 a2_x6
  +13.29578844905750223 a2_z1
  +34.63921833196101829 a2_z2
  +8.76504266892960793 a3_x1
  +7.77977201232387294 a3_x2
  +6.04838547653606717 a3_x3
  +6.48681552366104786 a3_x4
  +7.59141867997845843 a3_x5
  +2.66707871930021945 a3_x6
  +17.07642873173313092 a3_z1
  +32.16693189471635606 a3_z2
  +3.95786841150633606 a4_x1
  +4.77265222387028487 a4_x2
  +6.62265288598760282 a4_x3
  +9.50730455200969438 a4_x4
  +5.10859874083684673 a4_x5
  +6.19908634988090146 a4_x6
  +14.10084107909216655 a4_z1
  +36.13532285979064795 a4_z2
  +1000000.00000000000000000 short_1
  +1000000.00000000000000000 surp_1
  +1000000.00000000000000000 short_2
  +1000000.00000000000000000 surp_2
  +1000000.00000000000000000 short_3
  +1000000.00000000000000000 surp_3

s.t.

a1_local_1: 
+0.00894643314449356 a1_x5
+0.00635358487436520 a1_x4
+0.00858363124558578 a1_x3
<= 0.852622

a1_local_2: 
+0.01277112042209171 a1_x2
+0.00868113116442125 a1_x4
+0.00990257822613632 a1_x3
<= 2.111418

a1_local_3: 
+0.01106717930055985 a1_x1
+0.00657222972948278 a1_x6
+0.01317673693899968 a1_x3
<= 1.278309

a1_local_4: 
+0.01313948938872420 a1_x3
+0.01313032178279503 a1_x6
+0.01394361387826211 a1_x5
<= 2.395466

a1_local_5: 
+0.01198812467565149 a1_x2
+0.01170243943855739 a1_x3
+0.01098002246555117 a1_x5
<= 1.152261

a1_local_6: 
+0.01361360813836612 a1_x4
+0.01498239128979580 a1_x3
+0.01374714362291547 a1_x2
<= 2.766477

a1_local_7: 
+0.00807406164132659 a1_x6
+0.00815004070853969 a1_x4
+0.00658304599383064 a1_x5
<= 1.523203

a1_local_8: 
+0.00977057575728271 a1_x3
+0.01356848239594952 a1_x4
+0.00666354916647502 a1_x2
<= 2.059739

a1_act_1: 
+1.00000000000000000 a1_x1
-100.00000000000000000 a1_z1
<= 0.000000

a1_act_2: 
+1.00000000000000000 a1_x2
-100.00000000000000000 a1_z2
<= 0.000000

a2_local_1: 
+0.23737388165685852 a2_x5
+0.28976664644406114 a2_x1
+0.12181856999075731 a2_x3
<= 41.756673

a2_local_2: 
+0.24134323456578641 a2_x3
+0.22265403318157642 a2_x1
+0.27851345593101340 a2_x2
<= 44.448876

a2_local_3: 
+0.17321560989995410 a2_x4
+0.23445624434686604 a2_x6
+0.23958365950668661 a2_x2
<= 21.306334

a2_local_4: 
+0.31041178322239127 a2_x5
+0.25333592377402947 a2_x2
+0.19262018017774893 a2_x3
<= 41.130254

a2_local_5: 
+0.29600719351001215 a2_x2
+0.26335303962612805 a2_x1
+0.24056216077068612 a2_x5
<= 26.586649

a2_local_6: 
+0.11364057087252194 a2_x4
+0.31985355484817302 a2_x3
+0.21819378649986132 a2_x2
<= 45.517773

a2_local_7: 
+0.22612710883421266 a2_x1
+0.24543479729224604 a2_x4
+0.11947240943391202 a2_x6
<= 29.657756

a2_local_8: 
+0.16147518977143038 a2_x4
+0.16082162821731882 a2_x5
+0.20345689578652906 a2_x1
<= 32.613689

a2_act_1: 
+1.00000000000000000 a2_x1
-100.00000000000000000 a2_z1
<= 0.000000

a2_act_2: 
+1.00000000000000000 a2_x2
-100.00000000000000000 a2_z2
<= 0.000000

a3_local_1: 
+5.12817493796218749 a3_x3
+3.14065321765048777 a3_x2
+2.72078284433865925 a3_x1
<= 636.892748

a3_local_2: 
+6.39916920323226890 a3_x3
+2.48165070496683793 a3_x5
+4.49822493558223346 a3_x1
<= 786.697713

a3_local_3: 
+3.44537753209068276 a3_x1
+3.04799843206157606 a3_x6
+2.85619752029646490 a3_x5
<= 532.312080

a3_local_4: 
+4.40671150659970756 a3_x4
+3.14881562088348499 a3_x5
+5.37075134117539399 a3_x3
<= 439.065302

a3_local_5: 
+2.86001795644677070 a3_x5
+3.47146165842011234 a3_x2
+2.73235221454411326 a3_x3
<= 313.892051

a3_local_6: 
+3.70044262186889439 a3_x1
+4.74882718279558347 a3_x4
+6.24472281676039565 a3_x6
<= 731.001536

a3_local_7: 
+4.48866688143244374 a3_x2
+5.00548225533340929 a3_x6
+4.66087460398779818 a3_x3
<= 844.887768

a3_local_8: 
+6.51385229417880129 a3_x4
+5.69834758081610016 a3_x3
+2.74282449768667602 a3_x1
<= 653.030522

a3_act_1: 
+1.00000000000000000 a3_x1
-100.00000000000000000 a3_z1
<= 0.000000

a3_act_2: 
+1.00000000000000000 a3_x2
-100.00000000000000000 a3_z2
<= 0.000000

a4_local_1: 
+67.45984459005038048 a4_x4
+135.46757298857303908 a4_x1
+75.60010979212476911 a4_x2
<= 9775.621154

a4_local_2: 
+92.14301242436570760 a4_x5
+84.72641343194426611 a4_x4
+54.06201799941795372 a4_x1
<= 7496.199045

a4_local_3: 
+147.49173049235579924 a4_x1
+66.46893601915810734 a4_x2
+85.46766153757189954 a4_x4
<= 11878.834243

a4_local_4: 
+126.31070872433252816 a4_x6
+62.34350342977629111 a4_x3
+142.56406853310159022 a4_x4
<= 14314.559456

a4_local_5: 
+50.03204168375408045 a4_x6
+137.23199515990120290 a4_x3
+121.75659311910547444 a4_x5
<= 9650.262300

a4_local_6: 
+71.49482573660684182 a4_x4
+73.48775055255478605 a4_x1
+108.50815552886656690 a4_x5
<= 12643.272184

a4_local_7: 
+58.90230885163019536 a4_x1
+59.78649832561622190 a4_x2
+131.71739841778645541 a4_x3
<= 12823.331885

a4_local_8: 
+75.31012195796471076 a4_x2
+102.18419378822585486 a4_x3
+71.73405165388103910 a4_x4
<= 16375.075241

a4_act_1: 
+1.00000000000000000 a4_x1
-100.00000000000000000 a4_z1
<= 0.000000

a4_act_2: 
+1.00000000000000000 a4_x2
-100.00000000000000000 a4_z2
<= 0.000000

coupling_1: 
+0.00000003900665884 a1_x1
+0.00000109377609544 a2_x1
+0.00002782588127215 a3_x1
+0.00068659425222486 a4_x1
+0.00000606099272062 short_1
-0.00000606099272062 surp_1
= 0.055382

coupling_2: 
+0.00000005719649695 a1_x2
+0.00000114340111184 a2_x2
+0.00002915701089185 a3_x2
+0.00060456714158901 a4_x2
+0.00000606099272062 short_2
-0.00000606099272062 surp_2
= 0.028125

coupling_3: 
+0.00000008384468364 a1_x3
+0.00000190301041206 a2_x3
+0.00002557500554027 a3_x3
+0.00090665738008345 a4_x3
+0.00000606099272062 short_3
-0.00000606099272062 surp_3
= 0.065361

bounds
  0.000000 <= a1_x1 <= 100.000000
  0.000000 <= a1_x2 <= 100.000000
  0.000000 <= a1_x3 <= 100.000000
  0.000000 <= a1_x4 <= 100.000000
  0.000000 <= a1_x5 <= 100.000000
  0.000000 <= a1_x6 <= 100.000000
  0.000000 <= a2_x1 <= 100.000000
  0.000000 <= a2_x2 <= 100.000000
  0.000000 <= a2_x3 <= 100.000000
  0.000000 <= a2_x4 <= 100.000000
  0.000000 <= a2_x5 <= 100.000000
  0.000000 <= a2_x6 <= 100.000000
  0.000000 <= a3_x1 <= 100.000000
  0.000000 <= a3_x2 <= 100.000000
  0.000000 <= a3_x3 <= 100.000000
  0.000000 <= a3_x4 <= 100.000000
  0.000000 <= a3_x5 <= 100.000000
  0.000000 <= a3_x6 <= 100.000000
  0.000000 <= a4_x1 <= 100.000000
  0.000000 <= a4_x2 <= 100.000000
  0.000000 <= a4_x3 <= 100.000000
  0.000000 <= a4_x4 <= 100.000000
  0.000000 <= a4_x5 <= 100.000000
  0.000000 <= a4_x6 <= 100.000000
  0.000000 <= short_1 <= +inf
  0.000000 <= surp_1 <= +inf
  0.000000 <= short_2 <= +inf
  0.000000 <= surp_2 <= +inf
  0.000000 <= short_3 <= +inf
  0.000000 <= surp_3 <= +inf
 0 <= a1_z1 <= 1
 0 <= a1_z2 <= 1
 0 <= a2_z1 <= 1
 0 <= a2_z2 <= 1
 0 <= a3_z1 <= 1
 0 <= a3_z2 <= 1
 0 <= a4_z1 <= 1
 0 <= a4_z2 <= 1

binary
  a1_z1
  a1_z2
  a2_z1
  a2_z2
  a3_z1
  a3_z2
  a4_z1
  a4_z2
end
