min
obj: 
  +4.61217347674817457 a1_x1
  +8.37266539443051627 a1_x2
  +3.88741117842564377 a1_x3
  +3.57352147071314707 a1_x4
  +7.90632682258909369 a1_x5
  +6.50433465125659094 a1_x6
  +46.95512094955829951 a1_z1
  +19.80665349763778238 a1_z2
  +7.65671715801393571 a2_x1
  +8.20437447093011585 a2_x2
  +3.61886914738285226 a2_x3
  +5.28592570462095690 a2_x4
  +3.39477691808076010 a2_x5
  +2.52109627660840552 a2_x6
  +31.13088232979415793 a2_z1
  +23.01056128172705328 a2_z2
  +6.98746639113835144 a3_x1
  +2.08920162411281263 a3_x2
  +9.36108080061404380 a3_x3
  +4.85098195997041159 a3_x4
  +1.72431460157976346 a3_x5
  +7.00389344376385736 a3_x6
  +33.01267747284549614 a3_z1
  +8.00105962872783749 a3_z2
  +6.42161923356443864 a4_x1
  +2.38773349159600956 a4_x2
  +7.47586240964883597 a4_x3
  +7.41060969147519710 a4_x4
  +8.58602476997859654 a4_x5
  +3.43257573175068753 a4_x6
  +23.31726507162430551 a4_z1
  +25.04248719439813797 a4_z2
  +1000000.00000000000000000 short_1
  +1000000.00000000000000000 surp_1
  +1000000.00000000000000000 short_2
  +1000000.00000000000000000 surp_2
  +1000000.00000000000000000 short_3
  +1000000.00000000000000000 surp_3

s.t.

a1_local_1: 
+0.01290607567166612 a1_x1
+0.01146724854267124 a1_x6
+0.01253513655158212 a1_x2
<= 2.246533

a1_local_2: 
+0.01055480606974544 a1_x4
+0.00792732656204651 a1_x6
+0.00729176409408008 a1_x2
<= 0.965760

a1_local_3: 
+0.01472249135398143 a1_x2
+0.01417562056028477 a1_x1
+0.00667041981827620 a1_x5
<= 1.366847

a1_local_4: 
+0.01488898757558407 a1_x1
+0.00765693098331910 a1_x2
+0.00592711346691602 a1_x4
<= 0.898882

a1_local_5: 
+0.00922241088612906 a1_x2
+0.00599498885880886 a1_x6
+0.00665484860463217 a1_x3
<= 0.766807

a1_local_6: 
+0.01314459482056692 a1_x4
+0.01122535029781292 a1_x6
+0.00966109773194892 a1_x1
<= 1.862939

a1_local_7: 
+0.00982480487860094 a1_x1
+0.00500343239926264 a1_x5
+0.01305502350766278 a1_x6
<= 1.546026

a1_local_8: 
+0.01433093527179520 a1_x2
+0.00840674742277464 a1_x1
+0.01055382772245319 a1_x4
<= 1.766606

a1_act_1: 
+1.00000000000000000 a1_x1
-100.00000000000000000 a1_z1
<= 0.000000

a1_act_2: 
+1.00000000000000000 a1_x2
-100.00000000000000000 a1_z2
<= 0.000000

a2_local_1: 
+0.24954467943807185 a2_x4
+0.29615767446211622 a2_x2
+0.23637255249569869 a2_x6
<= 29.212236

a2_local_2: 
+0.11907684876301175 a2_x2
+0.23813301552591390 a2_x6
+0.15677499505875972 a2_x5
<= 24.990956

a2_local_3: 
+0.25638747576578313 a2_x2
+0.18962956189367389 a2_x1
+0.27018024201629071 a2_x3
<= 23.920713

a2_local_4: 
+0.20132770131500413 a2_x3
+0.23329173389944624 a2_x2
+0.29658193724858167 a2_x4
<= 44.484595

a2_local_5: 
+0.16664654923996713 a2_x2
+0.23222594331460619 a2_x5
+0.30889450097263521 a2_x6
<= 43.273746

a2_local_6: 
+0.30910520966661253 a2_x6
+0.28154169459691719 a2_x5
+0.24789975651875018 a2_x1
<= 38.569761

a2_local_7: 
+0.15314705749223745 a2_x5
+0.16920873276373505 a2_x4
+0.14687308311607883 a2_x3
<= 24.284047

a2_local_8: 
+0.18113064842450569 a2_x6
+0.14763682098582023 a2_x4
+0.17279948353550612 a2_x3
<= 15.055584

a2_act_1: 
+1.00000000000000000 a2_x1
-100.00000000000000000 a2_z1
<= 0.000000

a2_act_2: 
+1.00000000000000000 a2_x2
-100.00000000000000000 a2_z2
<= 0.000000

a3_local_1: 
+5.17906562904449164 a3_x2
+4.56856513910907402 a3_x1
+2.69323568102429567 a3_x6
<= 744.780408

a3_local_2: 
+6.43719448193206212 a3_x3
+2.56045148123631972 a3_x5
+3.17254720773802434 a3_x6
<= 695.764596

a3_local_3: 
+3.20465456425650297 a3_x4
+3.36739657067993825 a3_x5
+2.48376916820197202 a3_x3
<= 573.045042

a3_local_4: 
+4.76854715156531928 a3_x1
+2.45413193448940570 a3_x5
+4.85612539214994943 a3_x6
<= 558.888638

a3_local_5: 
+4.78322092745004834 a3_x3
+4.13951125139694032 a3_x5
+3.21254201096477532 a3_x1
<= 434.688180

a3_local_6: 
+5.28006602140550907 a3_x3
+5.52929990158769602 a3_x4
+2.80270192812380525 a3_x6
<= 419.151371

a3_local_7: 
+4.58579539326158425 a3_x2
+6.71417916820315508 a3_x3
+5.60223315298402014 a3_x1
<= 902.193833

a3_local_8: 
+4.71241151207985975 a3_x1
+4.74409214495103093 a3_x3
+3.33815194291694972 a3_x5
<= 469.326259

a3_act_1: 
+1.00000000000000000 a3_x1
-100.00000000000000000 a3_z1
<= 0.000000

a3_act_2: 
+1.00000000000000000 a3_x2
-100.00000000000000000 a3_z2
<= 0.000000

a4_local_1: 
+146.57794852031415189 a4_x4
+129.94366992459976018 a4_x2
+53.59034944583831361 a4_x6
<= 23069.988634

a4_local_2: 
+66.21578191334370445 a4_x5
+61.31859781533265163 a4_x6
+72.47674071927397677 a4_x2
<= 9520.445525

a4_local_3: 
+135.06309721080563691 a4_x1
+137.85670775857755643 a4_x3
+97.33383759785169786 a4_x6
<= 18958.567136

a4_local_4: 
+112.65438555262686293 a4_x5
+106.16597028209291409 a4_x1
+62.30814745490940254 a4_x6
<= 13908.637816

a4_local_5: 
+50.58192092992000966 a4_x5
+92.67972827638195099 a4_x1
+110.36065840089280243 a4_x6
<= 16763.061653

a4_local_6: 
+131.49184448795239177 a4_x6
+108.43883221419119423 a4_x1
+149.07222653504237542 a4_x5
<= 18448.606913

a4_local_7: 
+120.74929441352027482 a4_x2
+149.27256867998519851 a4_x6
+59.03292474421824210 a4_x1
<= 17375.446007

a4_local_8: 
+92.28961247647492883 a4_x2
+104.38199234269862359 a4_x3
+98.60514493727011143 a4_x6
<= 10702.971343

a4_act_1: 
+1.00000000000000000 a4_x1
-100.00000000000000000 a4_z1
<= 0.000000

a4_act_2: 
+1.00000000000000000 a4_x2
-100.00000000000000000 a4_z2
<= 0.000000

coupling_1: 
+0.00000341924196210 a1_x1
+0.00007858197956613 a2_x1
+0.00155348798167460 a3_x1
+0.03570344495856125 a4_x1
+0.00030857733017268 short_1
-0.00030857733017268 surp_1
= 1.524497

coupling_2: 
+0.00000212660460969 a1_x2
+0.00005277301663546 a2_x2
+0.00117490610098319 a3_x2
+0.03721993111738078 a4_x2
+0.00030857733017268 short_2
-0.00030857733017268 surp_2
= 1.531779

coupling_3: 
+0.00000185320836803 a1_x3
+0.00006158201998004 a2_x3
+0.00104250774816918 a3_x3
+0.02462916824059030 a4_x3
+0.00030857733017268 short_3
-0.00030857733017268 surp_3
= 0.606290

bounds
  0.000000 <= a1_x1 <= 100.000000
  0.000000 <= a1_x2 <= 100.000000
  0.000000 <= a1_x3 <= 100.000000
  0.000000 <= a1_x4 <= 100.000000
  0.000000 <= a1_x5 <= 100.000000
  0.000000 <= a1_x6 <= 100.000000
  0.000000 <= a2_x1 <= 100.000000
  0.000000 <= a2_x2 <= 100.000000
  0.000000 <= a2_x3 <= 100.000000
  0.000000 <= a2_x4 <= 100.000000
  0.000000 <= a2_x5 <= 100.000000
  0.000000 <= a2_x6 <= 100.000000
  0.000000 <= a3_x1 <= 100.000000
  0.000000 <= a3_x2 <= 100.000000
  0.000000 <= a3_x3 <= 100.000000
  0.000000 <= a3_x4 <= 100.000000
  0.000000 <= a3_x5 <= 100.000000
  0.000000 <= a3_x6 <= 100.000000
  0.000000 <= a4_x1 <= 100.000000
  0.000000 <= a4_x2 <= 100.000000
  0.000000 <= a4_x3 <= 100.000000
  0.000000 <= a4_x4 <= 100.000000
  0.000000 <= a4_x5 <= 100.000000
  0.000000 <= a4_x6 <= 100.000000
  0.000000 <= short_1 <= +inf
  0.000000 <= surp_1 <= +inf
  0.000000 <= short_2 <= +inf
  0.000000 <= surp_2 <= +inf
  0.000000 <= short_3 <= +inf
  0.000000 <= surp_3 <= +inf
 0 <= a1_z1 <= 1
 0 <= a1_z2 <= 1
 0 <= a2_z1 <= 1
 0 <= a2_z2 <= 1
 0 <= a3_z1 <= 1
 0 <= a3_z2 <= 1
 0 <= a4_z1 <= 1
 0 <= a4_z2 <= 1

binary
  a1_z1
  a1_z2
  a2_z1
  a2_z2
  a3_z1
  a3_z2
  a4_z1
  a4_z2
end
