min
obj: 
  +8.52421046785006808 a1_x1
  +7.69307565210918742 a1_x2
  +6.91899621560824230 a1_x3
  +9.20970734213053355 a1_x4
  +1.67836132765545631 a1_x5
  +5.99146020770216658 a1_x6
  +31.08072985890714435 a1_z1
  +20.88386702402789297 a1_z2
  +6.90777420422215815 a2_x1
  +5.08754459362986733 a2_x2
  +7.59170235780382363 a2_x3
  +8.27944903727416381 a2_x4
  +1.03512879040065853 a2_x5
  +5.78577237729060112 a2_x6
  +23.93421358976911506 a2_z1
  +21.52150514949614646 a2_z2
  +3.33875162916421697 a3_x1
  +6.11068986646011059 a3_x2
  +6.55082117265498010 a3_x3
  +5.19513264683116827 a3_x4
  +3.93701514527552376 a3_x5
  +3.37060916575937597 a3_x6
  +38.53959756350231913 a3_z1
  +26.75553244557287869 a3_z2
  +8.54382197580174818 a4_x1
  +7.14956107064012691 a4_x2
  +5.56590579337685210 a4_x3
  +2.52647125500070402 a4_x4
  +2.35011295395534869 a4_x5
  +8.78080461108212518 a4_x6
  +7.45391026181894656 a4_z1
  +36.01444945313909329 a4_z2
  +1000000.00000000000000000 short_1
  +1000000.00000000000000000 surp_1
  +1000000.00000000000000000 short_2
  +1000000.00000000000000000 surp_2
  +1000000.00000000000000000 short_3
  +1000000.00000000000000000 surp_3

s.t.

a1_local_1: 
+0.31767435258855226 a1_x6
+0.68436751439391030 a1_x2
+0.65629574960511927 a1_x4
<= 58.492373

a1_local_2: 
+0.71851210683700539 a1_x5
+0.43740103016539977 a1_x2
+0.54075936528080093 a1_x1
<= 66.230323

a1_local_3: 
+0.65568466547549042 a1_x4
+0.43558837821792024 a1_x2
+0.61671742655917916 a1_x1
<= 72.037781

a1_local_4: 
+0.38622882175506779 a1_x4
+0.72437241943248831 a1_x2
+0.57106207649537977 a1_x6
<= 66.841979

a1_local_5: 
+0.62525545523963932 a1_x5
+0.66502426339881282 a1_x2
+0.40840953072123320 a1_x1
<= 64.124917

a1_local_6: 
+0.77489866536947238 a1_x2
+0.54073199048895915 a1_x5
+0.32732395706770173 a1_x6
<= 55.124801

a1_local_7: 
+0.68611686944046657 a1_x3
+0.52140972845607847 a1_x4
+0.50732192594108561 a1_x6
<= 93.409479

a1_local_8: 
+0.49376987604709488 a1_x6
+0.55164255586726163 a1_x2
+0.67222154091093489 a1_x5
<= 110.278031

a1_act_1: 
+0.00999950003749688 a1_x1
-0.99995000374968757 a1_z1
<= 0.000000

a1_act_2: 
+0.00999950003749688 a1_x2
-0.99995000374968757 a1_z2
<= 0.000000

a2_local_1: 
+0.56289512722260826 a2_x6
+0.63606051392446661 a2_x3
+0.52780308674276144 a2_x2
<= 55.252691

a2_local_2: 
+0.45423045356038866 a2_x5
+0.69663977101146535 a2_x3
+0.55530867497583403 a2_x2
<= 115.971405

a2_local_3: 
+0.47785632872431477 a2_x3
+0.64570786611247999 a2_x5
+0.59557928165659635 a2_x4
<= 77.571547

a2_local_4: 
+0.70224563162039333 a2_x3
+0.47833865743902121 a2_x5
+0.52729801978531055 a2_x4
<= 113.443764

a2_local_5: 
+0.61266458497935938 a2_x3
+0.45877397385008217 a2_x1
+0.64355928027639642 a2_x2
<= 113.649161

a2_local_6: 
+0.53805841436630830 a2_x3
+0.66623024124443775 a2_x6
+0.51636267136673641 a2_x5
<= 67.979128

a2_local_7: 
+0.66085499873819809 a2_x4
+0.62848011400339387 a2_x5
+0.41022361821940123 a2_x2
<= 84.865112

a2_local_8: 
+0.48587160219796111 a2_x4
+0.67622267057212526 a2_x2
+0.55376139806047253 a2_x1
<= 83.050317

a2_act_1: 
+0.00999950003749688 a2_x1
-0.99995000374968757 a2_z1
<= 0.000000

a2_act_2: 
+0.00999950003749688 a2_x2
-0.99995000374968757 a2_z2
<= 0.000000

a3_local_1: 
+0.59340913264010042 a3_x6
+0.52646250251847337 a3_x1
+0.60885370553303697 a3_x5
<= 77.845884

a3_local_2: 
+0.45436703455959238 a3_x4
+0.67724410283979541 a3_x2
+0.57869769575681118 a3_x6
<= 105.481974

a3_local_3: 
+0.54999761193649499 a3_x3
+0.64547884568449709 a3_x2
+0.52996196716175925 a3_x6
<= 53.928377

a3_local_4: 
+0.59332144269544351 a3_x2
+0.53291441018323282 a3_x3
+0.60330083462303818 a3_x5
<= 99.822852

a3_local_5: 
+0.56496609094671768 a3_x6
+0.28733954843320081 a3_x1
+0.77346577169684072 a3_x5
<= 102.561231

a3_local_6: 
+0.72897904951470371 a3_x6
+0.29319082280762349 a3_x2
+0.61856987219717385 a3_x1
<= 108.050434

a3_local_7: 
+0.54362729812664101 a3_x2
+0.48780284547847996 a3_x1
+0.68302104262945396 a3_x6
<= 89.730204

a3_local_8: 
+0.45456016235262348 a3_x1
+0.64967499502156922 a3_x5
+0.60934182496007983 a3_x4
<= 54.578124

a3_act_1: 
+0.00999950003749688 a3_x1
-0.99995000374968757 a3_z1
<= 0.000000

a3_act_2: 
+0.00999950003749688 a3_x2
-0.99995000374968757 a3_z2
<= 0.000000

a4_local_1: 
+0.44300546256322271 a4_x3
+0.76618582054556195 a4_x5
+0.46551632466978971 a4_x6
<= 70.123976

a4_local_2: 
+0.64504074541122014 a4_x4
+0.44552629876231048 a4_x3
+0.62082908587669605 a4_x2
<= 53.103032

a4_local_3: 
+0.48971566141876238 a4_x5
+0.79548122065657356 a4_x6
+0.35691483374036420 a4_x4
<= 90.496106

a4_local_4: 
+0.53313371780735686 a4_x1
+0.42144154845345616 a4_x3
+0.73359079886136724 a4_x6
<= 53.254806

a4_local_5: 
+0.60919649902902573 a4_x6
+0.39663202287619459 a4_x5
+0.68670420415191602 a4_x1
<= 105.757641

a4_local_6: 
+0.28731401903644355 a4_x4
+0.52803727872746331 a4_x1
+0.79914159367362514 a4_x3
<= 73.192751

a4_local_7: 
+0.54054569515441209 a4_x6
+0.57517152458615106 a4_x2
+0.61399354129768824 a4_x1
<= 91.958965

a4_local_8: 
+0.30893686338341503 a4_x3
+0.73265373068489492 a4_x2
+0.60644581403149489 a4_x6
<= 111.073850

a4_act_1: 
+0.00999950003749688 a4_x1
-0.99995000374968757 a4_z1
<= 0.000000

a4_act_2: 
+0.00999950003749688 a4_x2
-0.99995000374968757 a4_z2
<= 0.000000

coupling_1: 
+0.00011063793471463 a1_x1
+0.00230436896731414 a2_x1
+0.11429860924883996 a3_x1
+0.99305135031700853 a4_x1
+0.01974235548581509 short_1
-0.01974235548581509 surp_1
= 80.075450

coupling_2: 
+0.00006130324790643 a1_x2
+0.00160477266733075 a2_x2
+0.05010700317545418 a3_x2
+0.99867569405470624 a4_x2
+0.00817212590835704 short_2
-0.00817212590835704 surp_2
= 34.892708

coupling_3: 
+0.00005179535848000 a1_x3
+0.00130587044282836 a2_x3
+0.04102727653161156 a3_x3
+0.99906958814083646 a4_x3
+0.00935448160310353 short_3
-0.00935448160310353 surp_3
= 24.231491

bounds
  0.000000 <= a1_x1 <= 100.000000
  0.000000 <= a1_x2 <= 100.000000
  0.000000 <= a1_x3 <= 100.000000
  0.000000 <= a1_x4 <= 100.000000
  0.000000 <= a1_x5 <= 100.000000
  0.000000 <= a1_x6 <= 100.000000
  0.000000 <= a2_x1 <= 100.000000
  0.000000 <= a2_x2 <= 100.000000
  0.000000 <= a2_x3 <= 100.000000
  0.000000 <= a2_x4 <= 100.000000
  0.000000 <= a2_x5 <= 100.000000
  0.000000 <= a2_x6 <= 100.000000
  0.000000 <= a3_x1 <= 100.000000
  0.000000 <= a3_x2 <= 100.000000
  0.000000 <= a3_x3 <= 100.000000
  0.000000 <= a3_x4 <= 100.000000
  0.000000 <= a3_x5 <= 100.000000
  0.000000 <= a3_x6 <= 100.000000
  0.000000 <= a4_x1 <= 100.000000
  0.000000 <= a4_x2 <= 100.000000
  0.000000 <= a4_x3 <= 100.000000
  0.000000 <= a4_x4 <= 100.000000
  0.000000 <= a4_x5 <= 100.000000
  0.000000 <= a4_x6 <= 100.000000
  0.000000 <= short_1 <= +inf
  0.000000 <= surp_1 <= +inf
  0.000000 <= short_2 <= +inf
  0.000000 <= surp_2 <= +inf
  0.000000 <= short_3 <= +inf
  0.000000 <= surp_3 <= +inf
 0 <= a1_z1 <= 1
 0 <= a1_z2 <= 1
 0 <= a2_z1 <= 1
 0 <= a2_z2 <= 1
 0 <= a3_z1 <= 1
 0 <= a3_z2 <= 1
 0 <= a4_z1 <= 1
 0 <= a4_z2 <= 1

binary
  a1_z1
  a1_z2
  a2_z1
  a2_z2
  a3_z1
  a3_z2
  a4_z1
  a4_z2
end
