min
obj: 
  +8.05560131874530505 a1_x1
  +1.97423451738110156 a1_x2
  +4.43855917145081946 a1_x3
  +2.09177435273224699 a1_x4
  +8.36067334918018190 a1_x5
  +3.13328512039077767 a1_x6
  +12.32473257168471292 a1_z1
  +43.38047102379790942 a1_z2
  +7.63381403352449350 a2_x1
  +9.96116936913966633 a2_x2
  +9.94077753687388643 a2_x3
  +8.29981383037531018 a2_x4
  +5.15933962158974069 a2_x5
  +2.23730116212215036 a2_x6
  +36.51341922859109701 a2_z1
  +11.46217618633665936 a2_z2
  +8.77356431574039775 a3_x1
  +3.66477499322525757 a3_x2
  +8.98940674965133013 a3_x3
  +1.83133745097963319 a3_x4
  +5.96614000496332153 a3_x5
  +2.35435503869091178 a3_x6
  +18.83602233642604062 a3_z1
  +16.87083221217522322 a3_z2
  +7.85154573325681415 a4_x1
  +9.06414056673653157 a4_x2
  +3.88034584638911362 a4_x3
  +5.56052955494331336 a4_x4
  +7.24881590451171665 a4_x5
  +9.98170521647477038 a4_x6
  +15.56555023854576802 a4_z1
  +24.43179263140065771 a4_z2
  +1000000.00000000000000000 short_1
  +1000000.00000000000000000 surp_1
  +1000000.00000000000000000 short_2
  +1000000.00000000000000000 surp_2
  +1000000.00000000000000000 short_3
  +1000000.00000000000000000 surp_3

s.t.

a1_local_1: 
+0.01362545069983316 a1_x2
+0.00573559980764856 a1_x5
+0.00728038132778359 a1_x3
<= 1.280238

a1_local_2: 
+0.00552156261865570 a1_x6
+0.01101458929667781 a1_x4
+0.00960535111719752 a1_x2
<= 1.118812

a1_local_3: 
+0.00866286930245066 a1_x5
+0.01161065462493574 a1_x3
+0.00516335373899358 a1_x4
<= 1.169735

a1_local_4: 
+0.00519869877923159 a1_x6
+0.01258156184161904 a1_x1
+0.01495737698788297 a1_x4
<= 1.023783

a1_local_5: 
+0.01285315092502223 a1_x3
+0.01165216019819673 a1_x4
+0.00876114041561592 a1_x1
<= 1.050650

a1_local_6: 
+0.00747513572271229 a1_x3
+0.01052493658154783 a1_x5
+0.00632189944331762 a1_x1
<= 1.009848

a1_local_7: 
+0.00777087031047569 a1_x3
+0.01472051543132147 a1_x6
+0.00594987975246790 a1_x5
<= 1.696319

a1_local_8: 
+0.00733833719167406 a1_x5
+0.00999165571911060 a1_x6
+0.00526757767755796 a1_x2
<= 1.503786

a1_act_1: 
+1.00000000000000000 a1_x1
-100.00000000000000000 a1_z1
<= 0.000000

a1_act_2: 
+1.00000000000000000 a1_x2
-100.00000000000000000 a1_z2
<= 0.000000

a2_local_1: 
+0.12438371508038815 a2_x1
+0.15882604960805602 a2_x6
+0.18392991719546570 a2_x5
<= 14.420513

a2_local_2: 
+0.31087503384130694 a2_x2
+0.13174846762325290 a2_x4
+0.29955870725773748 a2_x3
<= 49.877087

a2_local_3: 
+0.28454541512070847 a2_x6
+0.31264525051260073 a2_x3
+0.27411163995934945 a2_x1
<= 52.632756

a2_local_4: 
+0.28230427538412667 a2_x4
+0.29343176046026076 a2_x3
+0.27294037944661265 a2_x1
<= 33.853004

a2_local_5: 
+0.15946831748310236 a2_x3
+0.12638454045678918 a2_x5
+0.13266782396754284 a2_x2
<= 19.168085

a2_local_6: 
+0.16624524888694245 a2_x6
+0.13219225462483111 a2_x4
+0.28244893317638209 a2_x1
<= 26.453648

a2_local_7: 
+0.20069797212248824 a2_x2
+0.28766703175409564 a2_x1
+0.20863205185126774 a2_x6
<= 39.640772

a2_local_8: 
+0.30446679216388128 a2_x3
+0.25097682618266642 a2_x4
+0.18417046625905714 a2_x6
<= 38.879598

a2_act_1: 
+1.00000000000000000 a2_x1
-100.00000000000000000 a2_z1
<= 0.000000

a2_act_2: 
+1.00000000000000000 a2_x2
-100.00000000000000000 a2_z2
<= 0.000000

a3_local_1: 
+4.93559606209962620 a3_x5
+3.36467277936973286 a3_x6
+3.96973503759462609 a3_x2
<= 688.059772

a3_local_2: 
+5.02849082826790905 a3_x4
+4.14777323661842257 a3_x6
+5.58597690696009774 a3_x1
<= 676.178659

a3_local_3: 
+2.91522035303395910 a3_x4
+2.73463709759169848 a3_x5
+6.04212904025362629 a3_x3
<= 360.544929

a3_local_4: 
+4.40359895397904211 a3_x2
+2.94989978564400968 a3_x3
+6.14242386645017024 a3_x6
<= 588.903880

a3_local_5: 
+4.20986164913064087 a3_x5
+4.83479770682327104 a3_x3
+3.83409238500300598 a3_x2
<= 447.728108

a3_local_6: 
+6.62409175898054947 a3_x1
+6.32744993705301173 a3_x5
+6.00342351593821633 a3_x3
<= 1303.988512

a3_local_7: 
+4.66352470578116840 a3_x5
+5.26934108302271476 a3_x6
+4.50581621136030819 a3_x3
<= 735.222241

a3_local_8: 
+3.34226041486157621 a3_x5
+4.56848269903464299 a3_x6
+4.13143516130796407 a3_x3
<= 499.022754

a3_act_1: 
+1.00000000000000000 a3_x1
-100.00000000000000000 a3_z1
<= 0.000000

a3_act_2: 
+1.00000000000000000 a3_x2
-100.00000000000000000 a3_z2
<= 0.000000

a4_local_1: 
+123.83584975054557731 a4_x2
+68.51911352298760960 a4_x5
+101.56442589550245259 a4_x4
<= 18325.885938

a4_local_2: 
+104.90621161313686116 a4_x4
+132.64710779025386955 a4_x1
+138.67187266417320757 a4_x3
<= 15581.744322

a4_local_3: 
+116.45687589596207090 a4_x3
+77.94806674183564610 a4_x1
+101.63654791199483896 a4_x6
<= 10292.867542

a4_local_4: 
+102.86649802573926138 a4_x2
+59.31838952099263196 a4_x3
+107.96231110516349361 a4_x5
<= 9823.653546

a4_local_5: 
+127.78799314134303700 a4_x4
+65.29177869471625684 a4_x5
+85.93365795769052795 a4_x6
<= 16190.881071

a4_local_6: 
+51.63611996220654987 a4_x2
+144.64758391664565806 a4_x4
+53.28926749400080354 a4_x3
<= 14231.494409

a4_local_7: 
+126.69083770121946486 a4_x2
+92.64630531654951540 a4_x6
+108.93692632345666027 a4_x1
<= 13625.207320

a4_local_8: 
+107.87766288911373636 a4_x5
+115.23808916613349140 a4_x4
+89.78847103891655479 a4_x2
<= 11016.807237

a4_act_1: 
+1.00000000000000000 a4_x1
-100.00000000000000000 a4_z1
<= 0.000000

a4_act_2: 
+1.00000000000000000 a4_x2
-100.00000000000000000 a4_z2
<= 0.000000

coupling_1: 
+0.00000428617457142 a1_x1
+0.00016589629298834 a2_x1
+0.00311183733560667 a3_x1
+0.04390623095681771 a4_x1
+0.00055311300183974 short_1
-0.00055311300183974 surp_1
= 3.230321

coupling_2: 
+0.00000739590038446 a1_x2
+0.00008250356604603 a2_x2
+0.00338457493774839 a3_x2
+0.04423064446411207 a4_x2
+0.00055311300183974 short_2
-0.00055311300183974 surp_2
= 3.742134

coupling_3: 
+0.00000558824948856 a1_x3
+0.00008684858486075 a2_x3
+0.00265694118285665 a3_x3
+0.08093432961837488 a4_x3
+0.00055311300183974 short_3
-0.00055311300183974 surp_3
= 5.131907

bounds
  0.000000 <= a1_x1 <= 100.000000
  0.000000 <= a1_x2 <= 100.000000
  0.000000 <= a1_x3 <= 100.000000
  0.000000 <= a1_x4 <= 100.000000
  0.000000 <= a1_x5 <= 100.000000
  0.000000 <= a1_x6 <= 100.000000
  0.000000 <= a2_x1 <= 100.000000
  0.000000 <= a2_x2 <= 100.000000
  0.000000 <= a2_x3 <= 100.000000
  0.000000 <= a2_x4 <= 100.000000
  0.000000 <= a2_x5 <= 100.000000
  0.000000 <= a2_x6 <= 100.000000
  0.000000 <= a3_x1 <= 100.000000
  0.000000 <= a3_x2 <= 100.000000
  0.000000 <= a3_x3 <= 100.000000
  0.000000 <= a3_x4 <= 100.000000
  0.000000 <= a3_x5 <= 100.000000
  0.000000 <= a3_x6 <= 100.000000
  0.000000 <= a4_x1 <= 100.000000
  0.000000 <= a4_x2 <= 100.000000
  0.000000 <= a4_x3 <= 100.000000
  0.000000 <= a4_x4 <= 100.000000
  0.000000 <= a4_x5 <= 100.000000
  0.000000 <= a4_x6 <= 100.000000
  0.000000 <= short_1 <= +inf
  0.000000 <= surp_1 <= +inf
  0.000000 <= short_2 <= +inf
  0.000000 <= surp_2 <= +inf
  0.000000 <= short_3 <= +inf
  0.000000 <= surp_3 <= +inf
 0 <= a1_z1 <= 1
 0 <= a1_z2 <= 1
 0 <= a2_z1 <= 1
 0 <= a2_z2 <= 1
 0 <= a3_z1 <= 1
 0 <= a3_z2 <= 1
 0 <= a4_z1 <= 1
 0 <= a4_z2 <= 1

binary
  a1_z1
  a1_z2
  a2_z1
  a2_z2
  a3_z1
  a3_z2
  a4_z1
  a4_z2
end
