min
obj: 
  +5.71291625483064269 a1_x1
  +9.00563589084773142 a1_x2
  +9.01724711762336106 a1_x3
  +9.40638568868457803 a1_x4
  +5.77535620951187667 a1_x5
  +7.28815966502164514 a1_x6
  +20.35589591192510284 a1_z1
  +36.98632201902846361 a1_z2
  +9.57055811069523088 a2_x1
  +1.26049992587512483 a2_x2
  +5.39403189015226747 a2_x3
  +5.18163926236740036 a2_x4
  +3.59512023493198285 a2_x5
  +8.32429931763050135 a2_x6
  +8.22405720557796727 a2_z1
  +9.84830187035061044 a2_z2
  +4.44432428569451421 a3_x1
  +6.87835612826100196 a3_x2
  +6.09227189830646143 a3_x3
  +7.96998209317280093 a3_x4
  +3.38862436120579025 a3_x5
  +8.87685055794251454 a3_x6
  +46.43685776379189178 a3_z1
  +46.77504748135883261 a3_z2
  +2.14266889482626155 a4_x1
  +3.71753864038075932 a4_x2
  +7.47528281002840789 a4_x3
  +1.46230104481487744 a4_x4
  +9.33481878718765401 a4_x5
  +5.50998435696904032 a4_x6
  +29.02492698326168252 a4_z1
  +40.43054682310305736 a4_z2
  +1000000.00000000000000000 short_1
  +1000000.00000000000000000 surp_1
  +1000000.00000000000000000 short_2
  +1000000.00000000000000000 surp_2
  +1000000.00000000000000000 short_3
  +1000000.00000000000000000 surp_3

s.t.

a1_local_1: 
+1.23234527562789919 a1_x1
+0.81146089474841732 a1_x3
+0.98429546182768979 a1_x4
<= 105.824302

a1_local_2: 
+1.49530127330706009 a1_x3
+0.66876155183655095 a1_x4
+1.34757996016478354 a1_x5
<= 147.516850

a1_local_3: 
+1.22440391310802199 a1_x2
+0.75418227837105545 a1_x4
+1.32593940308420111 a1_x1
<= 138.931015

a1_local_4: 
+1.01157532146211282 a1_x2
+1.24091394357338980 a1_x3
+0.80585765449645641 a1_x4
<= 100.285458

a1_local_5: 
+1.38444322513827101 a1_x1
+0.72231203262244636 a1_x3
+1.27937510443632685 a1_x2
<= 117.261567

a1_local_6: 
+1.06126504209930994 a1_x2
+1.04076428067108862 a1_x3
+0.94227168551776652 a1_x4
<= 190.072009

a1_local_7: 
+0.79469200336156554 a1_x1
+1.14653833328307742 a1_x2
+1.25834914126476272 a1_x4
<= 211.311579

a1_local_8: 
+1.32925766104638021 a1_x2
+1.27179102560832580 a1_x6
+0.75229959495799226 a1_x5
<= 198.849279

a1_act_1: 
+0.10000000000000001 a1_x1
-10.00000000000000000 a1_z1
<= 0.000000

a1_act_2: 
+0.10000000000000001 a1_x2
-10.00000000000000000 a1_z2
<= 0.000000

a2_local_1: 
+0.78735975213671516 a2_x5
+1.13558136472187154 a2_x6
+1.27006745936178134 a2_x2
<= 120.902285

a2_local_2: 
+0.90068330648385919 a2_x4
+1.10725206968805012 a2_x6
+1.11026816285055774 a2_x2
<= 139.952256

a2_local_3: 
+1.48558631307037525 a2_x6
+0.63122085166019204 a2_x1
+1.58423156866550130 a2_x2
<= 181.017498

a2_local_4: 
+0.84782410215981607 a2_x6
+1.06799491220823417 a2_x2
+1.17948994072298574 a2_x5
<= 166.677856

a2_local_5: 
+1.52431605120596969 a2_x2
+1.05855831870770722 a2_x5
+0.65603192934224186 a2_x1
<= 204.441632

a2_local_6: 
+0.87624214611492013 a2_x2
+0.72182797607453419 a2_x4
+1.38537163028541666 a2_x3
<= 124.163512

a2_local_7: 
+1.09213336273169581 a2_x5
+0.97742665856242428 a2_x1
+0.91563909145560063 a2_x6
<= 152.383410

a2_local_8: 
+0.69888997605858472 a2_x3
+0.96893253985114836 a2_x2
+1.43084038154265136 a2_x5
<= 187.462582

a2_act_1: 
+0.10000000000000001 a2_x1
-10.00000000000000000 a2_z1
<= 0.000000

a2_act_2: 
+0.10000000000000001 a2_x2
-10.00000000000000000 a2_z2
<= 0.000000

a3_local_1: 
+1.07735054832083210 a3_x6
+0.85572499475438213 a3_x4
+1.16859973254261296 a3_x5
<= 179.232246

a3_local_2: 
+1.24317480005367043 a3_x3
+0.91636664423984604 a3_x6
+0.80439210958654228 a3_x5
<= 98.032659

a3_local_3: 
+1.00568187103283124 a3_x3
+0.82630588821045059 a3_x5
+1.21020558399471501 a3_x2
<= 106.433731

a3_local_4: 
+0.69190918930061074 a3_x1
+1.44527636785805802 a3_x4
+0.76079474549691761 a3_x2
<= 157.725220

a3_local_5: 
+0.78289637839401172 a3_x2
+1.27730824614534799 a3_x5
+1.10222300141555118 a3_x3
<= 166.031175

a3_local_6: 
+0.91029694822628693 a3_x5
+1.02344689189445659 a3_x3
+1.09854262606119857 a3_x2
<= 147.913225

a3_local_7: 
+0.93477105234406288 a3_x5
+0.80242083401035436 a3_x6
+1.24622885849334275 a3_x1
<= 135.020743

a3_local_8: 
+1.40062176360039858 a3_x4
+1.57615600289032054 a3_x2
+0.63445496395421641 a3_x1
<= 177.789166

a3_act_1: 
+0.10000000000000001 a3_x1
-10.00000000000000000 a3_z1
<= 0.000000

a3_act_2: 
+0.10000000000000001 a3_x2
-10.00000000000000000 a3_z2
<= 0.000000

a4_local_1: 
+1.47949742755167812 a4_x2
+1.55264065835072640 a4_x5
+0.64406403028388914 a4_x4
<= 159.176294

a4_local_2: 
+1.07959564722780410 a4_x2
+0.98045395629565879 a4_x4
+0.92627272309573450 a4_x3
<= 170.073146

a4_local_3: 
+0.79717754452400935 a4_x6
+1.25442570086077221 a4_x4
+1.01703822333545157 a4_x1
<= 116.673486

a4_local_4: 
+1.24333684270755529 a4_x1
+0.80428727409247169 a4_x6
+1.15895529552379739 a4_x3
<= 109.227694

a4_local_5: 
+0.90292129301725321 a4_x1
+1.10751624502988855 a4_x3
+0.96149074138189861 a4_x6
<= 147.373143

a4_local_6: 
+1.13499215098742190 a4_x6
+0.88106336165410382 a4_x2
+1.07320412531426013 a4_x4
<= 200.624616

a4_local_7: 
+1.26370865954839418 a4_x3
+0.79132163291289448 a4_x6
+0.82230535523906823 a4_x4
<= 157.794386

a4_local_8: 
+0.71302477651448692 a4_x4
+1.08958048173861366 a4_x5
+1.40247580860843013 a4_x6
<= 158.135247

a4_act_1: 
+0.10000000000000001 a4_x1
-10.00000000000000000 a4_z1
<= 0.000000

a4_act_2: 
+0.10000000000000001 a4_x2
-10.00000000000000000 a4_z2
<= 0.000000

coupling_1: 
+0.00022619572471865 a1_x1
+0.00216741104769767 a2_x1
+0.08539313376415297 a3_x1
+0.99604352393524698 a4_x1
+0.01732862223947297 short_1
-0.01732862223947297 surp_1
= 82.006267

coupling_2: 
+0.00009258621315574 a1_x2
+0.00198898835697287 a2_x2
+0.04047697617185116 a3_x2
+0.99913198916872548 a4_x2
+0.00681608292343162 short_2
-0.00681608292343162 surp_2
= 80.167864

coupling_3: 
+0.00014421295371031 a1_x3
+0.00189726881515440 a2_x3
+0.03865121050453425 a3_x3
+0.99906068932230618 a4_x3
+0.01378772191189527 short_3
-0.01378772191189527 surp_3
= 29.632884

bounds
  0.000000 <= a1_x1 <= 100.000000
  0.000000 <= a1_x2 <= 100.000000
  0.000000 <= a1_x3 <= 100.000000
  0.000000 <= a1_x4 <= 100.000000
  0.000000 <= a1_x5 <= 100.000000
  0.000000 <= a1_x6 <= 100.000000
  0.000000 <= a2_x1 <= 100.000000
  0.000000 <= a2_x2 <= 100.000000
  0.000000 <= a2_x3 <= 100.000000
  0.000000 <= a2_x4 <= 100.000000
  0.000000 <= a2_x5 <= 100.000000
  0.000000 <= a2_x6 <= 100.000000
  0.000000 <= a3_x1 <= 100.000000
  0.000000 <= a3_x2 <= 100.000000
  0.000000 <= a3_x3 <= 100.000000
  0.000000 <= a3_x4 <= 100.000000
  0.000000 <= a3_x5 <= 100.000000
  0.000000 <= a3_x6 <= 100.000000
  0.000000 <= a4_x1 <= 100.000000
  0.000000 <= a4_x2 <= 100.000000
  0.000000 <= a4_x3 <= 100.000000
  0.000000 <= a4_x4 <= 100.000000
  0.000000 <= a4_x5 <= 100.000000
  0.000000 <= a4_x6 <= 100.000000
  0.000000 <= short_1 <= +inf
  0.000000 <= surp_1 <= +inf
  0.000000 <= short_2 <= +inf
  0.000000 <= surp_2 <= +inf
  0.000000 <= short_3 <= +inf
  0.000000 <= surp_3 <= +inf
 0 <= a1_z1 <= 1
 0 <= a1_z2 <= 1
 0 <= a2_z1 <= 1
 0 <= a2_z2 <= 1
 0 <= a3_z1 <= 1
 0 <= a3_z2 <= 1
 0 <= a4_z1 <= 1
 0 <= a4_z2 <= 1

binary
  a1_z1
  a1_z2
  a2_z1
  a2_z2
  a3_z1
  a3_z2
  a4_z1
  a4_z2
end
