min
obj: 
  +4.10293210566149646 a1_x1
  +3.32901181929639423 a1_x2
  +9.10176472428019245 a1_x3
  +1.02767819950250816 a1_x4
  +7.50152284301075145 a1_x5
  +9.69522117714092246 a1_x6
  +46.46239370281180214 a1_z1
  +20.97693906303189948 a1_z2
  +8.73612443817434503 a2_x1
  +2.04228756855595339 a2_x2
  +7.91416373752481395 a2_x3
  +8.85104976446995906 a2_x4
  +5.35890260317347789 a2_x5
  +4.46510259611176785 a2_x6
  +43.59910462783197715 a2_z1
  +13.73633673727412230 a2_z2
  +8.77121756982191414 a3_x1
  +5.76281450528001393 a3_x2
  +8.52709380603204359 a3_x3
  +1.13892657158295396 a3_x4
  +2.91144295006929399 a3_x5
  +3.02757282316255294 a3_x6
  +21.64888772902043002 a3_z1
  +37.44350625095739105 a3_z2
  +3.73746776663401503 a4_x1
  +6.30470396079639350 a4_x2
  +7.23244248154489888 a4_x3
  +3.53129435828251648 a4_x4
  +2.19432544763669313 a4_x5
  +2.79667117057261105 a4_x6
  +25.76781967633817416 a4_z1
  +25.23373202259198678 a4_z2
  +1000000.00000000000000000 short_1
  +1000000.00000000000000000 surp_1
  +1000000.00000000000000000 short_2
  +1000000.00000000000000000 surp_2
  +1000000.00000000000000000 short_3
  +1000000.00000000000000000 surp_3

s.t.

a1_local_1: 
+0.71415339693519397 a1_x6
+0.49741748420529763 a1_x1
+0.49250459089514659 a1_x4
<= 77.016942

a1_local_2: 
+0.44737937552888835 a1_x6
+0.53786898669433547 a1_x5
+0.71452686968636148 a1_x4
<= 75.808377

a1_local_3: 
+0.48782783752968240 a1_x1
+0.67871535643191871 a1_x5
+0.54897127964457981 a1_x6
<= 78.422255

a1_local_4: 
+0.59696960297194590 a1_x4
+0.32650601690610187 a1_x5
+0.73281724464673281 a1_x3
<= 113.623477

a1_local_5: 
+0.34244761139432639 a1_x6
+0.71006424913781585 a1_x2
+0.61525474036911765 a1_x1
<= 64.646293

a1_local_6: 
+0.56540781634392867 a1_x5
+0.45313486529623120 a1_x1
+0.68918995572349750 a1_x6
<= 103.444146

a1_local_7: 
+0.47103547738668566 a1_x5
+0.79789531776988287 a1_x1
+0.37614975863875638 a1_x3
<= 84.476916

a1_local_8: 
+0.39553628862544654 a1_x1
+0.64977978573174167 a1_x3
+0.64910497951781232 a1_x4
<= 95.547127

a1_act_1: 
+0.00999950003749688 a1_x1
-0.99995000374968757 a1_z1
<= 0.000000

a1_act_2: 
+0.00999950003749688 a1_x2
-0.99995000374968757 a1_z2
<= 0.000000

a2_local_1: 
+0.38036586297949782 a2_x4
+0.69618389575825812 a2_x5
+0.60881014574883408 a2_x1
<= 50.713463

a2_local_2: 
+0.71188067622312234 a2_x4
+0.63246769998923369 a2_x5
+0.30530396540241461 a2_x2
<= 79.199294

a2_local_3: 
+0.57287765613485175 a2_x6
+0.65900960135193298 a2_x3
+0.48735770890322949 a2_x4
<= 111.558364

a2_local_4: 
+0.56038049128266665 a2_x3
+0.50035213053199046 a2_x2
+0.66001625014986953 a2_x5
<= 76.870594

a2_local_5: 
+0.65523060180262294 a2_x3
+0.67391663327311335 a2_x4
+0.34133448384129667 a2_x5
<= 116.087398

a2_local_6: 
+0.61029206666835600 a2_x1
+0.39922629507374396 a2_x4
+0.68422361745511162 a2_x5
<= 111.684663

a2_local_7: 
+0.26770820138656631 a2_x6
+0.31743168201174288 a2_x2
+0.28999280017385132 a2_x4
<= 39.779101

a2_local_8: 
+0.70014038226001141 a2_x5
+0.58141959388360576 a2_x1
+0.41443298731764588 a2_x3
<= 61.769907

a2_act_1: 
+0.00999950003749688 a2_x1
-0.99995000374968757 a2_z1
<= 0.000000

a2_act_2: 
+0.00999950003749688 a2_x2
-0.99995000374968757 a2_z2
<= 0.000000

a3_local_1: 
+0.31073696813617063 a3_x4
+0.82345744714744384 a3_x2
+0.47472135971636575 a3_x6
<= 98.016707

a3_local_2: 
+0.68035295515910232 a3_x1
+0.60231018646962076 a3_x4
+0.41754316624896071 a3_x2
<= 109.365157

a3_local_3: 
+0.51122793403997036 a3_x3
+0.55872705184535776 a3_x6
+0.65304676784547266 a3_x5
<= 92.475398

a3_local_4: 
+0.33481949451612897 a3_x6
+0.57798676603309973 a3_x4
+0.74419567613804560 a3_x1
<= 113.222642

a3_local_5: 
+0.42675409405673342 a3_x6
+0.82453758382377484 a3_x4
+0.37150870254661389 a3_x3
<= 54.369782

a3_local_6: 
+0.49382611132272158 a3_x2
+0.44420104054656451 a3_x6
+0.74754344847187859 a3_x5
<= 85.974553

a3_local_7: 
+0.48670053330768626 a3_x3
+0.40651655200425718 a3_x4
+0.77321852268591185 a3_x5
<= 115.183695

a3_local_8: 
+0.39338963232188406 a3_x5
+0.70881497427790463 a3_x1
+0.58551338961723698 a3_x6
<= 75.486347

a3_act_1: 
+0.00999950003749688 a3_x1
-0.99995000374968757 a3_z1
<= 0.000000

a3_act_2: 
+0.00999950003749688 a3_x2
-0.99995000374968757 a3_z2
<= 0.000000

a4_local_1: 
+0.72092581497932895 a4_x5
+0.54493029806463456 a4_x2
+0.42815527504350459 a4_x1
<= 86.879863

a4_local_2: 
+0.60563662410296837 a4_x4
+0.48343156649465180 a4_x6
+0.63205869985444152 a4_x2
<= 120.272688

a4_local_3: 
+0.84876174958217065 a4_x3
+0.36336238643023222 a4_x6
+0.38415005996867863 a4_x4
<= 52.908013

a4_local_4: 
+0.61061676789435193 a4_x6
+0.69934962234254372 a4_x1
+0.37156058522883767 a4_x2
<= 52.580396

a4_local_5: 
+0.59235179150408679 a4_x5
+0.40664735829253301 a4_x6
+0.69552662141402122 a4_x1
<= 114.910856

a4_local_6: 
+0.67759465028893873 a4_x1
+0.49705380418864581 a4_x3
+0.54203598186965996 a4_x6
<= 87.946771

a4_local_7: 
+0.64610659315214303 a4_x1
+0.32822878004391903 a4_x3
+0.68906613487836677 a4_x6
<= 100.549880

a4_local_8: 
+0.58907579279263722 a4_x1
+0.67829366958435322 a4_x3
+0.43921225864895669 a4_x4
<= 107.102595

a4_act_1: 
+0.00999950003749688 a4_x1
-0.99995000374968757 a4_z1
<= 0.000000

a4_act_2: 
+0.00999950003749688 a4_x2
-0.99995000374968757 a4_z2
<= 0.000000

coupling_1: 
+0.00008475105123135 a1_x1
+0.00310788426713517 a2_x1
+0.02693726907620828 a3_x1
+0.99951105568950671 a4_x1
+0.01100833688177630 short_1
-0.01100833688177630 surp_1
= 42.574857

coupling_2: 
+0.00009050281140713 a1_x2
+0.00326629189538001 a2_x2
+0.04606775332606650 a3_x2
+0.99873880261145376 a4_x2
+0.01392640312901245 short_2
-0.01392640312901245 surp_2
= 49.614787

coupling_3: 
+0.00011373812472252 a1_x3
+0.00306408145903760 a2_x3
+0.03143100173589797 a3_x3
+0.99934036674336801 a4_x3
+0.01267915603579689 short_3
-0.01267915603579689 surp_3
= 39.899517

bounds
  0.000000 <= a1_x1 <= 100.000000
  0.000000 <= a1_x2 <= 100.000000
  0.000000 <= a1_x3 <= 100.000000
  0.000000 <= a1_x4 <= 100.000000
  0.000000 <= a1_x5 <= 100.000000
  0.000000 <= a1_x6 <= 100.000000
  0.000000 <= a2_x1 <= 100.000000
  0.000000 <= a2_x2 <= 100.000000
  0.000000 <= a2_x3 <= 100.000000
  0.000000 <= a2_x4 <= 100.000000
  0.000000 <= a2_x5 <= 100.000000
  0.000000 <= a2_x6 <= 100.000000
  0.000000 <= a3_x1 <= 100.000000
  0.000000 <= a3_x2 <= 100.000000
  0.000000 <= a3_x3 <= 100.000000
  0.000000 <= a3_x4 <= 100.000000
  0.000000 <= a3_x5 <= 100.000000
  0.000000 <= a3_x6 <= 100.000000
  0.000000 <= a4_x1 <= 100.000000
  0.000000 <= a4_x2 <= 100.000000
  0.000000 <= a4_x3 <= 100.000000
  0.000000 <= a4_x4 <= 100.000000
  0.000000 <= a4_x5 <= 100.000000
  0.000000 <= a4_x6 <= 100.000000
  0.000000 <= short_1 <= +inf
  0.000000 <= surp_1 <= +inf
  0.000000 <= short_2 <= +inf
  0.000000 <= surp_2 <= +inf
  0.000000 <= short_3 <= +inf
  0.000000 <= surp_3 <= +inf
 0 <= a1_z1 <= 1
 0 <= a1_z2 <= 1
 0 <= a2_z1 <= 1
 0 <= a2_z2 <= 1
 0 <= a3_z1 <= 1
 0 <= a3_z2 <= 1
 0 <= a4_z1 <= 1
 0 <= a4_z2 <= 1

binary
  a1_z1
  a1_z2
  a2_z1
  a2_z2
  a3_z1
  a3_z2
  a4_z1
  a4_z2
end
