min
obj: 
  +2.62040292120299334 a1_x1
  +1.02293933329670939 a1_x2
  +7.19109322240713489 a1_x3
  +4.26327457704359070 a1_x4
  +6.02462654690972954 a1_x5
  +8.55420542223946256 a1_x6
  +28.11411837117618262 a1_z1
  +36.33719979534413369 a1_z2
  +2.39250112218893918 a2_x1
  +1.83547081268154932 a2_x2
  +3.26801901615166557 a2_x3
  +8.57451293041723162 a2_x4
  +5.28554157085463672 a2_x5
  +8.07508570205658316 a2_x6
  +37.67992106218490278 a2_z1
  +30.78606331188496270 a2_z2
  +6.90983361892269166 a3_x1
  +7.22469297213641504 a3_x2
  +2.76350562177570946 a3_x3
  +4.58041526640907559 a3_x4
  +5.53917660184281146 a3_x5
  +2.52802612578793617 a3_x6
  +24.71990871554554658 a3_z1
  +39.06095262734275053 a3_z2
  +7.87721431876430422 a4_x1
  +7.82223412443215427 a4_x2
  +1.26243572521241743 a4_x3
  +2.93412910760232926 a4_x4
  +4.86803560394161750 a4_x5
  +9.50434430207515391 a4_x6
  +34.58728502900768120 a4_z1
  +29.50594267162487938 a4_z2
  +1000000.00000000000000000 short_1
  +1000000.00000000000000000 surp_1
  +1000000.00000000000000000 short_2
  +1000000.00000000000000000 surp_2
  +1000000.00000000000000000 short_3
  +1000000.00000000000000000 surp_3

s.t.

a1_local_1: 
+1.46705201016064590 a1_x3
+0.68163909191637817 a1_x5
+1.07634814734544393 a1_x4
<= 211.024950

a1_local_2: 
+1.18244517205215205 a1_x6
+0.82897500109521438 a1_x5
+1.20630899445560247 a1_x4
<= 170.495492

a1_local_3: 
+1.16652445021225737 a1_x4
+0.85724735543952202 a1_x3
+1.13105116569312369 a1_x1
<= 220.189307

a1_local_4: 
+0.67959542316245658 a1_x4
+1.06387602274583726 a1_x2
+1.47146370607759547 a1_x5
<= 134.416839

a1_local_5: 
+0.76478921693601354 a1_x2
+1.30754981615237065 a1_x4
+1.12551171871450650 a1_x3
<= 103.884398

a1_local_6: 
+1.38990184680090878 a1_x6
+0.96532977317532231 a1_x1
+0.71947526532299166 a1_x4
<= 189.304574

a1_local_7: 
+1.36733425090074290 a1_x2
+0.73135006991980311 a1_x5
+1.30116854071084864 a1_x1
<= 178.856355

a1_local_8: 
+1.46601989828943369 a1_x3
+1.49267339898541040 a1_x4
+0.66993891676485484 a1_x5
<= 110.379617

a1_act_1: 
+0.10000000000000001 a1_x1
-10.00000000000000000 a1_z1
<= 0.000000

a1_act_2: 
+0.10000000000000001 a1_x2
-10.00000000000000000 a1_z2
<= 0.000000

a2_local_1: 
+0.87549613133497850 a2_x1
+0.70241627513864757 a2_x5
+1.42365721779811172 a2_x6
<= 141.029858

a2_local_2: 
+1.30272968650469712 a2_x5
+0.64896634759072602 a2_x2
+1.54091194976824153 a2_x4
<= 201.991426

a2_local_3: 
+0.97638087532410778 a2_x4
+1.49606535229646509 a2_x5
+0.66841999814045350 a2_x1
<= 106.074274

a2_local_4: 
+0.81585490239967084 a2_x6
+1.22570814621411728 a2_x1
+1.01068365026270768 a2_x3
<= 164.747225

a2_local_5: 
+1.05329592614143297 a2_x4
+0.71248261481990194 a2_x5
+1.40354301873425413 a2_x3
<= 98.180901

a2_local_6: 
+1.05359176103209840 a2_x5
+0.96114250482489272 a2_x3
+0.94913422540472414 a2_x1
<= 201.060702

a2_local_7: 
+1.02371168224751719 a2_x3
+1.02777706568708815 a2_x1
+0.97297364709289524 a2_x4
<= 118.930778

a2_local_8: 
+1.00660592506794822 a2_x6
+0.88834761359364733 a2_x1
+1.12568546895137556 a2_x3
<= 188.304954

a2_act_1: 
+0.10000000000000001 a2_x1
-10.00000000000000000 a2_z1
<= 0.000000

a2_act_2: 
+0.10000000000000001 a2_x2
-10.00000000000000000 a2_z2
<= 0.000000

a3_local_1: 
+1.28993861561017154 a3_x2
+0.77523068764553305 a3_x1
+1.00249679454489771 a3_x3
<= 163.823271

a3_local_2: 
+0.80959283766982926 a3_x6
+0.71764585032528994 a3_x5
+1.39344496947446461 a3_x2
<= 112.066226

a3_local_3: 
+1.41095725620788182 a3_x3
+0.70873869183508864 a3_x6
+1.16219073262582007 a3_x4
<= 173.875317

a3_local_4: 
+1.05713569763427917 a3_x1
+0.78177264721633954 a3_x4
+1.27914426727604624 a3_x3
<= 150.775464

a3_local_5: 
+1.13137929510472568 a3_x1
+1.03638713833686880 a3_x2
+0.88387687871505138 a3_x3
<= 145.677125

a3_local_6: 
+0.59106261104770386 a3_x5
+1.69186813936246683 a3_x1
+1.21967629833288416 a3_x2
<= 219.457133

a3_local_7: 
+1.45758215854030948 a3_x5
+0.68606767319479711 a3_x6
+1.18583338408093764 a3_x3
<= 151.547799

a3_local_8: 
+1.40713861328755141 a3_x2
+0.64748981093283309 a3_x6
+1.54442584750377532 a3_x4
<= 152.653566

a3_act_1: 
+0.10000000000000001 a3_x1
-10.00000000000000000 a3_z1
<= 0.000000

a3_act_2: 
+0.10000000000000001 a3_x2
-10.00000000000000000 a3_z2
<= 0.000000

a4_local_1: 
+1.15268409854774245 a4_x5
+0.86754037924171234 a4_x4
+0.99413848070664201 a4_x6
<= 98.187616

a4_local_2: 
+0.82783830482285792 a4_x6
+1.39528970781989203 a4_x4
+0.71669703746505586 a4_x2
<= 112.731344

a4_local_3: 
+0.64677177216211046 a4_x1
+0.97267054156471500 a4_x6
+1.54614045176565695 a4_x5
<= 201.649438

a4_local_4: 
+1.22569475009569251 a4_x3
+0.85321828426133373 a4_x5
+0.81586381921104578 a4_x4
<= 165.317354

a4_local_5: 
+1.53777419404027693 a4_x2
+0.65029053282045657 a4_x1
+1.52015628983712148 a4_x5
<= 120.399091

a4_local_6: 
+1.36877350883029658 a4_x6
+0.88573577134642012 a4_x5
+0.73058105928318506 a4_x4
<= 205.879472

a4_local_7: 
+1.21837799089005494 a4_x6
+0.94488880893307370 a4_x1
+0.82076334887621794 a4_x4
<= 115.321771

a4_local_8: 
+1.59763937124050615 a4_x6
+1.46762172697283333 a4_x1
+0.62592348310966961 a4_x2
<= 145.721643

a4_act_1: 
+0.10000000000000001 a4_x1
-10.00000000000000000 a4_z1
<= 0.000000

a4_act_2: 
+0.10000000000000001 a4_x2
-10.00000000000000000 a4_z2
<= 0.000000

coupling_1: 
+0.00005919869126130 a1_x1
+0.00228496818254115 a2_x1
+0.05095974639201227 a3_x1
+0.99863396601701260 a4_x1
+0.00800254899121474 short_1
-0.00800254899121474 surp_1
= 59.462500

coupling_2: 
+0.00004252327328060 a1_x2
+0.00205285677074757 a2_x2
+0.02686436654932890 a3_x2
+0.99956544091767152 a4_x2
+0.00845633205989182 short_2
-0.00845633205989182 surp_2
= 71.976686

coupling_3: 
+0.00009228406317833 a1_x3
+0.00203864909651237 a2_x3
+0.04453294539036459 a3_x3
+0.99894650953540465 a4_x3
+0.00769815742249726 short_3
-0.00769815742249726 surp_3
= 37.176005

bounds
  0.000000 <= a1_x1 <= 100.000000
  0.000000 <= a1_x2 <= 100.000000
  0.000000 <= a1_x3 <= 100.000000
  0.000000 <= a1_x4 <= 100.000000
  0.000000 <= a1_x5 <= 100.000000
  0.000000 <= a1_x6 <= 100.000000
  0.000000 <= a2_x1 <= 100.000000
  0.000000 <= a2_x2 <= 100.000000
  0.000000 <= a2_x3 <= 100.000000
  0.000000 <= a2_x4 <= 100.000000
  0.000000 <= a2_x5 <= 100.000000
  0.000000 <= a2_x6 <= 100.000000
  0.000000 <= a3_x1 <= 100.000000
  0.000000 <= a3_x2 <= 100.000000
  0.000000 <= a3_x3 <= 100.000000
  0.000000 <= a3_x4 <= 100.000000
  0.000000 <= a3_x5 <= 100.000000
  0.000000 <= a3_x6 <= 100.000000
  0.000000 <= a4_x1 <= 100.000000
  0.000000 <= a4_x2 <= 100.000000
  0.000000 <= a4_x3 <= 100.000000
  0.000000 <= a4_x4 <= 100.000000
  0.000000 <= a4_x5 <= 100.000000
  0.000000 <= a4_x6 <= 100.000000
  0.000000 <= short_1 <= +inf
  0.000000 <= surp_1 <= +inf
  0.000000 <= short_2 <= +inf
  0.000000 <= surp_2 <= +inf
  0.000000 <= short_3 <= +inf
  0.000000 <= surp_3 <= +inf
 0 <= a1_z1 <= 1
 0 <= a1_z2 <= 1
 0 <= a2_z1 <= 1
 0 <= a2_z2 <= 1
 0 <= a3_z1 <= 1
 0 <= a3_z2 <= 1
 0 <= a4_z1 <= 1
 0 <= a4_z2 <= 1

binary
  a1_z1
  a1_z2
  a2_z1
  a2_z2
  a3_z1
  a3_z2
  a4_z1
  a4_z2
end
