min
obj: 
  +3.043052453503527 a1_x1
  +8.5242104678500681 a1_x2
  +7.6930756521091874 a1_x3
  +6.9189962156082423 a1_x4
  +9.2097073421305335 a1_x5
  +1.6783613276554563 a1_x6
  +29.957301038510835 a1_z1
  +31.080729858907144 a1_z2
  +3.9982275243752419 a2_x1
  +4.0716566341487717 a2_x2
  +8.3479540678562252 a2_x3
  +4.8717105490747867 a2_x4
  +6.0061452108085005 a2_x5
  +2.7882654202354971 a2_x6
  +21.648290212377919 a2_z1
  +42.54057128991149 a2_z2
  +2.9928805955584821 a3_x1
  +5.5354110864277946 a3_x2
  +5.213896919227734 a3_x3
  +2.0650047465660801 a3_x4
  +6.4105355661416237 a3_x5
  +2.6598622040549174 a3_x6
  +31.217971703687525 a3_z1
  +44.913093336265895 a3_z2
  +1.3478391985630118 a4_x1
  +6.3176473690479504 a4_x2
  +9.9894359630934186 a4_x3
  +5.7054129264347031 a4_x4
  +4.4415295718065089 a4_x5
  +5.0613340194576661 a4_x6
  +15.238383211322466 a4_z1
  +39.666499040349478 a4_z2
  +1000000 short_1
  +1000000 surp_1
  +1000000 short_2
  +1000000 surp_2
  +1000000 short_3
  +1000000 surp_3

s.t.

a1_local_1: 
+0.00031313928544072795 a1_x4
+0.00038956699396362879 a1_x3
+0.00083924620661492946 a1_x1
<= 0.095786358709662497

a1_local_2: 
+0.00012192505791251465 a1_x5
+7.4223030379650778e-05 a1_x2
+9.1762012499467912e-05 a1_x1
<= 0.011238691549275238

a1_local_3: 
+16.338495189288835 a1_x1
+23.132469117315861 a1_x5
+23.257890961509798 a1_x4
<= 3604.4074228536847

a1_local_4: 
+4.1224393941978743 a1_x4
+3.0952442232658024 a1_x1
+3.3189248862992007 a1_x2
<= 443.05143947567643

a1_local_5: 
+67.965905899050796 a1_x4
+138.92055873059547 a1_x6
+56.317673343729524 a1_x3
<= 18044.086560750853

a1_local_6: 
+0.00021330075114113804 a1_x5
+0.00036436661032213222 a1_x1
+0.00020533680916088202 a1_x6
<= 0.04236322352117209

a1_local_7: 
+0.3602556909363594 a1_x1
+0.37752441947996807 a1_x2
+0.25262012279704438 a1_x4
<= 56.425243012832723

a1_local_8: 
+0.041239891066530185 a1_x3
+0.04379699161140458 a1_x6
+0.016861993881148455 a1_x5
<= 5.2243655354987402

a1_act_1: 
+0.15953917916736107 a1_x1
-15.953917916736108 a1_z1
<= 0

a1_act_2: 
+0.14005234318508408 a1_x2
-14.005234318508409 a1_z2
<= 0

a2_local_1: 
+16.575824077349552 a2_x5
+20.202498746219085 a2_x3
+23.99105151566441 a2_x6
<= 3990.0341825707364

a2_local_2: 
+112.12037526212158 a2_x4
+174.83720944879727 a2_x3
+119.09137240932034 a2_x6
<= 19859.368912563139

a2_local_3: 
+0.0017631378524645561 a2_x3
+0.0013202685104573419 a2_x1
+0.0018520471970782974 a2_x2
<= 0.32706172664607058

a2_local_4: 
+51.241794511320428 a2_x4
+39.715023818294277 a2_x5
+37.188535078046797 a2_x1
<= 4012.7116871350518

a2_local_5: 
+87.905826194054455 a2_x1
+98.656765329351899 a2_x6
+52.464552184638116 a2_x2
<= 14446.630100295508

a2_local_6: 
+0.27906934048407078 a2_x1
+0.220879843723607 a2_x5
+0.3104086521766542 a2_x3
<= 44.302519249881193

a2_local_7: 
+67.908778241014787 a2_x3
+127.39511121632077 a2_x6
+64.451556210428265 a2_x1
<= 11979.004666479344

a2_local_8: 
+0.21402470597048734 a2_x4
+0.37532783563987804 a2_x1
+0.40499287069577572 a2_x6
<= 35.742845370671994

a2_act_1: 
+0.090548181190998181 a2_x1
-9.0548181190998189 a2_z1
<= 0

a2_act_2: 
+56.381147970457484 a2_x2
-5638.1147970457487 a2_z2
<= 0

a3_local_1: 
+0.0058109264144619406 a3_x4
+0.0022503410450493201 a3_x2
+0.0041547297345038417 a3_x5
<= 0.65349890845212621

a3_local_2: 
+29.797449966587429 a3_x1
+27.477689951902491 a3_x6
+28.654396558901695 a3_x3
<= 2756.2982421885858

a3_local_3: 
+6.7582526752156271 a3_x2
+5.7559118858078797 a3_x6
+5.1648440133453466 a3_x5
<= 1235.5474055765594

a3_local_4: 
+152.80854353118335 a3_x1
+218.39989066367383 a3_x5
+204.84117284468772 a3_x4
<= 18347.41426213806

a3_local_5: 
+467.67902177879216 a3_x4
+263.64726749760462 a3_x2
+404.69460453715652 a3_x6
<= 46027.702149166835

a3_local_6: 
+37.182260179271502 a3_x5
+32.149991661598939 a3_x2
+50.931468808139186 a3_x1
<= 5998.3715239202102

a3_local_7: 
+0.0075788493909855368 a3_x2
+0.007147523265173236 a3_x4
+0.0037221698446626974 a3_x5
<= 1.1842395598430742

a3_local_8: 
+0.39174635749306208 a3_x3
+0.42546147087062758 a3_x5
+0.66625001043660137 a3_x6
<= 73.38924448320725

a3_act_1: 
+0.017873706055158502 a3_x1
-1.7873706055158503 a3_z1
<= 0

a3_act_2: 
+25.217603223975495 a3_x2
-2521.7603223975493 a3_z2
<= 0

a4_local_1: 
+200.25648788640638 a4_x6
+314.67710030979282 a4_x2
+244.40696763339929 a4_x1
<= 23437.308803847027

a4_local_2: 
+1760.874970488087 a4_x1
+2107.939194395356 a4_x6
+1545.69885684221 a4_x5
<= 178929.21060138391

a4_local_3: 
+15.66371405700559 a4_x6
+12.64393181231801 a4_x3
+15.782946847512125 a4_x2
<= 1893.4763197427501

a4_local_4: 
+0.019138993071600791 a4_x4
+0.027737713759118383 a4_x6
+0.025660397510464093 a4_x2
<= 2.8152594643374584

a4_local_5: 
+0.057687461060536016 a4_x5
+0.025040907216197127 a4_x6
+0.03618981696316264 a4_x1
<= 4.3476269341230136

a4_local_6: 
+0.28271054100762261 a4_x5
+0.24302550050787786 a4_x1
+0.19119103538546087 a4_x2
<= 46.703167178635681

a4_local_7: 
+41.933322479556544 a4_x4
+34.926888913064168 a4_x2
+22.536074208143866 a4_x5
<= 4761.3511463881159

a4_local_8: 
+0.033559031385143066 a4_x3
+0.017074101998024584 a4_x1
+0.028263417966358687 a4_x2
<= 5.0438632469794413

a4_act_1: 
+1.2795591266645479 a4_x1
-127.95591266645478 a4_z1
<= 0

a4_act_2: 
+0.51068065813316343 a4_x2
-51.068065813316345 a4_z2
<= 0

coupling_1: 
+33.821601537150855 a1_x1
+216.58599603445154 a2_x1
+614.63250902103334 a3_x1
+2555.1705242948397 a4_x1
+344.87290771207569 short_1
-344.87290771207569 surp_1
= 195504.10323179007

coupling_2: 
+0.45798977957756115 a1_x2
+2.6035585410318043 a2_x2
+5.7468872227319574 a3_x2
+57.33245326247107 a4_x2
+4.2792395265999543 short_2
-4.2792395265999543 surp_2
= 4727.2093324507596

coupling_3: 
+0.54419839207751564 a1_x3
+1.4235835177091281 a2_x3
+12.472223263625317 a3_x3
+52.462498964866157 a4_x3
+4.4796118395189151 short_3
-4.4796118395189151 surp_3
= 1644.3679900295467

bounds
  0 <= a1_x1 <= 100
  0 <= a1_x2 <= 100
  0 <= a1_x3 <= 100
  0 <= a1_x4 <= 100
  0 <= a1_x5 <= 100
  0 <= a1_x6 <= 100
  0 <= a2_x1 <= 100
  0 <= a2_x2 <= 100
  0 <= a2_x3 <= 100
  0 <= a2_x4 <= 100
  0 <= a2_x5 <= 100
  0 <= a2_x6 <= 100
  0 <= a3_x1 <= 100
  0 <= a3_x2 <= 100
  0 <= a3_x3 <= 100
  0 <= a3_x4 <= 100
  0 <= a3_x5 <= 100
  0 <= a3_x6 <= 100
  0 <= a4_x1 <= 100
  0 <= a4_x2 <= 100
  0 <= a4_x3 <= 100
  0 <= a4_x4 <= 100
  0 <= a4_x5 <= 100
  0 <= a4_x6 <= 100
  0 <= short_1 <= +inf
  0 <= surp_1 <= +inf
  0 <= short_2 <= +inf
  0 <= surp_2 <= +inf
  0 <= short_3 <= +inf
  0 <= surp_3 <= +inf
 0 <= a1_z1 <= 1
 0 <= a1_z2 <= 1
 0 <= a2_z1 <= 1
 0 <= a2_z2 <= 1
 0 <= a3_z1 <= 1
 0 <= a3_z2 <= 1
 0 <= a4_z1 <= 1
 0 <= a4_z2 <= 1

binary
  a1_z1
  a1_z2
  a2_z1
  a2_z2
  a3_z1
  a3_z2
  a4_z1
  a4_z2
end
