min
obj: 
  +4.6820518769511636 a1_x1
  +5.7129162548306427 a1_x2
  +9.0056358908477314 a1_x3
  +9.0172471176233611 a1_x4
  +9.406385688684578 a1_x5
  +5.7753562095118767 a1_x6
  +36.440798325108226 a1_z1
  +20.355895911925103 a1_z2
  +9.8523773325997031 a2_x1
  +8.6665660995193221 a2_x2
  +1.318348960475541 a2_x3
  +8.2691943978607085 a2_x4
  +6.0635318483155114 a2_x5
  +3.2631581910354219 a2_x6
  +31.015799445658949 a2_z1
  +42.142738976131909 a2_z2
  +3.407000856972263 a3_x1
  +9.4188250932667614 a3_x2
  +9.7490010795163791 a3_x3
  +7.0450820339939781 a3_x4
  +9.9763761898407548 a3_x5
  +5.8473553548384958 a3_x6
  +49.073547744148975 a3_z1
  +13.999141819476126 a3_z2
  +1.9143138950663818 a4_x1
  +6.1042201720531999 a4_x2
  +2.2574896326389386 a4_x3
  +5.6594666769891386 a4_x4
  +4.3520497618016583 a4_x5
  +6.7823412192640848 a4_x6
  +29.956754589694771 a4_z1
  +32.972144993024642 a4_z2
  +1000000 short_1
  +1000000 surp_1
  +1000000 short_2
  +1000000 surp_2
  +1000000 short_3
  +1000000 surp_3

s.t.

a1_local_1: 
+0.00071554184952217622 a1_x4
+0.00058545572312847813 a1_x2
+0.00038550431792206823 a1_x6
<= 0.073989573307612064

a1_local_2: 
+0.049729052074674707 a1_x3
+0.022240921365142725 a1_x4
+0.044816302380063101 a1_x5
<= 4.9059498753025661

a1_local_3: 
+1.9304074150227111 a1_x1
+3.3938788128421287 a1_x3
+2.5383876514122043 a1_x6
<= 409.41415330937224

a1_local_4: 
+0.00053322923264518965 a1_x2
+0.00046327768546474676 a1_x1
+0.00091723824139607784 a1_x5
<= 0.09154896030567497

a1_local_5: 
+3.9348222751484507 a1_x2
+6.4066596104730307 a1_x3
+6.5689142701698282 a1_x5
<= 720.17480238351243

a1_local_6: 
+0.0005055073856825036 a1_x6
+0.00035558988306387405 a1_x1
+0.0004490221437221983 a1_x3
<= 0.068350866396598833

a1_local_7: 
+4.5816015602561269 a1_x4
+3.7092012443569415 a1_x2
+3.4173675473954002 a1_x5
<= 616.52794368268394

a1_local_8: 
+0.00026590742654940437 a1_x6
+0.00025955746313912335 a1_x2
+0.00021212484799141743 a1_x4
<= 0.046138038852089391

a1_act_1: 
+0.004430372568374444 a1_x1
-0.44303725683744438 a1_z1
<= 0

a1_act_2: 
+0.26968627298348519 a1_x2
-26.968627298348519 a1_z2
<= 0

a2_local_1: 
+229.26297668332862 a2_x2
+315.0834391777579 a2_x6
+330.22267879720192 a2_x5
<= 28997.913736283095

a2_local_2: 
+1.5964950890497744 a2_x1
+1.873169966203625 a2_x4
+2.3596120805134149 a2_x5
<= 404.78482095783221

a2_local_3: 
+23.543442899433952 a2_x2
+16.349698156427909 a2_x5
+10.132577332932357 a2_x1
<= 3157.6521701342658

a2_local_4: 
+2.6200117493186279 a2_x6
+5.0284694814124267 a2_x4
+2.7871219200097626 a2_x5
<= 389.1630113412258

a2_local_5: 
+0.0013227519000255134 a2_x5
+0.0024509969133946819 a2_x3
+0.0017210630558056712 a2_x6
<= 0.28397695145286678

a2_local_6: 
+25.973751194602329 a2_x6
+18.160836547542161 a2_x4
+23.725067419129555 a2_x1
<= 3571.6110548672123

a2_local_7: 
+44.620852634123338 a2_x3
+40.752818215390818 a2_x6
+50.742793554671387 a2_x1
<= 6362.2631115519016

a2_local_8: 
+1.5776932235562073 a2_x5
+1.5811730894864087 a2_x3
+1.706537798964155 a2_x6
<= 338.42016541110337

a2_act_1: 
+0.6030716546612398 a2_x1
-60.307165466123976 a2_z1
<= 0

a2_act_2: 
+0.0028925318809731046 a2_x2
-0.28925318809731049 a2_z2
<= 0

a3_local_1: 
+23.653921082449198 a3_x5
+15.991688342321682 a3_x2
+19.140795597967735 a3_x3
<= 2276.4110068954246

a3_local_2: 
+7.7410643677621112 a3_x2
+5.0876653459636811 a3_x3
+6.9501422441212721 a3_x4
<= 1002.6795773238568

a3_local_3: 
+0.2264143079956473 a3_x6
+0.46020959577534132 a3_x4
+0.39505049577176587 a3_x1
<= 74.220922876386823

a3_local_4: 
+0.015482454946731766 a3_x4
+0.017422808168453097 a3_x2
+0.0070132570051610228 a3_x1
<= 1.9652791556790201

a3_local_5: 
+2.2456092814591333 a3_x3
+4.392090872607465 a3_x5
+5.1256551970539697 a3_x2
<= 581.86131845222531

a3_local_6: 
+0.23727735433138059 a3_x1
+0.21496046387502576 a3_x6
+0.19332805701294009 a3_x2
<= 29.296874069793361

a3_local_7: 
+200.94616926526393 a3_x1
+268.08553823596753 a3_x4
+151.22200460131245 a3_x6
<= 21170.666008710694

a3_local_8: 
+15.511767624572085 a3_x4
+7.3921666805024424 a3_x3
+11.895826351168346 a3_x5
<= 2212.0481027838346

a3_act_1: 
+0.022622437003430376 a3_x1
-2.2622437003430376 a3_z1
<= 0

a3_act_2: 
+1.8826454441105733 a3_x2
-188.26454441105733 a3_z2
<= 0

a4_local_1: 
+53.285052511404793 a4_x3
+40.616999930571104 a4_x5
+46.512878381388504 a4_x2
<= 8971.6629028426323

a4_local_2: 
+4.3699053938718313 a4_x3
+2.051279060546813 a4_x2
+3.0566905281832559 a4_x6
<= 325.63658745183187

a4_local_3: 
+0.047794076805095793 a4_x5
+0.074082778083118472 a4_x6
+0.088152842175115015 a4_x3
<= 12.300563755632842

a4_local_4: 
+25.555010816343945 a4_x3
+24.138960052231294 a4_x6
+27.656678777089557 a4_x1
<= 5257.7498148214254

a4_local_5: 
+0.10858978135054187 a4_x3
+0.11188760107449766 a4_x6
+0.041217043973444396 a4_x5
<= 13.523845503910012

a4_local_6: 
+11.660192255430918 a4_x3
+12.124021160480924 a4_x4
+16.40947044180643 a4_x6
<= 2356.1019562287174

a4_local_7: 
+0.23864641952356339 a4_x6
+0.2134874772998254 a4_x3
+0.31526668208570735 a4_x1
<= 51.92276084760968

a4_local_8: 
+0.045107858237145949 a4_x1
+0.10252928758550192 a4_x6
+0.078219585206833919 a4_x3
<= 11.960236354412405

a4_act_1: 
+0.019960517821429307 a4_x1
-1.9960517821429307 a4_z1
<= 0

a4_act_2: 
+0.048172364565800582 a4_x2
-4.8172364565800585 a4_z2
<= 0

coupling_1: 
+73.292338207187512 a1_x1
+225.75187371217805 a2_x1
+1008.7114717538306 a3_x1
+9766.0475159990146 a4_x1
+817.08059306382097 short_1
-817.08059306382097 surp_1
= 558815.35227976216

coupling_2: 
+0.065055828534624105 a1_x2
+0.14332124854024389 a2_x2
+0.68835744329782911 a3_x2
+7.4642547167129596 a4_x2
+0.53827215397569872 short_2
-0.53827215397569872 surp_2
= 198.96906719822221

coupling_3: 
+0.96209078938342041 a1_x3
+7.4789587705480045 a2_x3
+17.044885565410222 a3_x3
+154.75267574261818 a4_x3
+12.504856503618129 short_3
-12.504856503618129 surp_3
= 10837.849671824224

bounds
  0 <= a1_x1 <= 100
  0 <= a1_x2 <= 100
  0 <= a1_x3 <= 100
  0 <= a1_x4 <= 100
  0 <= a1_x5 <= 100
  0 <= a1_x6 <= 100
  0 <= a2_x1 <= 100
  0 <= a2_x2 <= 100
  0 <= a2_x3 <= 100
  0 <= a2_x4 <= 100
  0 <= a2_x5 <= 100
  0 <= a2_x6 <= 100
  0 <= a3_x1 <= 100
  0 <= a3_x2 <= 100
  0 <= a3_x3 <= 100
  0 <= a3_x4 <= 100
  0 <= a3_x5 <= 100
  0 <= a3_x6 <= 100
  0 <= a4_x1 <= 100
  0 <= a4_x2 <= 100
  0 <= a4_x3 <= 100
  0 <= a4_x4 <= 100
  0 <= a4_x5 <= 100
  0 <= a4_x6 <= 100
  0 <= short_1 <= +inf
  0 <= surp_1 <= +inf
  0 <= short_2 <= +inf
  0 <= surp_2 <= +inf
  0 <= short_3 <= +inf
  0 <= surp_3 <= +inf
 0 <= a1_z1 <= 1
 0 <= a1_z2 <= 1
 0 <= a2_z1 <= 1
 0 <= a2_z2 <= 1
 0 <= a3_z1 <= 1
 0 <= a3_z2 <= 1
 0 <= a4_z1 <= 1
 0 <= a4_z2 <= 1

binary
  a1_z1
  a1_z2
  a2_z1
  a2_z2
  a3_z1
  a3_z2
  a4_z1
  a4_z2
end
