min
obj: 
  +4.0092711480649195 a1_x1
  +1.9679731558453351 a1_x2
  +5.1245063990813229 a1_x3
  +5.3289660462088069 a1_x4
  +7.7326436197250805 a1_x5
  +5.1395422066191525 a1_x6
  +7.4601303692563201 a1_z1
  +49.872667351617643 a1_z2
  +9.3684343534405965 a2_x1
  +1.0573707236444929 a2_x2
  +6.6071911877442115 a2_x3
  +2.1574642417771144 a2_x4
  +4.0288495580936399 a2_x5
  +6.5816021448275457 a2_x6
  +37.186317612242192 a2_z1
  +14.569927030673126 a2_z2
  +7.5771846442232071 a3_x1
  +6.3254671996139473 a3_x2
  +1.3182946718516668 a3_x3
  +2.4508427443497842 a3_x4
  +7.5821505201430535 a3_x5
  +8.0396019839617026 a3_x6
  +34.570982164584187 a3_z1
  +17.019236119633661 a3_z2
  +9.6576292080467585 a4_x1
  +1.0103892115093069 a4_x2
  +8.2624531172852755 a4_x3
  +1.8717492610420641 a4_x4
  +5.7231033614351237 a4_x5
  +2.0382344427317065 a4_x6
  +33.41705432517788 a4_z1
  +11.211459891146486 a4_z2
  +1000000 short_1
  +1000000 surp_1
  +1000000 short_2
  +1000000 surp_2
  +1000000 short_3
  +1000000 surp_3

s.t.

a1_local_1: 
+1.5342020906071256 a1_x3
+0.65180461304434323 a1_x6
+1.037068538077017 a1_x4
<= 121.83398493957588

a1_local_2: 
+1.607117086705494 a1_x4
+0.89035350617375297 a1_x6
+0.62223219967746579 a1_x2
<= 176.85440397439609

a1_local_3: 
+0.48859375753669404 a1_x6
+0.82628488203111994 a1_x4
+0.43185242516596495 a1_x1
<= 110.89236174661553

a1_local_4: 
+0.9203659999750663 a1_x2
+1.0865242740682415 a1_x5
+1.0672123420542223 a1_x3
<= 207.49116498681522

a1_local_5: 
+1.4849177983047916 a1_x1
+0.67343795134088758 a1_x4
+0.94525559586420516 a1_x2
<= 212.42670500481205

a1_local_6: 
+1.3663465945252316 a1_x1
+1.4006442170372675 a1_x3
+0.71395718329902791 a1_x6
<= 217.30733804183299

a1_local_7: 
+0.78740936838659614 a1_x2
+1.2699874298536762 a1_x5
+1.0030903126853408 a1_x4
<= 170.25171497121121

a1_local_8: 
+1.0069648170297696 a1_x4
+1.5698502088488893 a1_x5
+0.63700345062428698 a1_x6
<= 166.52094511269698

a1_act_1: 
+0.10000000000000001 a1_x1
-10 a1_z1
<= 0

a1_act_2: 
+0.099999999999999992 a1_x2
-10 a1_z2
<= 0

a2_local_1: 
+0.72804982625318748 a2_x4
+1.3735323654238998 a2_x2
+1.1017339962245776 a2_x6
<= 184.84939886414813

a2_local_2: 
+0.90666536941904263 a2_x1
+1.251049191607748 a2_x4
+0.79932908050952045 a2_x5
<= 189.93990861834058

a2_local_3: 
+0.96770654224011876 a2_x4
+0.71530445937690323 a2_x5
+1.3980061034025888 a2_x3
<= 196.83400651691221

a2_local_4: 
+1.2154998417268217 a2_x2
+0.82270681218627917 a2_x1
+1.1666553217880249 a2_x5
<= 146.51193015989227

a2_local_5: 
+1.163697866834567 a2_x2
+0.73375325726383189 a2_x3
+1.3628559602297412 a2_x6
<= 183.81935431007574

a2_local_6: 
+1.1027460442782875 a2_x6
+0.79144001316625101 a2_x5
+1.263519639346234 a2_x2
<= 175.93506570070596

a2_local_7: 
+2.2934694172519525 a2_x2
+1.5651573345640455 a2_x5
+1.6545296666797895 a2_x6
<= 367.5942400462132

a2_local_8: 
+1.1836662385825922 a2_x2
+0.97287734364951117 a2_x4
+0.84483274710738765 a2_x5
<= 199.30240257955288

a2_act_1: 
+0.10000000000000001 a2_x1
-10 a2_z1
<= 0

a2_act_2: 
+0.099999999999999992 a2_x2
-10 a2_z2
<= 0

a3_local_1: 
+0.88143664343025785 a3_x1
+0.73314462870439645 a3_x2
+1.3639873509912868 a3_x6
<= 134.52340896694744

a3_local_2: 
+0.84229729769049477 a3_x2
+0.69598732747975811 a3_x1
+1.436807770079813 a3_x6
<= 128.08415672913608

a3_local_3: 
+1.7110727781504333 a3_x1
+1.3217683192292859 a3_x5
+2.6671812012186811 a3_x2
<= 295.24476995872897

a3_local_4: 
+0.81069305837257799 a3_x4
+1.2335124738917163 a3_x6
+1.1614329046616549 a3_x5
<= 205.84298914074679

a3_local_5: 
+0.83552718991282382 a3_x4
+1.227151298725647 a3_x1
+0.8148954420196306 a3_x5
<= 93.645727166268017

a3_local_6: 
+0.81750235473186939 a3_x5
+0.46365413463435984 a3_x6
+0.42074342360518546 a3_x1
<= 100.30201845468198

a3_local_7: 
+0.43560991750471073 a3_x6
+0.53775688136088995 a3_x1
+0.62082946650195203 a3_x4
<= 100.00622657591754

a3_local_8: 
+0.97442474373049104 a3_x3
+1.2503020548506238 a3_x1
+0.79980673159772742 a3_x6
<= 123.2026983093249

a3_act_1: 
+0.10000000000000001 a3_x1
-10 a3_z1
<= 0

a3_act_2: 
+0.099999999999999992 a3_x2
-10 a3_z2
<= 0

a4_local_1: 
+0.87130639001612431 a4_x3
+0.84643491755682776 a4_x2
+1.1814257413746903 a4_x5
<= 172.75665374490433

a4_local_2: 
+0.65774104868531869 a4_x2
+1.2968193500530434 a4_x5
+1.5203551640859005 a4_x3
<= 240.41552455674227

a4_local_3: 
+1.4629246448779394 a4_x4
+0.68356220773315068 a4_x5
+0.69800044754070878 a4_x2
<= 96.420857622196223

a4_local_4: 
+1.0782476998348447 a4_x5
+1.0984864699200434 a4_x3
+0.91034348385992236 a4_x1
<= 102.15220852671969

a4_local_5: 
+0.92200139531732517 a4_x5
+1.4067863590490537 a4_x6
+0.71083998900584378 a4_x1
<= 163.17136891814118

a4_local_6: 
+1.2534317826465471 a4_x3
+0.56654212028762641 a4_x2
+0.72623509368208827 a4_x1
<= 124.88290252406166

a4_local_7: 
+0.7612040560767519 a4_x1
+0.67221657262505985 a4_x2
+1.487615808243048 a4_x3
<= 178.44426736596293

a4_local_8: 
+0.8528496249356522 a4_x3
+0.60951968164634351 a4_x1
+0.93887249433595621 a4_x4
<= 138.01468131063154

a4_act_1: 
+0.10000000000000001 a4_x1
-10.000000000000002 a4_z1
<= 0

a4_act_2: 
+0.099999999999999992 a4_x2
-10 a4_z2
<= 0

coupling_1: 
+0.016362377076669481 a1_x1
+0.097479190887407557 a2_x1
+0.45767203483301083 a3_x1
+0.85949956168756547 a4_x1
+0.14496015306116275 short_1
-0.14496015306116275 surp_1
= 80.921025334121197

coupling_2: 
+0.0084241785568557881 a1_x2
+0.035795593512424104 a2_x2
+0.13596129200534482 a3_x2
+0.97899479447997573 a4_x2
+0.10423873598159902 short_2
-0.10423873598159902 surp_2
= 63.666886397890259

coupling_3: 
+0.0090028477082913973 a1_x3
+0.027831673062232613 a2_x3
+0.18491596217288811 a3_x3
+0.96922382517327266 a4_x3
+0.11303895425441331 short_3
-0.11303895425441331 surp_3
= 25.988392276073466

bounds
  0 <= a1_x1 <= 100
  0 <= a1_x2 <= 100
  0 <= a1_x3 <= 100
  0 <= a1_x4 <= 100
  0 <= a1_x5 <= 100
  0 <= a1_x6 <= 100
  0 <= a2_x1 <= 100
  0 <= a2_x2 <= 100
  0 <= a2_x3 <= 100
  0 <= a2_x4 <= 100
  0 <= a2_x5 <= 100
  0 <= a2_x6 <= 100
  0 <= a3_x1 <= 100
  0 <= a3_x2 <= 100
  0 <= a3_x3 <= 100
  0 <= a3_x4 <= 100
  0 <= a3_x5 <= 100
  0 <= a3_x6 <= 100
  0 <= a4_x1 <= 100
  0 <= a4_x2 <= 100
  0 <= a4_x3 <= 100
  0 <= a4_x4 <= 100
  0 <= a4_x5 <= 100
  0 <= a4_x6 <= 100
  0 <= short_1 <= +inf
  0 <= surp_1 <= +inf
  0 <= short_2 <= +inf
  0 <= surp_2 <= +inf
  0 <= short_3 <= +inf
  0 <= surp_3 <= +inf
 0 <= a1_z1 <= 1
 0 <= a1_z2 <= 1
 0 <= a2_z1 <= 1
 0 <= a2_z2 <= 1
 0 <= a3_z1 <= 1
 0 <= a3_z2 <= 1
 0 <= a4_z1 <= 1
 0 <= a4_z2 <= 1

binary
  a1_z1
  a1_z2
  a2_z1
  a2_z2
  a3_z1
  a3_z2
  a4_z1
  a4_z2
end
