min
obj: 
  +7.7820756929973847 a1_x1
  +2.6204029212029933 a1_x2
  +1.0229393332967094 a1_x3
  +7.1910932224071349 a1_x4
  +4.2632745770435907 a1_x5
  +6.0246265469097295 a1_x6
  +42.771027111197313 a1_z1
  +28.114118371176183 a1_z2
  +5.7911212590182997 a2_x1
  +5.4348931719458209 a2_x2
  +9.4259627235885386 a2_x3
  +8.9213052519907556 a2_x4
  +6.1484548986939966 a2_x5
  +2.146409388681831 a2_x6
  +31.660946131309107 a2_z1
  +6.9899613369063101 a2_z2
  +2.8186252614454075 a3_x1
  +1.3641205917884647 a3_x2
  +2.33366974601915 a3_x3
  +2.4556775991065138 a3_x4
  +5.2278265061317715 a3_x5
  +6.6696189442115292 a3_x6
  +49.857919593613119 a3_z1
  +30.640944798186169 a3_z2
  +7.0994894146457632 a4_x1
  +9.5674915626052641 a4_x2
  +9.235478138695818 a4_x3
  +8.9478139676632793 a4_x4
  +7.4338997063934436 a4_x5
  +1.7960169742966061 a4_x6
  +7.4304140982629434 a4_z1
  +14.530204301669533 a4_z2
  +1000000 short_1
  +1000000 surp_1
  +1000000 short_2
  +1000000 surp_2
  +1000000 short_3
  +1000000 surp_3

s.t.

a1_local_1: 
+0.50830128584377532 a1_x4
+0.78099407126304765 a1_x6
+0.36287472144189664 a1_x3
<= 82.586536136739326

a1_local_2: 
+0.62841303478021882 a1_x6
+0.44056055071972733 a1_x5
+0.64109551462153114 a1_x4
<= 90.610196797227161

a1_local_3: 
+0.46069916733291411 a1_x4
+0.60784594660963676 a1_x2
+0.64674537679754185 a1_x3
<= 99.499579294658957

a1_local_4: 
+0.62746166085074517 a1_x4
+0.41777488442219135 a1_x5
+0.65708143339197256 a1_x2
<= 86.74594872007529

a1_local_5: 
+0.34648194375364344 a1_x2
+0.84311871084991385 a1_x5
+0.41121904390175895 a1_x4
<= 88.557773967834521

a1_local_6: 
+0.61130116884469288 a1_x2
+0.70495374262121402 a1_x3
+0.35965414182719402 a1_x1
<= 90.840717984386089

a1_local_7: 
+0.39611970782760031 a1_x5
+0.82739434789670929 a1_x2
+0.3981303431530378 a1_x6
<= 88.982247144089214

a1_local_8: 
+0.41281788352611271 a1_x5
+0.73648948985633611 a1_x1
+0.53587743596103632 a1_x6
<= 103.5458862799003

a1_act_1: 
+0.0099995000374968768 a1_x1
-0.99995000374968757 a1_z1
<= 0

a1_act_2: 
+0.0099995000374968768 a1_x2
-0.99995000374968757 a1_z2
<= 0

a2_local_1: 
+0.42900853832239955 a2_x6
+0.64038776448239676 a2_x4
+0.63706764566073859 a2_x3
<= 107.38342384585884

a2_local_2: 
+0.37108491094252499 a2_x5
+0.51453332323007472 a2_x4
+0.77301452001666426 a2_x6
<= 75.252985666485444

a2_local_3: 
+0.55614099615882651 a2_x4
+0.37619132602491423 a2_x5
+0.74107170949583878 a2_x3
<= 51.839585607575813

a2_local_4: 
+0.24288502184544797 a2_x5
+0.23985047577693835 a2_x6
+0.68978290755049187 a2_x4
<= 43.8065694813871

a2_local_5: 
+0.58280691983876709 a2_x4
+0.36290438331361369 a2_x2
+0.72707393211406945 a2_x3
<= 79.669044301504158

a2_local_6: 
+0.61889551998623793 a2_x5
+0.54707832658473377 a2_x4
+0.56362544293370187 a2_x3
<= 65.444236776076949

a2_local_7: 
+0.46021803969222486 a2_x1
+0.73820656439537047 a2_x6
+0.49320424189723833 a2_x4
<= 118.1221670730678

a2_local_8: 
+0.66625591748106305 a2_x4
+0.6188170129417363 a2_x3
+0.41613526276360435 a2_x5
<= 65.194752551224809

a2_act_1: 
+0.0099995000374968751 a2_x1
-0.99995000374968745 a2_z1
<= 0

a2_act_2: 
+0.018008567277550406 a2_x2
-1.8008567277550407 a2_z2
<= 0

a3_local_1: 
+0.45040944646498604 a3_x6
+0.68914092811905814 a3_x2
+0.56764082986190145 a3_x1
<= 114.01347756589718

a3_local_2: 
+0.75301381339081774 a3_x1
+0.50662345785546792 a3_x6
+0.41988435168887628 a3_x2
<= 115.20578781347695

a3_local_3: 
+0.25293624106246604 a3_x6
+0.60553033350024899 a3_x5
+0.28501637764928534 a3_x3
<= 60.632652372585603

a3_local_4: 
+0.6433052393453027 a3_x2
+0.29601460997692891 a3_x6
+0.70606920320255395 a3_x4
<= 69.789029819945583

a3_local_5: 
+0.52882068558906281 a3_x1
+0.70516366679839348 a3_x5
+0.47232709589918487 a3_x3
<= 84.585132463382209

a3_local_6: 
+0.54551462774739479 a3_x5
+0.64574199000543031 a3_x2
+0.53425749714669213 a3_x3
<= 88.915034445616399

a3_local_7: 
+0.56943071577997528 a3_x2
+0.46564334315836148 a3_x3
+0.67743998767315872 a3_x1
<= 91.457607289983642

a3_local_8: 
+0.72949566772882768 a3_x6
+0.33912416760590086 a3_x1
+0.59399568155877769 a3_x2
<= 75.63345013620102

a3_act_1: 
+0.0099995000374968734 a3_x1
-0.99995000374968734 a3_z1
<= 0

a3_act_2: 
+0.019736696890857077 a3_x2
-1.9736696890857077 a3_z2
<= 0

a4_local_1: 
+0.35922126688313905 a4_x1
+0.82536095005775423 a4_x6
+0.43559084418595612 a4_x5
<= 102.34045830510638

a4_local_2: 
+0.69088349963423645 a4_x2
+0.32840043962771276 a4_x5
+0.64407541575926885 a4_x4
<= 111.82877828836617

a4_local_3: 
+0.74228054919970943 a4_x6
+0.57737814604835958 a4_x2
+0.34007949474429788 a4_x5
<= 96.656353967815207

a4_local_4: 
+0.6363613737893532 a4_x6
+0.38653465108739338 a4_x3
+0.66755911008514757 a4_x4
<= 107.04015938518988

a4_local_5: 
+0.44397761964560289 a4_x5
+0.45165252993905791 a4_x2
+0.77388233308008325 a4_x3
<= 66.892639522294431

a4_local_6: 
+0.60027196439209518 a4_x1
+0.51190150666328871 a4_x5
+0.61451640843895283 a4_x4
<= 95.217709897947429

a4_local_7: 
+0.37146299245301995 a4_x6
+0.71516470785044883 a4_x3
+0.59207658785247508 a4_x2
<= 100.93310486108885

a4_local_8: 
+0.49128963235348294 a4_x3
+0.77850908644126038 a4_x6
+0.39058686546064753 a4_x4
<= 59.841937478560624

a4_act_1: 
+0.0099995000374968751 a4_x1
-0.99995000374968757 a4_z1
<= 0

a4_act_2: 
+0.0099995000374968768 a4_x2
-0.99995000374968757 a4_z2
<= 0

coupling_1: 
+0.014051723935445333 a1_x1
+0.081570446279411499 a2_x1
+0.30472282706158899 a3_x1
+0.92713671434390377 a4_x1
+0.14267151595781649 short_1
-0.14267151595781649 surp_1
= 94.003936063583197

coupling_2: 
+0.0083921667154561955 a1_x2
+0.03462815036226656 a2_x2
+0.16907081447912939 a3_x2
+0.59289016415780293 a4_x2
+0.06007188281603628 short_2
-0.06007188281603628 surp_2
= 22.541447385147215

coupling_3: 
+0.02112431840919398 a1_x3
+0.069019429152177403 a2_x3
+0.20540472798270218 a3_x3
+0.94197776930704979 a4_x3
+0.18066109352171139 short_3
-0.18066109352171139 surp_3
= 27.754466024285588

bounds
  0 <= a1_x1 <= 100
  0 <= a1_x2 <= 100
  0 <= a1_x3 <= 100
  0 <= a1_x4 <= 100
  0 <= a1_x5 <= 100
  0 <= a1_x6 <= 100
  0 <= a2_x1 <= 100
  0 <= a2_x2 <= 100
  0 <= a2_x3 <= 100
  0 <= a2_x4 <= 100
  0 <= a2_x5 <= 100
  0 <= a2_x6 <= 100
  0 <= a3_x1 <= 100
  0 <= a3_x2 <= 100
  0 <= a3_x3 <= 100
  0 <= a3_x4 <= 100
  0 <= a3_x5 <= 100
  0 <= a3_x6 <= 100
  0 <= a4_x1 <= 100
  0 <= a4_x2 <= 100
  0 <= a4_x3 <= 100
  0 <= a4_x4 <= 100
  0 <= a4_x5 <= 100
  0 <= a4_x6 <= 100
  0 <= short_1 <= +inf
  0 <= surp_1 <= +inf
  0 <= short_2 <= +inf
  0 <= surp_2 <= +inf
  0 <= short_3 <= +inf
  0 <= surp_3 <= +inf
 0 <= a1_z1 <= 1
 0 <= a1_z2 <= 1
 0 <= a2_z1 <= 1
 0 <= a2_z2 <= 1
 0 <= a3_z1 <= 1
 0 <= a3_z2 <= 1
 0 <= a4_z1 <= 1
 0 <= a4_z2 <= 1

binary
  a1_z1
  a1_z2
  a2_z1
  a2_z2
  a3_z1
  a3_z2
  a4_z1
  a4_z2
end
