min
obj: 
  +7.7820756929973847 a1_x1
  +2.6204029212029933 a1_x2
  +1.0229393332967094 a1_x3
  +7.1910932224071349 a1_x4
  +4.2632745770435907 a1_x5
  +6.0246265469097295 a1_x6
  +42.771027111197313 a1_z1
  +28.114118371176183 a1_z2
  +5.7911212590182997 a2_x1
  +5.4348931719458209 a2_x2
  +9.4259627235885386 a2_x3
  +8.9213052519907556 a2_x4
  +6.1484548986939966 a2_x5
  +2.146409388681831 a2_x6
  +31.660946131309107 a2_z1
  +6.9899613369063101 a2_z2
  +2.8186252614454075 a3_x1
  +1.3641205917884647 a3_x2
  +2.33366974601915 a3_x3
  +2.4556775991065138 a3_x4
  +5.2278265061317715 a3_x5
  +6.6696189442115292 a3_x6
  +49.857919593613119 a3_z1
  +30.640944798186169 a3_z2
  +7.0994894146457632 a4_x1
  +9.5674915626052641 a4_x2
  +9.235478138695818 a4_x3
  +8.9478139676632793 a4_x4
  +7.4338997063934436 a4_x5
  +1.7960169742966061 a4_x6
  +7.4304140982629434 a4_z1
  +14.530204301669533 a4_z2
  +1000000 short_1
  +1000000 surp_1
  +1000000 short_2
  +1000000 surp_2
  +1000000 short_3
  +1000000 surp_3

s.t.

a1_local_1: 
+18.315397585984925 a1_x4
+28.141217277731052 a1_x6
+13.075305890834498 a1_x3
<= 2975.8044819477127

a1_local_2: 
+0.030215162932061907 a1_x6
+0.02118289736954786 a1_x5
+0.030824958040659333 a1_x4
<= 4.3566917107184633

a1_local_3: 
+8.1859749366799974 a1_x4
+10.800565829356826 a1_x2
+11.49175388253431 a1_x3
<= 1767.9672985553739

a1_local_4: 
+0.015812442142170122 a1_x4
+0.010528198933176086 a1_x5
+0.016558879683768072 a1_x2
<= 2.1860543532557379

a1_local_5: 
+0.83341270753576169 a1_x2
+2.0280013439404483 a1_x5
+0.98912853309351811 a1_x4
<= 213.0130458640873

a1_local_6: 
+8.8251366933261952 a1_x2
+10.17716545980414 a1_x3
+5.1921984215153678 a1_x1
<= 1311.4350084545279

a1_local_7: 
+25.011437902441774 a1_x5
+52.242597235925601 a1_x2
+25.138391647970945 a1_x6
<= 5618.4378229237991

a1_local_8: 
+1.7121502323958715 a1_x5
+3.0545688584125492 a1_x1
+2.2225361669884043 a1_x6
<= 429.45356858929193

a1_act_1: 
+2.742469301660408 a1_x1
-274.24693016604078 a1_z1
<= 0

a1_act_2: 
+365.62834758840654 a1_x2
-36562.834758840654 a1_z2
<= 0

a2_local_1: 
+0.00095130030322283907 a2_x6
+0.0014200208623225258 a2_x4
+0.0014126587010608175 a2_x3
<= 0.23811620175471568

a2_local_2: 
+0.94333038457305962 a2_x5
+1.3079888278008087 a2_x4
+1.9650706966115943 a2_x6
<= 191.29968860423861

a2_local_3: 
+0.079839104170570718 a2_x4
+0.054005690416663192 a2_x5
+0.10638759203323328 a2_x3
<= 7.4420445607654315

a2_local_4: 
+0.24288502184544797 a2_x5
+0.23985047577693835 a2_x6
+0.68978290755049187 a2_x4
<= 43.8065694813871

a2_local_5: 
+3.1796668416479772 a2_x4
+1.9799267905573845 a2_x2
+3.9667560467698131 a2_x3
<= 434.65684748794251

a2_local_6: 
+0.14804007127547683 a2_x5
+0.13086136810729135 a2_x4
+0.13481944536685742 a2_x3
<= 15.654289236275369

a2_local_7: 
+281.85576528053787 a2_x1
+452.10695409054603 a2_x6
+302.05782270621012 a2_x4
<= 72342.696125602466

a2_local_8: 
+0.0031221647564313036 a2_x4
+0.0028998596752301225 a2_x3
+0.0019500657588466875 a2_x5
<= 0.30551137089972541

a2_act_1: 
+20.520882562507481 a2_x1
-2052.0882562507481 a2_z1
<= 0

a2_act_2: 
+0.018008567277550406 a2_x2
-1.8008567277550407 a2_z2
<= 0

a3_local_1: 
+131.64399702574519 a3_x6
+201.41954615660367 a3_x2
+165.9079495435067 a3_x1
<= 33323.434975395481

a3_local_2: 
+4.2876591404586772 a3_x1
+2.8847129510987886 a3_x6
+2.3908206548662623 a3_x2
<= 655.98152433337646

a3_local_3: 
+0.25293624106246604 a3_x6
+0.60553033350024899 a3_x5
+0.28501637764928534 a3_x3
<= 60.632652372585603

a3_local_4: 
+96.242379267173447 a3_x2
+44.285587338007176 a3_x6
+105.63225027150145 a3_x4
<= 10440.863630233891

a3_local_5: 
+0.0047688185418734604 a3_x1
+0.0063590507348209669 a3_x5
+0.0042593685801913007 a3_x3
<= 0.76277490470872455

a3_local_6: 
+291.74041534251143 a3_x5
+345.34186030208394 a3_x2
+285.72011856224867 a3_x3
<= 47551.628792197356

a3_local_7: 
+1.3112216717415415 a3_x2
+1.0722316621348971 a3_x3
+1.5599334010717334 a3_x1
<= 210.59839836702906

a3_local_8: 
+7.8089865367843165 a3_x6
+3.6302012147343938 a3_x1
+6.358508330339764 a3_x2
<= 809.62865164497543

a3_act_1: 
+0.031040903281888039 a3_x1
-3.1040903281888039 a3_z1
<= 0

a3_act_2: 
+0.019736696890857077 a3_x2
-1.9736696890857077 a3_z2
<= 0

a4_local_1: 
+974.07935076016804 a4_x1
+2238.083132858048 a4_x6
+1181.1662777743109 a4_x5
<= 277510.64976552804

a4_local_2: 
+913.82860808117198 a4_x2
+434.37383697412929 a4_x5
+851.91575858186593 a4_x4
<= 147915.43995590822

a4_local_3: 
+820.53432798387826 a4_x6
+638.24734404148353 a4_x2
+375.931849463069 a4_x5
<= 106846.20058259794

a4_local_4: 
+175.60239277621679 a4_x6
+106.66330864439716 a4_x3
+184.21133318081837 a4_x4
<= 29537.474908728411

a4_local_5: 
+32.813702920559699 a4_x5
+33.380943734437672 a4_x2
+57.196452815413842 a4_x3
<= 4943.9320896597783

a4_local_6: 
+668.3868598191558 a4_x1
+569.98870657214366 a4_x5
+684.24766923741788 a4_x4
<= 106022.38634001832

a4_local_7: 
+0.05010726892531403 a4_x6
+0.096469772413972671 a4_x3
+0.079866208517819989 a4_x2
<= 13.615036575631782

a4_local_8: 
+114.93329899153861 a4_x3
+182.12600410668654 a4_x6
+91.37468823656566 a4_x4
<= 13999.54495173993

a4_act_1: 
+16.452275127318458 a4_x1
-1645.2275127318458 a4_z1
<= 0

a4_act_2: 
+0.91457746355283298 a4_x2
-91.457746355283291 a4_z2
<= 0

coupling_1: 
+5.4544467670030361 a1_x1
+31.663136782058494 a2_x1
+118.28402312299153 a3_x1
+359.8859383628116 a4_x1
+55.380691546077642 short_1
-55.380691546077642 surp_1
= 36489.434855334104

coupling_2: 
+0.0083921667154561955 a1_x2
+0.03462815036226656 a2_x2
+0.16907081447912939 a3_x2
+0.59289016415780293 a4_x2
+0.06007188281603628 short_2
-0.06007188281603628 surp_2
= 22.541447385147215

coupling_3: 
+0.12349391554591643 a1_x3
+0.40349134062648229 a2_x3
+1.200807223166432 a3_x3
+5.5068533258950341 a4_x3
+1.0561545889259496 short_3
-1.0561545889259496 surp_3
= 162.25411948597454

bounds
  0 <= a1_x1 <= 100
  0 <= a1_x2 <= 100
  0 <= a1_x3 <= 100
  0 <= a1_x4 <= 100
  0 <= a1_x5 <= 100
  0 <= a1_x6 <= 100
  0 <= a2_x1 <= 100
  0 <= a2_x2 <= 100
  0 <= a2_x3 <= 100
  0 <= a2_x4 <= 100
  0 <= a2_x5 <= 100
  0 <= a2_x6 <= 100
  0 <= a3_x1 <= 100
  0 <= a3_x2 <= 100
  0 <= a3_x3 <= 100
  0 <= a3_x4 <= 100
  0 <= a3_x5 <= 100
  0 <= a3_x6 <= 100
  0 <= a4_x1 <= 100
  0 <= a4_x2 <= 100
  0 <= a4_x3 <= 100
  0 <= a4_x4 <= 100
  0 <= a4_x5 <= 100
  0 <= a4_x6 <= 100
  0 <= short_1 <= +inf
  0 <= surp_1 <= +inf
  0 <= short_2 <= +inf
  0 <= surp_2 <= +inf
  0 <= short_3 <= +inf
  0 <= surp_3 <= +inf
 0 <= a1_z1 <= 1
 0 <= a1_z2 <= 1
 0 <= a2_z1 <= 1
 0 <= a2_z2 <= 1
 0 <= a3_z1 <= 1
 0 <= a3_z2 <= 1
 0 <= a4_z1 <= 1
 0 <= a4_z2 <= 1

binary
  a1_z1
  a1_z2
  a2_z1
  a2_z2
  a3_z1
  a3_z2
  a4_z1
  a4_z2
end
