min
obj: 
  +9.9278906915658744 a1_x1
  +4.1029321056614965 a1_x2
  +3.3290118192963942 a1_x3
  +9.1017647242801925 a1_x4
  +1.0276781995025082 a1_x5
  +7.5015228430107515 a1_x6
  +48.476105885704612 a1_z1
  +46.462393702811802 a1_z2
  +3.1850077691017789 a2_x1
  +1.0794293017939207 a2_x2
  +3.499564475939096 a2_x3
  +4.2123952542391079 a2_x4
  +5.825176560091875 a2_x5
  +3.8934254066749405 a2_x6
  +48.499085817086311 a2_z1
  +41.1366386984797 a2_z2
  +2.6719241979528361 a3_x1
  +3.8682188322270532 a3_x2
  +5.9140343670384405 a3_x3
  +8.8118059009872773 a3_x4
  +5.9790956134935263 a3_x5
  +2.6868556403382673 a3_x6
  +5.1863767770133045 a3_z1
  +6.8806666184499186 a3_z2
  +1.2856225251920637 a4_x1
  +5.2994894770405514 a4_x2
  +9.0295106348529277 a4_x3
  +3.0822666442565567 a4_x4
  +2.1929853575171814 a4_x5
  +7.0676293507155048 a4_x6
  +41.576942647234446 a4_z1
  +44.440960753164354 a4_z2
  +1000000 short_1
  +1000000 surp_1
  +1000000 short_2
  +1000000 surp_2
  +1000000 short_3
  +1000000 surp_3

s.t.

a1_local_1: 
+1.2150186794697522 a1_x4
+1.1816463149053793 a1_x6
+0.8230326141458264 a1_x1
<= 128.37354550348243

a1_local_2: 
+0.7912772818185142 a1_x6
+0.95132572721491082 a1_x5
+1.2637794904231281 a1_x4
<= 134.08183250302153

a1_local_3: 
+0.70888383895069862 a1_x3
+0.57337271729634609 a1_x1
+0.46742754996248337 a1_x6
<= 103.91364585250994

a1_local_4: 
+1.2928577326049484 a1_x5
+1.36477642842819 a1_x2
+0.73272074397687081 a1_x4
<= 142.91338333331129

a1_local_5: 
+0.71301792026251276 a1_x4
+1.4024892945633523 a1_x2
+0.86469824810218687 a1_x5
<= 177.74214838946796

a1_local_6: 
+1.4259813184398664 a1_x3
+1.3454616734476368 a1_x4
+0.70127145921804712 a1_x1
<= 133.7248437874282

a1_local_7: 
+1.1577714136341215 a1_x1
+0.86372835624012034 a1_x2
+0.99437982447742612 a1_x5
<= 159.20056922293955

a1_local_8: 
+1.0911945770574754 a1_x5
+1.1807609242233659 a1_x2
+0.84691149536282306 a1_x4
<= 141.59798379707561

a1_act_1: 
+0.10000000000000001 a1_x1
-10 a1_z1
<= 0

a1_act_2: 
+0.099999999999999992 a1_x2
-9.9999999999999982 a1_z2
<= 0

a2_local_1: 
+0.69037705955911943 a2_x6
+0.42086762197054728 a2_x4
+0.9926600037835438 a2_x1
<= 139.43887649514326

a2_local_2: 
+1.0769540369010855 a2_x2
+1.0399443164295965 a2_x1
+0.92854473425577266 a2_x4
<= 169.61908749502484

a2_local_3: 
+1.3661582270586314 a2_x3
+1.4051186717543707 a2_x4
+0.71168366067717481 a2_x5
<= 242.04265309659422

a2_local_4: 
+0.75966402025395929 a2_x4
+1.3019685085939667 a2_x3
+1.3163714133330879 a2_x2
<= 125.05048937869577

a2_local_5: 
+1.1979166843162841 a2_x1
+0.78884095717804736 a2_x4
+1.2676826563079844 a2_x2
<= 141.26076286243259

a2_local_6: 
+0.69602168714649215 a2_x3
+1.4367368409161785 a2_x5
+1.084507447984373 a2_x1
<= 204.14759172879505

a2_local_7: 
+0.80721460123616018 a2_x3
+1.0370496967943301 a2_x6
+1.2388279380335916 a2_x4
<= 202.91017335852419

a2_local_8: 
+0.97849416338633921 a2_x1
+1.79075639443061 a2_x6
+1.6911167694647835 a2_x5
<= 261.91799221009137

a2_act_1: 
+0.10000000000000001 a2_x1
-10 a2_z1
<= 0

a2_act_2: 
+0.10000000000000001 a2_x2
-10 a2_z2
<= 0

a3_local_1: 
+1.53516604128286 a3_x1
+1.3591369364393544 a3_x4
+0.65139533647080372 a3_x2
<= 136.54611506689668

a3_local_2: 
+0.74418733476839083 a3_x6
+1.3437476738450873 a3_x4
+1.15016229358445 a3_x1
<= 125.99921405949331

a3_local_3: 
+1.3962420443705426 a3_x2
+0.8574777846206697 a3_x3
+0.7162081990238468 a3_x5
<= 155.36918079975095

a3_local_4: 
+0.74498068518282512 a3_x5
+1.3423166800016977 a3_x1
+1.1088145958657545 a3_x6
<= 142.95209130377998

a3_local_5: 
+1.0530529378288007 a3_x6
+0.73385772437237728 a3_x3
+1.3626619531125568 a3_x1
<= 119.95744514390121

a3_local_6: 
+0.90186303545680024 a3_x2
+1.1088158186830357 a3_x6
+0.94211412005498962 a3_x4
<= 121.81862817287377

a3_local_7: 
+1.4123031394288177 a3_x2
+0.66640384915273365 a3_x5
+1.5005915726198169 a3_x4
<= 189.93885819847262

a3_local_8: 
+1.1519545091647598 a3_x2
+1.2402672083296455 a3_x1
+0.80627786761110121 a3_x5
<= 198.72861027724042

a3_act_1: 
+0.099999999999999992 a3_x1
-10 a3_z1
<= 0

a3_act_2: 
+0.10000000000000001 a3_x2
-10.000000000000002 a3_z2
<= 0

a4_local_1: 
+1.4926136450452159 a4_x2
+0.66996573649151314 a4_x6
+1.4440750339305362 a4_x5
<= 237.10847516680195

a4_local_2: 
+0.62823343579449831 a4_x3
+1.5917650080743402 a4_x5
+1.2851473160769953 a4_x1
<= 201.80157071851752

a4_local_3: 
+0.83522432276703862 a4_x4
+1.1972831402790947 a4_x3
+1.0462431312050047 a4_x6
<= 188.99023877330134

a4_local_4: 
+1.2359350453004121 a4_x5
+0.80910400898692492 a4_x1
+0.81419027416480216 a4_x4
<= 137.88152348163101

a4_local_5: 
+0.76408964291946702 a4_x5
+1.3705629837085009 a4_x6
+0.72962717648639297 a4_x1
<= 176.37369760672303

a4_local_6: 
+1.0761206922296818 a4_x4
+1.0759171606021949 a4_x3
+0.92926379654315294 a4_x2
<= 128.63783926236408

a4_local_7: 
+0.90307499200828611 a4_x3
+1.441366701863797 a4_x6
+0.69378597320648783 a4_x1
<= 184.74101657474725

a4_local_8: 
+0.94438556672081364 a4_x3
+0.97891764358082123 a4_x2
+1.058889541770843 a4_x6
<= 113.36400182943727

a4_act_1: 
+0.099999999999999992 a4_x1
-10 a4_z1
<= 0

a4_act_2: 
+0.10000000000000001 a4_x2
-10 a4_z2
<= 0

coupling_1: 
+0.008215439829598473 a1_x1
+0.049000319213163418 a2_x1
+0.20270816432369329 a3_x1
+0.9706488583933488 a4_x1
+0.084503458750578769 short_1
-0.084503458750578769 surp_1
= 35.925670593395139

coupling_2: 
+0.011334412618571769 a1_x2
+0.040393094220749028 a2_x2
+0.43578739855360121 a3_x2
+0.87086233240893851 a4_x2
+0.15800011120726176 short_2
-0.15800011120726176 surp_2
= 76.371490513425897

coupling_3: 
+0.0052879225582466022 a1_x3
+0.018288698672392051 a2_x3
+0.14714311030745336 a3_x3
+0.98421990769378809 a4_x3
+0.068182254891459251 short_3
-0.068182254891459251 surp_3
= 40.96076984326465

bounds
  0 <= a1_x1 <= 100
  0 <= a1_x2 <= 100
  0 <= a1_x3 <= 100
  0 <= a1_x4 <= 100
  0 <= a1_x5 <= 100
  0 <= a1_x6 <= 100
  0 <= a2_x1 <= 100
  0 <= a2_x2 <= 100
  0 <= a2_x3 <= 100
  0 <= a2_x4 <= 100
  0 <= a2_x5 <= 100
  0 <= a2_x6 <= 100
  0 <= a3_x1 <= 100
  0 <= a3_x2 <= 100
  0 <= a3_x3 <= 100
  0 <= a3_x4 <= 100
  0 <= a3_x5 <= 100
  0 <= a3_x6 <= 100
  0 <= a4_x1 <= 100
  0 <= a4_x2 <= 100
  0 <= a4_x3 <= 100
  0 <= a4_x4 <= 100
  0 <= a4_x5 <= 100
  0 <= a4_x6 <= 100
  0 <= short_1 <= +inf
  0 <= surp_1 <= +inf
  0 <= short_2 <= +inf
  0 <= surp_2 <= +inf
  0 <= short_3 <= +inf
  0 <= surp_3 <= +inf
 0 <= a1_z1 <= 1
 0 <= a1_z2 <= 1
 0 <= a2_z1 <= 1
 0 <= a2_z2 <= 1
 0 <= a3_z1 <= 1
 0 <= a3_z2 <= 1
 0 <= a4_z1 <= 1
 0 <= a4_z2 <= 1

binary
  a1_z1
  a1_z2
  a2_z1
  a2_z2
  a3_z1
  a3_z2
  a4_z1
  a4_z2
end
