min
obj: 
  +3.0571104005516858 a1_x1
  +8.0556013187453051 a1_x2
  +1.9742345173811016 a1_x3
  +4.4385591714508195 a1_x4
  +2.091774352732247 a1_x5
  +8.3606733491801819 a1_x6
  +15.666425601953888 a1_z1
  +12.324732571684713 a1_z2
  +3.9044727049854391 a2_x1
  +3.1906424171049248 a2_x2
  +7.2566205037606055 a2_x3
  +4.240342031508578 a2_x4
  +1.7216538193625648 a2_x5
  +9.8652119955060549 a2_x6
  +47.432933857706239 a2_z1
  +10.018499727455843 a2_z2
  +7.6634289009813905 a3_x1
  +6.6031951543936822 a3_x2
  +5.6627725428325562 a3_x3
  +4.150259343395577 a3_x4
  +2.0433644620272413 a3_x5
  +3.9564814242041457 a3_x6
  +26.646913444644401 a3_z1
  +25.192698563482555 a3_z2
  +2.4319173360803403 a4_x1
  +1.259802781834898 a4_x2
  +6.7186619976265831 a4_x3
  +9.2328283032404528 a4_x4
  +5.8537835915052003 a4_x5
  +9.834988999700645 a4_x6
  +10.083472599865093 a4_z1
  +40.29173016694412 a4_z2
  +1000000 short_1
  +1000000 surp_1
  +1000000 short_2
  +1000000 surp_2
  +1000000 short_3
  +1000000 surp_3

s.t.

a1_local_1: 
+0.93641113939327503 a1_x5
+1.5412958802844952 a1_x1
+0.64880469272091856 a1_x6
<= 122.3139070921633

a1_local_2: 
+0.70802215372229949 a1_x6
+1.412385184196115 a1_x4
+1.2316805685186334 a1_x2
<= 143.46366237467919

a1_local_3: 
+1.4995550495282872 a1_x4
+0.6668644811102924 a1_x5
+1.1619216324198522 a1_x1
<= 220.01263852407729

a1_local_4: 
+1.677065423601404 a1_x3
+0.59627965965248741 a1_x1
+0.73880309504739583 a1_x4
<= 132.80699517385739

a1_local_5: 
+0.86504388162356738 a1_x4
+1.0232705937708542 a1_x5
+1.1560107195060889 a1_x1
<= 94.032693467040943

a1_local_6: 
+0.7733571285469939 a1_x2
+1.0060606780846151 a1_x5
+1.2930636611300519 a1_x6
<= 116.53575412744934

a1_local_7: 
+0.99601807677116294 a1_x1
+1.1135559687830925 a1_x3
+0.89802401319155256 a1_x5
<= 176.34080263582885

a1_local_8: 
+2.3766822025133667 a1_x3
+2.0865167544575525 a1_x4
+1.5311984970876817 a1_x1
<= 212.79581222677473

a1_act_1: 
+0.099999999999999992 a1_x1
-10 a1_z1
<= 0

a1_act_2: 
+0.099999999999999992 a1_x2
-10 a1_z2
<= 0

a2_local_1: 
+1.0887389264476437 a2_x2
+0.62430772309619076 a2_x6
+1.6017741940474506 a2_x4
<= 225.56304428014087

a2_local_2: 
+0.94191347088911292 a2_x2
+1.0214081718705479 a2_x5
+1.0616686467559029 a2_x3
<= 183.54152993082653

a2_local_3: 
+1.1232856976590595 a2_x3
+0.89024546656653047 a2_x5
+0.93450455585374548 a2_x2
<= 135.0188928449345

a2_local_4: 
+0.68412117906789016 a2_x1
+1.4617293406447269 a2_x5
+0.99064824886922098 a2_x6
<= 201.31213189607388

a2_local_5: 
+1.1009832847626295 a2_x2
+1.3322995610454296 a2_x6
+0.75058194811332024 a2_x1
<= 190.63076489673685

a2_local_6: 
+1.0213465462527971 a2_x1
+1.3088325083104977 a2_x5
+0.76403970229227169 a2_x4
<= 202.6975503541986

a2_local_7: 
+1.4643557299827472 a2_x6
+0.99221511477685087 a2_x3
+1.6387675685620962 a2_x4
<= 130.06764972427456

a2_local_8: 
+1.1511816838162776 a2_x3
+1.2938025461701992 a2_x1
+0.7729154676346186 a2_x4
<= 171.62417142678069

a2_act_1: 
+0.10000000000000001 a2_x1
-10 a2_z1
<= 0

a2_act_2: 
+0.099999999999999992 a2_x2
-9.9999999999999982 a2_z2
<= 0

a3_local_1: 
+1.3749217558801052 a3_x5
+1.2673651843923233 a3_x6
+0.72731411494749876 a3_x2
<= 155.94341129147753

a3_local_2: 
+1.0089456371620353 a3_x3
+0.76209475168910823 a3_x1
+1.3121727945030432 a3_x5
<= 198.95453786536387

a3_local_3: 
+0.68780525395679826 a3_x6
+1.2867449771639872 a3_x2
+1.4538999146156728 a3_x3
<= 167.41103894496908

a3_local_4: 
+0.8553308774658468 a3_x5
+1.1691381970948778 a3_x6
+1.0572916598604265 a3_x3
<= 127.70685624336299

a3_local_5: 
+1.3184060555587758 a3_x5
+0.93516527465587151 a3_x6
+0.7584916617939631 a3_x4
<= 113.92043870664328

a3_local_6: 
+1.0709424046999128 a3_x3
+0.87131420685475469 a3_x6
+1.1476916043981098 a3_x2
<= 99.327997173298854

a3_local_7: 
+0.97317980787677383 a3_x4
+0.96966289223176561 a3_x6
+1.0312862418591795 a3_x3
<= 103.55789082891197

a3_local_8: 
+1.4575377601490442 a3_x6
+0.88145789929059415 a3_x3
+0.68608857165919501 a3_x5
<= 158.19001207711781

a3_act_1: 
+0.099999999999999992 a3_x1
-10 a3_z1
<= 0

a3_act_2: 
+0.10000000000000001 a3_x2
-10 a3_z2
<= 0

a4_local_1: 
+0.80122318811874016 a4_x4
+1.5952091718348784 a4_x1
+0.62687703760489089 a4_x6
<= 194.36893773709511

a4_local_2: 
+1.3879349413299682 a4_x2
+1.5287532377775872 a4_x6
+0.65412780512160484 a4_x1
<= 189.79267303658449

a4_local_3: 
+0.8295653227406361 a4_x4
+1.2054505806683173 a4_x3
+0.90459990011063196 a4_x5
<= 120.96683032363316

a4_local_4: 
+0.72468781612325683 a4_x1
+1.3799045295801102 a4_x6
+0.83701808176015435 a4_x4
<= 202.8593808996221

a4_local_5: 
+0.98245720732962527 a4_x3
+0.96256213363684118 a4_x6
+1.0388939737549281 a4_x4
<= 184.73106227901806

a4_local_6: 
+0.68702006085384215 a4_x3
+0.40940922661905771 a4_x1
+0.51919474030799506 a4_x5
<= 69.413749128838489

a4_local_7: 
+0.7834528580944865 a4_x5
+1.3237642003946055 a4_x4
+0.75542154690533736 a4_x3
<= 164.76443252320999

a4_local_8: 
+0.87550150605245369 a4_x1
+1.1422024897580101 a4_x4
+0.89837829552338466 a4_x6
<= 115.46465993395735

a4_act_1: 
+0.10000000000000001 a4_x1
-10 a4_z1
<= 0

a4_act_2: 
+0.099999999999999992 a4_x2
-10 a4_z2
<= 0

coupling_1: 
+0.11814252891547729 a1_x1
+0.30409199847401119 a2_x1
+1.7740568950897282 a3_x1
+8.4643524155084737 a4_x1
+0.89580702901743348 short_1
-0.89580702901743348 surp_1
= 336.93357072571052

coupling_2: 
+0.11015980064027002 a1_x2
+0.430015297322285 a2_x2
+1.712074008756199 a3_x2
+9.0777215843511598 a4_x2
+0.82585304892383693 short_2
-0.82585304892383693 surp_2
= 497.11112082327963

coupling_3: 
+0.060979566014134214 a1_x3
+0.43238641427599961 a2_x3
+2.1001647819719365 a3_x3
+16.398935993873977 a4_x3
+1.1075320335796173 short_3
-1.1075320335796173 surp_3
= 1305.6423108345978

bounds
  0 <= a1_x1 <= 100
  0 <= a1_x2 <= 100
  0 <= a1_x3 <= 100
  0 <= a1_x4 <= 100
  0 <= a1_x5 <= 100
  0 <= a1_x6 <= 100
  0 <= a2_x1 <= 100
  0 <= a2_x2 <= 100
  0 <= a2_x3 <= 100
  0 <= a2_x4 <= 100
  0 <= a2_x5 <= 100
  0 <= a2_x6 <= 100
  0 <= a3_x1 <= 100
  0 <= a3_x2 <= 100
  0 <= a3_x3 <= 100
  0 <= a3_x4 <= 100
  0 <= a3_x5 <= 100
  0 <= a3_x6 <= 100
  0 <= a4_x1 <= 100
  0 <= a4_x2 <= 100
  0 <= a4_x3 <= 100
  0 <= a4_x4 <= 100
  0 <= a4_x5 <= 100
  0 <= a4_x6 <= 100
  0 <= short_1 <= +inf
  0 <= surp_1 <= +inf
  0 <= short_2 <= +inf
  0 <= surp_2 <= +inf
  0 <= short_3 <= +inf
  0 <= surp_3 <= +inf
 0 <= a1_z1 <= 1
 0 <= a1_z2 <= 1
 0 <= a2_z1 <= 1
 0 <= a2_z2 <= 1
 0 <= a3_z1 <= 1
 0 <= a3_z2 <= 1
 0 <= a4_z1 <= 1
 0 <= a4_z2 <= 1

binary
  a1_z1
  a1_z2
  a2_z1
  a2_z2
  a3_z1
  a3_z2
  a4_z1
  a4_z2
end
