min
obj: 
  +9.9278906915658744 a1_x1
  +4.1029321056614965 a1_x2
  +3.3290118192963942 a1_x3
  +9.1017647242801925 a1_x4
  +1.0276781995025082 a1_x5
  +7.5015228430107515 a1_x6
  +48.476105885704612 a1_z1
  +46.462393702811802 a1_z2
  +3.1850077691017789 a2_x1
  +1.0794293017939207 a2_x2
  +3.499564475939096 a2_x3
  +4.2123952542391079 a2_x4
  +5.825176560091875 a2_x5
  +3.8934254066749405 a2_x6
  +48.499085817086311 a2_z1
  +41.1366386984797 a2_z2
  +2.6719241979528361 a3_x1
  +3.8682188322270532 a3_x2
  +5.9140343670384405 a3_x3
  +8.8118059009872773 a3_x4
  +5.9790956134935263 a3_x5
  +2.6868556403382673 a3_x6
  +5.1863767770133045 a3_z1
  +6.8806666184499186 a3_z2
  +1.2856225251920637 a4_x1
  +5.2994894770405514 a4_x2
  +9.0295106348529277 a4_x3
  +3.0822666442565567 a4_x4
  +2.1929853575171814 a4_x5
  +7.0676293507155048 a4_x6
  +41.576942647234446 a4_z1
  +44.440960753164354 a4_z2
  +1000000 short_1
  +1000000 surp_1
  +1000000 short_2
  +1000000 surp_2
  +1000000 short_3
  +1000000 surp_3

s.t.

a1_local_1: 
+0.021185123557558125 a1_x4
+0.020603241419735636 a1_x6
+0.014350435855182638 a1_x1
<= 2.238327252878082

a1_local_2: 
+47.749044367553246 a1_x6
+57.407049842735404 a1_x5
+76.261841892306748 a1_x4
<= 8091.0693585893086

a1_local_3: 
+0.70888383895069862 a1_x3
+0.57337271729634609 a1_x1
+0.46742754996248337 a1_x6
<= 103.91364585250994

a1_local_4: 
+0.040640340670915827 a1_x5
+0.042901069152599135 a1_x2
+0.023032712649571966 a1_x4
<= 4.4924112209906149

a1_local_5: 
+68.989612026160032 a1_x4
+135.70092637664047 a1_x2
+83.665774675490354 a1_x5
<= 17197.831232026972

a1_local_6: 
+40.417115018398817 a1_x3
+38.134916990410538 a1_x4
+19.876395896508672 a1_x1
<= 3790.2126222012066

a1_local_7: 
+0.028162620719915155 a1_x1
+0.021010066249151148 a1_x2
+0.024188144152213001 a1_x5
<= 3.8725306192756976

a1_local_8: 
+17.772514307991742 a1_x5
+19.231300137749859 a1_x2
+13.793824662808648 a1_x4
<= 2306.2359783737793

a1_act_1: 
+0.014616550732594802 a1_x1
-1.4616550732594802 a1_z1
<= 0

a1_act_2: 
+0.0031090511783047211 a1_x2
-0.31090511783047209 a1_z2
<= 0

a2_local_1: 
+0.69037705955911943 a2_x6
+0.42086762197054728 a2_x4
+0.9926600037835438 a2_x1
<= 139.43887649514326

a2_local_2: 
+0.074048103444813537 a2_x2
+0.071503426962777047 a2_x1
+0.063843928505208286 a2_x4
<= 11.662495618835836

a2_local_3: 
+0.24541258240957967 a2_x3
+0.2524113202974983 a2_x4
+0.12784472659622081 a2_x5
<= 43.479819081858039

a2_local_4: 
+3.247279461003473 a2_x4
+5.5654282473679872 a2_x3
+5.6269952763323214 a2_x2
<= 534.54405489958481

a2_local_5: 
+3.553645324524854 a2_x1
+2.3401134786510225 a2_x4
+3.7606075644077892 a2_x2
<= 419.05305774367014

a2_local_6: 
+0.00037946792424771561 a2_x3
+0.0007833025274655486 a2_x5
+0.0005912686310178165 a2_x1
<= 0.11130035788265796

a2_local_7: 
+0.00057904260278702872 a2_x3
+0.00074391116653699588 a2_x6
+0.00088865359044018849 a2_x4
<= 0.14555439747194676

a2_local_8: 
+0.97849416338633921 a2_x1
+1.79075639443061 a2_x6
+1.6911167694647835 a2_x5
<= 261.91799221009137

a2_act_1: 
+0.030559116714418619 a2_x1
-3.0559116714418617 a2_z1
<= 0

a2_act_2: 
+140.83022265586752 a2_x2
-14083.022265586751 a2_z2
<= 0

a3_local_1: 
+488.06663823275295 a3_x1
+432.10270265722608 a3_x4
+207.09442723610857 a3_x2
<= 43411.332424180153

a3_local_2: 
+22.259279612226265 a3_x6
+40.192642098249905 a3_x4
+34.402337820360309 a3_x1
<= 3768.744247097256

a3_local_3: 
+1723.5583831368053 a3_x2
+1058.4934252590911 a3_x3
+884.10648459979029 a3_x5
<= 191791.85666854313

a3_local_4: 
+0.11365729570485303 a3_x5
+0.20478931449218565 a3_x1
+0.16916528295393793 a3_x6
<= 21.809354841130641

a3_local_5: 
+1302.9559488572568 a3_x6
+908.01160439029047 a3_x3
+1686.0391669864018 a3_x1
<= 148424.89028350668

a3_local_6: 
+0.0039428264109778047 a3_x2
+0.0048475967224879853 a3_x6
+0.0041187988515644829 a3_x4
<= 0.53257499822665555

a3_local_7: 
+0.078230047771509104 a3_x2
+0.036913325120427151 a3_x5
+0.08312050517642354 a3_x4
<= 10.521059916741281

a3_local_8: 
+8.8407853169587813 a3_x2
+9.5185495931227901 a3_x1
+6.1878567917872092 a3_x5
<= 1525.1617714249214

a3_act_1: 
+28.740228751541256 a3_x1
-2874.0228751541258 a3_z1
<= 0

a3_act_2: 
+0.0091760250473212814 a3_x2
-0.91760250473212812 a3_z2
<= 0

a4_local_1: 
+258.91800013379293 a4_x2
+116.21640283563899 a4_x6
+250.4981922613384 a4_x5
<= 41130.303483927833

a4_local_2: 
+974.14269108838084 a4_x3
+2468.2007677367169 a4_x5
+1992.7574586109251 a4_x1
<= 312914.77652250172

a4_local_3: 
+7.3634512829901437 a4_x4
+10.55541108547143 a4_x3
+9.2238218126460279 a4_x6
<= 1666.1636619459791

a4_local_4: 
+2.6252527818737907 a4_x5
+1.718619889042686 a4_x1
+1.7294236378791181 a4_x4
<= 292.874495682874

a4_local_5: 
+83.934297299862536 a4_x5
+150.55463977137114 a4_x6
+80.148638208570489 a4_x1
<= 19374.431400791836

a4_local_6: 
+149.70168452834096 a4_x4
+149.673370764179 a4_x3
+129.27207581658513 a4_x2
<= 17895.112853709237

a4_local_7: 
+0.43253235109329508 a4_x3
+0.6903498976960003 a4_x6
+0.3322923132653845 a4_x1
<= 88.48264756478568

a4_local_8: 
+8986.2027847955251 a4_x3
+9314.7891759680097 a4_x2
+10075.753468037721 a4_x6
<= 1078703.3864489519

a4_act_1: 
+0.39517173651570631 a4_x1
-39.51717365157063 a4_z1
<= 0

a4_act_2: 
+881.82468353754609 a4_x2
-88182.468353754608 a4_z2
<= 0

coupling_1: 
+0.00042819225305529675 a1_x1
+0.0025539176866369497 a2_x1
+0.010565236602640637 a3_x1
+0.050590635464652076 a4_x1
+0.0044043565705409252 short_1
-0.0044043565705409252 surp_1
= 1.8724613840498578

coupling_2: 
+27.822069725313217 a1_x2
+99.151100427508226 a2_x2
+1069.7076060302227 a3_x2
+2137.6663572076191 a4_x2
+387.8357228157447 short_2
-387.8357228157447 surp_2
= 187465.64163449139

coupling_3: 
+0.29601225665352876 a1_x3
+1.0237818170821065 a2_x3
+8.2369141479203076 a3_x3
+55.095579163770978 a4_x3
+3.8167698017195 short_3
-3.8167698017195 surp_3
= 2292.9401446436868

bounds
  0 <= a1_x1 <= 100
  0 <= a1_x2 <= 100
  0 <= a1_x3 <= 100
  0 <= a1_x4 <= 100
  0 <= a1_x5 <= 100
  0 <= a1_x6 <= 100
  0 <= a2_x1 <= 100
  0 <= a2_x2 <= 100
  0 <= a2_x3 <= 100
  0 <= a2_x4 <= 100
  0 <= a2_x5 <= 100
  0 <= a2_x6 <= 100
  0 <= a3_x1 <= 100
  0 <= a3_x2 <= 100
  0 <= a3_x3 <= 100
  0 <= a3_x4 <= 100
  0 <= a3_x5 <= 100
  0 <= a3_x6 <= 100
  0 <= a4_x1 <= 100
  0 <= a4_x2 <= 100
  0 <= a4_x3 <= 100
  0 <= a4_x4 <= 100
  0 <= a4_x5 <= 100
  0 <= a4_x6 <= 100
  0 <= short_1 <= +inf
  0 <= surp_1 <= +inf
  0 <= short_2 <= +inf
  0 <= surp_2 <= +inf
  0 <= short_3 <= +inf
  0 <= surp_3 <= +inf
 0 <= a1_z1 <= 1
 0 <= a1_z2 <= 1
 0 <= a2_z1 <= 1
 0 <= a2_z2 <= 1
 0 <= a3_z1 <= 1
 0 <= a3_z2 <= 1
 0 <= a4_z1 <= 1
 0 <= a4_z2 <= 1

binary
  a1_z1
  a1_z2
  a2_z1
  a2_z2
  a3_z1
  a3_z2
  a4_z1
  a4_z2
end
