min
obj: 
  +3.0571104005516858 a1_x1
  +8.0556013187453051 a1_x2
  +1.9742345173811016 a1_x3
  +4.4385591714508195 a1_x4
  +2.091774352732247 a1_x5
  +8.3606733491801819 a1_x6
  +15.666425601953888 a1_z1
  +12.324732571684713 a1_z2
  +3.9044727049854391 a2_x1
  +3.1906424171049248 a2_x2
  +7.2566205037606055 a2_x3
  +4.240342031508578 a2_x4
  +1.7216538193625648 a2_x5
  +9.8652119955060549 a2_x6
  +47.432933857706239 a2_z1
  +10.018499727455843 a2_z2
  +7.6634289009813905 a3_x1
  +6.6031951543936822 a3_x2
  +5.6627725428325562 a3_x3
  +4.150259343395577 a3_x4
  +2.0433644620272413 a3_x5
  +3.9564814242041457 a3_x6
  +26.646913444644401 a3_z1
  +25.192698563482555 a3_z2
  +2.4319173360803403 a4_x1
  +1.259802781834898 a4_x2
  +6.7186619976265831 a4_x3
  +9.2328283032404528 a4_x4
  +5.8537835915052003 a4_x5
  +9.834988999700645 a4_x6
  +10.083472599865093 a4_z1
  +40.29173016694412 a4_z2
  +1000000 short_1
  +1000000 surp_1
  +1000000 short_2
  +1000000 surp_2
  +1000000 short_3
  +1000000 surp_3

s.t.

a1_local_1: 
+0.48857595054224551 a1_x5
+0.80417678527912262 a1_x1
+0.33851623088099803 a1_x6
<= 63.817730170114594

a1_local_2: 
+0.35342997224112582 a1_x6
+0.70503338605983579 a1_x4
+0.61482939036991358 a1_x2
<= 71.61408431095559

a1_local_3: 
+0.74573951461699783 a1_x4
+0.33163650418498658 a1_x5
+0.57783198719936368 a1_x1
<= 109.4138680098222

a1_local_4: 
+0.87022843928748239 a1_x3
+0.30940922774732765 a1_x1
+0.38336456962019172 a1_x4
<= 68.913485729388427

a1_local_5: 
+0.48881551660507239 a1_x4
+0.57822563056811749 a1_x5
+0.65323388681254069 a1_x1
<= 53.135616136130324

a1_local_6: 
+0.42686846088954572 a1_x2
+0.55531339579470373 a1_x5
+0.7137298855650821 a1_x6
<= 64.324018188660162

a1_local_7: 
+0.57139596473844723 a1_x1
+0.63882513973615185 a1_x3
+0.51517869940604621 a1_x5
<= 101.16324732929665

a1_local_8: 
+0.67638656867122215 a1_x3
+0.59380758038668469 a1_x4
+0.43576801993317599 a1_x1
<= 60.560149399639549

a1_act_1: 
+0.0072714913446831472 a1_x1
-0.72714913446831475 a1_z1
<= 0

a1_act_2: 
+0.0099995000374968734 a1_x2
-0.99995000374968745 a1_z2
<= 0

a2_local_1: 
+0.5350347409833609 a2_x2
+0.30680111898869006 a2_x6
+0.78715366944971799 a2_x4
<= 110.84757056093659

a2_local_2: 
+0.53866597001214755 a2_x2
+0.5841277789133088 a2_x5
+0.60715213139103508 a2_x3
<= 104.96460589355081

a2_local_3: 
+0.65649870962920376 a2_x3
+0.52029951175570555 a2_x5
+0.54616651519656978 a2_x2
<= 78.911116836072495

a2_local_4: 
+0.36126372550430846 a2_x1
+0.77189510197559075 a2_x5
+0.52313141004994179 a2_x6
<= 106.30685466729744

a2_local_5: 
+0.58429520661682943 a2_x2
+0.7070554640294876 a2_x6
+0.39833614236049736 a2_x1
<= 101.16833171257225

a2_local_6: 
+0.55886031861343599 a2_x1
+0.71616686352898506 a2_x5
+0.41806718103953672 a2_x4
<= 110.91202881991453

a2_local_7: 
+0.60728785821860087 a2_x6
+0.41148484593429785 a2_x3
+0.67961877462787323 a2_x4
<= 53.940789664211245

a2_local_8: 
+0.60701757524427602 a2_x3
+0.68222149071861382 a2_x1
+0.40755797249744941 a2_x4
<= 90.497347080288307

a2_act_1: 
+0.0099995000374968751 a2_x1
-0.99995000374968757 a2_z1
<= 0

a2_act_2: 
+0.0099995000374968751 a2_x2
-0.99995000374968757 a2_z2
<= 0

a3_local_1: 
+0.68527064115462499 a3_x5
+0.63166369196743588 a3_x6
+0.36249845326786928 a3_x2
<= 77.723289330850335

a3_local_2: 
+0.55368439932831148 a3_x3
+0.41821874170260809 a3_x1
+0.72008795992512897 a3_x5
<= 109.18132725314968

a3_local_3: 
+0.33392485473398842 a3_x6
+0.62470608810755324 a3_x2
+0.70585869327524953 a3_x3
<= 81.276940731360241

a3_local_4: 
+0.47692833798501399 a3_x5
+0.65190577343271516 a3_x6
+0.58954068815642013 a3_x3
<= 71.208722030346948

a3_local_5: 
+0.73839275958119754 a3_x5
+0.52375310694776589 a3_x6
+0.4248044439040462 a3_x4
<= 63.802822168961853

a3_local_6: 
+0.59650708934715391 a3_x3
+0.48531564270572586 a3_x6
+0.63925583243621231 a3_x2
<= 55.324968200441312

a3_local_7: 
+0.56652304607657045 a3_x4
+0.56447572270644075 a3_x6
+0.60034889584238038 a3_x3
<= 60.284781170766756

a3_local_8: 
+0.79372392475499964 a3_x6
+0.48001104496921215 a3_x3
+0.37361976390320217 a3_x5
<= 86.144730295050039

a3_act_1: 
+0.0099995000374968751 a3_x1
-0.99995000374968757 a3_z1
<= 0

a3_act_2: 
+0.0099995000374968751 a3_x2
-0.99995000374968745 a3_z2
<= 0

a4_local_1: 
+0.42348175066660387 a4_x4
+0.84313831999073807 a4_x1
+0.33133212976640813 a4_x6
<= 102.73254599805053

a4_local_2: 
+0.64079774750179164 a4_x2
+0.70581235624433569 a4_x6
+0.30200523930794476 a4_x1
<= 87.625661515263829

a4_local_3: 
+0.48220838956365947 a4_x4
+0.70070236456157209 a4_x3
+0.52582436738158456 a4_x5
<= 70.315403551670485

a4_local_4: 
+0.40962377825572532 a4_x1
+0.77997959185042542 a4_x6
+0.47311752935644646 a4_x4
<= 114.66458274853531

a4_local_5: 
+0.56997887086460219 a4_x3
+0.55843661583855042 a4_x6
+0.60272102407224892 a4_x4
<= 107.17291451055162

a4_local_6: 
+0.68702006085384215 a4_x3
+0.40940922661905771 a4_x1
+0.51919474030799506 a4_x5
<= 69.413749128838489

a4_local_7: 
+0.45716693749280457 a4_x5
+0.77245391245228756 a4_x4
+0.44080987330208893 a4_x3
<= 96.144714064329037

a4_local_8: 
+0.51605433910780085 a4_x1
+0.67325818048797237 a4_x4
+0.52953880074460613 a4_x6
<= 68.059321840795747

a4_act_1: 
+0.0099995000374968751 a4_x1
-0.99995000374968757 a4_z1
<= 0

a4_act_2: 
+0.0099995000374968751 a4_x2
-0.99995000374968757 a4_z2
<= 0

coupling_1: 
+0.013507172546125787 a1_x1
+0.034766676581159547 a2_x1
+0.20282698202409921 a3_x1
+0.96772491343303046 a4_x1
+0.10241714156658488 short_1
-0.10241714156658488 surp_1
= 38.521436083617147

coupling_2: 
+0.012216111760924523 a1_x2
+0.047686314794181756 a2_x2
+0.18985952509335016 a3_x2
+1.0066690459173908 a4_x2
+0.091582529063381671 short_2
-0.091582529063381671 surp_2
= 55.126870004117251

coupling_3: 
+0.0036706733657958755 a1_x3
+0.02602755969511187 a2_x3
+0.12641970799169094 a3_x3
+0.98713620831857241 a4_x3
+0.066668043135698019 short_3
-0.066668043135698019 surp_3
= 78.593318531094226

bounds
  0 <= a1_x1 <= 100
  0 <= a1_x2 <= 100
  0 <= a1_x3 <= 100
  0 <= a1_x4 <= 100
  0 <= a1_x5 <= 100
  0 <= a1_x6 <= 100
  0 <= a2_x1 <= 100
  0 <= a2_x2 <= 100
  0 <= a2_x3 <= 100
  0 <= a2_x4 <= 100
  0 <= a2_x5 <= 100
  0 <= a2_x6 <= 100
  0 <= a3_x1 <= 100
  0 <= a3_x2 <= 100
  0 <= a3_x3 <= 100
  0 <= a3_x4 <= 100
  0 <= a3_x5 <= 100
  0 <= a3_x6 <= 100
  0 <= a4_x1 <= 100
  0 <= a4_x2 <= 100
  0 <= a4_x3 <= 100
  0 <= a4_x4 <= 100
  0 <= a4_x5 <= 100
  0 <= a4_x6 <= 100
  0 <= short_1 <= +inf
  0 <= surp_1 <= +inf
  0 <= short_2 <= +inf
  0 <= surp_2 <= +inf
  0 <= short_3 <= +inf
  0 <= surp_3 <= +inf
 0 <= a1_z1 <= 1
 0 <= a1_z2 <= 1
 0 <= a2_z1 <= 1
 0 <= a2_z2 <= 1
 0 <= a3_z1 <= 1
 0 <= a3_z2 <= 1
 0 <= a4_z1 <= 1
 0 <= a4_z2 <= 1

binary
  a1_z1
  a1_z2
  a2_z1
  a2_z2
  a3_z1
  a3_z2
  a4_z1
  a4_z2
end
