min
obj: 
  +2.370294118728955 a1_x1
  +4.0871141162290519 a1_x2
  +7.6613663727576089 a1_x3
  +4.8999168943267346 a1_x4
  +9.1856075433138287 a1_x5
  +7.8055232956727103 a1_x6
  +17.430873114549655 a1_z1
  +23.402378726140935 a1_z2
  +7.7696749959897602 a2_x1
  +1.8033642153830525 a2_x2
  +9.5715816001394138 a2_x3
  +5.6582749389411147 a2_x4
  +2.4417372334426313 a2_x5
  +7.2729933705310286 a2_x6
  +31.321727314252385 a2_z1
  +17.358761230317288 a2_z2
  +2.3493759750782877 a3_x1
  +3.4440486133066264 a3_x2
  +8.9723629811002734 a3_x3
  +1.1828241076108115 a3_x4
  +8.9432908674835829 a3_x5
  +1.7190508218957756 a3_x6
  +16.001764697499688 a3_z1
  +34.61198408971174 a3_z2
  +6.5610669509273256 a4_x1
  +3.9905359855651432 a4_x2
  +4.1004087373899605 a4_x3
  +4.8874480478433391 a4_x4
  +2.9132673248674479 a4_x5
  +5.3684179760125765 a4_x6
  +43.700484803270278 a4_z1
  +7.0959851654145574 a4_z2
  +1000000 short_1
  +1000000 surp_1
  +1000000 short_2
  +1000000 surp_2
  +1000000 short_3
  +1000000 surp_3

s.t.

a1_local_1: 
+103.72523503706267 a1_x3
+74.544290631240443 a1_x2
+41.440856740815477 a1_x1
<= 15368.415857053131

a1_local_2: 
+0.00050520538762428076 a1_x6
+0.00030041797797731673 a1_x3
+0.00029553180635184074 a1_x2
<= 0.034103847346889177

a1_local_3: 
+24.218771161057855 a1_x4
+28.014360271422756 a1_x3
+20.293179282498809 a1_x6
<= 2232.2649601612006

a1_local_4: 
+2.1909009371186068 a1_x5
+4.1373480370974463 a1_x3
+1.9914106129079623 a1_x6
<= 448.66797833654306

a1_local_5: 
+2.819023197019201 a1_x3
+2.1344802495614861 a1_x5
+1.1303680127603979 a1_x4
<= 368.78102179283258

a1_local_6: 
+0.17740123501992808 a1_x3
+0.1280064359907313 a1_x1
+0.09730225884242763 a1_x6
<= 20.048277974245664

a1_local_7: 
+0.34749955519298076 a1_x6
+0.40781257661203768 a1_x1
+0.39209655719358399 a1_x4
<= 52.810063156433721

a1_local_8: 
+0.51533765988775582 a1_x3
+0.78497229301395333 a1_x2
+0.84097517278571188 a1_x4
<= 78.116086386479168

a1_act_1: 
+10.812379224557572 a1_x1
-1081.2379224557571 a1_z1
<= 0

a1_act_2: 
+170.48682286075174 a1_x2
-17048.682286075174 a1_z2
<= 0

a2_local_1: 
+2.5552168970666957 a2_x3
+2.9881530045711813 a2_x2
+1.4863606982512345 a2_x1
<= 445.22657316686298

a2_local_2: 
+1.1469995093002563 a2_x6
+2.7121505441184208 a2_x2
+2.9970713998650909 a2_x1
<= 437.93402876985402

a2_local_3: 
+0.071722119126419334 a2_x2
+0.1186392106278642 a2_x3
+0.066740943412012851 a2_x1
<= 14.346504678047292

a2_local_4: 
+0.40404045289186746 a2_x1
+0.38741357742107907 a2_x4
+0.46038285349284325 a2_x5
<= 70.996008627660757

a2_local_5: 
+0.83915717107068588 a2_x1
+1.2627245473560138 a2_x6
+1.1309936454717506 a2_x3
<= 100.04843017995572

a2_local_6: 
+18.449571588521195 a2_x1
+15.039264306204723 a2_x6
+32.638010827314979 a2_x2
<= 3224.3807041736295

a2_local_7: 
+0.0026953027495034833 a2_x3
+0.0024243194505896692 a2_x2
+0.0032036064486829141 a2_x4
<= 0.34228782304318162

a2_local_8: 
+0.74679405316670266 a2_x4
+0.38465126379202963 a2_x3
+0.659424316970883 a2_x1
<= 108.25725810989734

a2_act_1: 
+0.08103809945015665 a2_x1
-8.1038099450156658 a2_z1
<= 0

a2_act_2: 
+182.88117749700692 a2_x2
-18288.11774970069 a2_z2
<= 0

a3_local_1: 
+19.640422264312438 a3_x5
+13.197710416136246 a3_x4
+34.733759161967328 a3_x2
<= 3033.0679556232931

a3_local_2: 
+1603.6123736819591 a3_x4
+1159.7359624395026 a3_x5
+1641.7494923229524 a3_x3
<= 221736.91465246899

a3_local_3: 
+0.051761803887357613 a3_x4
+0.027404436044296567 a3_x3
+0.05973515298336516 a3_x6
<= 5.887896044113794

a3_local_4: 
+113.20874642167185 a3_x4
+119.2816727797056 a3_x5
+145.47029661781255 a3_x2
<= 20807.166863308714

a3_local_5: 
+0.0062064758939437935 a3_x4
+0.0024368528805067992 a3_x6
+0.0053283910919350594 a3_x5
<= 0.57497089808077551

a3_local_6: 
+2.847463709968479 a3_x1
+2.7287905272003847 a3_x5
+3.0752611037303579 a3_x3
<= 286.60749590899457

a3_local_7: 
+0.094350437433542933 a3_x6
+0.073896161084972128 a3_x4
+0.129084482285964 a3_x1
<= 11.209500275078572

a3_local_8: 
+3.9768382812922818 a3_x4
+1.9432518165465424 a3_x2
+3.7339413022816861 a3_x1
<= 610.60898694624893

a3_act_1: 
+61.655601583946897 a3_x1
-6165.56015839469 a3_z1
<= 0

a3_act_2: 
+0.088720732042829403 a3_x2
-8.8720732042829411 a3_z2
<= 0

a4_local_1: 
+73.915926097776122 a4_x5
+92.800227799950733 a4_x2
+69.793475896643045 a4_x1
<= 15823.754451625213

a4_local_2: 
+0.056531192863894686 a4_x4
+0.031002426732168693 a4_x2
+0.06454354050629936 a4_x6
<= 9.493373655944465

a4_local_3: 
+40.680209394969864 a4_x1
+29.044846946355541 a4_x3
+30.712881396424123 a4_x6
<= 4975.5049697431468

a4_local_4: 
+100.78874785800613 a4_x3
+132.87539305858007 a4_x4
+108.56346131249934 a4_x1
<= 20658.802779404323

a4_local_5: 
+0.83781821072257689 a4_x6
+0.86554597978936465 a4_x3
+0.45795776923687026 a4_x4
<= 103.38579485438021

a4_local_6: 
+1.8991593543757284 a4_x5
+4.0676792310535044 a4_x4
+2.0208084958661439 a4_x2
<= 447.2986676872988

a4_local_7: 
+2668.4200365515239 a4_x6
+1935.2708161670996 a4_x2
+2077.8471056224416 a4_x4
<= 452203.64321165148

a4_local_8: 
+11.645819342492002 a4_x6
+19.151896522747712 a4_x2
+18.807137906820095 a4_x1
<= 1792.6483019125917

a4_act_1: 
+0.0047583988237079105 a4_x1
-0.47583988237079106 a4_z1
<= 0

a4_act_2: 
+626.4391985946537 a4_x2
-62643.919859465372 a4_z2
<= 0

coupling_1: 
+0.0019791081258341975 a1_x1
+0.014909536450191026 a2_x1
+0.060472133346647687 a3_x1
+0.31248842378674624 a4_x1
+0.023194753697511176 short_1
-0.023194753697511176 surp_1
= 8.1614284387273557

coupling_2: 
+0.31550376595250301 a1_x2
+2.1327593810228604 a2_x2
+8.490544466610725 a3_x2
+42.553378226611237 a4_x2
+3.2871468437309543 short_2
-3.2871468437309543 surp_2
= 4201.123874731994

coupling_3: 
+0.00069017895194492529 a1_x3
+0.0034384476359984014 a2_x3
+0.032189543893782882 a3_x3
+0.13493310866510441 a4_x3
+0.011394379666510142 short_3
-0.011394379666510142 surp_3
= 9.5199866450986317

bounds
  0 <= a1_x1 <= 100
  0 <= a1_x2 <= 100
  0 <= a1_x3 <= 100
  0 <= a1_x4 <= 100
  0 <= a1_x5 <= 100
  0 <= a1_x6 <= 100
  0 <= a2_x1 <= 100
  0 <= a2_x2 <= 100
  0 <= a2_x3 <= 100
  0 <= a2_x4 <= 100
  0 <= a2_x5 <= 100
  0 <= a2_x6 <= 100
  0 <= a3_x1 <= 100
  0 <= a3_x2 <= 100
  0 <= a3_x3 <= 100
  0 <= a3_x4 <= 100
  0 <= a3_x5 <= 100
  0 <= a3_x6 <= 100
  0 <= a4_x1 <= 100
  0 <= a4_x2 <= 100
  0 <= a4_x3 <= 100
  0 <= a4_x4 <= 100
  0 <= a4_x5 <= 100
  0 <= a4_x6 <= 100
  0 <= short_1 <= +inf
  0 <= surp_1 <= +inf
  0 <= short_2 <= +inf
  0 <= surp_2 <= +inf
  0 <= short_3 <= +inf
  0 <= surp_3 <= +inf
 0 <= a1_z1 <= 1
 0 <= a1_z2 <= 1
 0 <= a2_z1 <= 1
 0 <= a2_z2 <= 1
 0 <= a3_z1 <= 1
 0 <= a3_z2 <= 1
 0 <= a4_z1 <= 1
 0 <= a4_z2 <= 1

binary
  a1_z1
  a1_z2
  a2_z1
  a2_z2
  a3_z1
  a3_z2
  a4_z1
  a4_z2
end
