min
obj: 
  +2.8670230128866887 a1_x1
  +4.6121734767481746 a1_x2
  +8.3726653944305163 a1_x3
  +3.8874111784256438 a1_x4
  +3.5735214707131471 a1_x5
  +7.9063268225890937 a1_x6
  +32.521673256282952 a1_z1
  +46.9551209495583 a1_z2
  +1.341622492975389 a2_x1
  +5.0417707846324316 a2_x2
  +1.1098914253226899 a2_x3
  +7.5349912767704339 a2_x4
  +4.7451420176434915 a2_x5
  +4.9227196469025021 a2_x6
  +7.3717597202086891 a2_z1
  +32.23919956008293 a2_z2
  +7.1988333719011539 a3_x1
  +9.6965932883206509 a3_x2
  +2.6814504435085222 a3_x3
  +4.7418198986047297 a3_x4
  +5.4039251046059666 a3_x5
  +9.8502537099383343 a3_x6
  +17.992052798317559 a3_z1
  +28.73085531973274 a3_z2
  +5.3817190254650331 a4_x1
  +3.7297540390479749 a4_x2
  +6.6577904747627379 a4_x3
  +5.4304281417402382 a4_x4
  +9.7175944926778737 a4_x5
  +8.0479454867151716 a4_x6
  +7.8471654550187315 a4_z1
  +24.374477793367895 a4_z2
  +1000000 short_1
  +1000000 surp_1
  +1000000 short_2
  +1000000 surp_2
  +1000000 short_3
  +1000000 surp_3

s.t.

a1_local_1: 
+3.1370816797662715 a1_x3
+5.5074112198143359 a1_x1
+4.8934203464308457 a1_x2
<= 814.17749710901842

a1_local_2: 
+43.041855446562401 a1_x4
+32.327154256234437 a1_x6
+29.735369272909661 a1_x2
<= 3938.3114916812879

a1_local_3: 
+5.7794778380968843 a1_x3
+2.7195665506551263 a1_x4
+2.897617151227629 a1_x1
<= 743.7421453264426

a1_local_4: 
+7.1429763416320853 a1_x3
+6.4985684548949623 a1_x6
+17.556955981250756 a1_x1
<= 1709.5159270947458

a1_local_5: 
+0.0012738701088960953 a1_x5
+0.0018416895130911645 a1_x1
+0.0017296263785712264 a1_x3
<= 0.24711129512521843

a1_local_6: 
+0.0040202549260403338 a1_x6
+0.0032424272832346501 a1_x3
+0.0030073654055333293 a1_x1
<= 0.46925346747908381

a1_local_7: 
+7.1609576170327021 a1_x4
+9.7837169858689776 a1_x3
+8.9410753701294183 a1_x6
<= 896.30277240267674

a1_local_8: 
+0.24114937725460242 a1_x6
+0.29762037599096258 a1_x3
+0.23355832586357325 a1_x2
<= 28.391110664176512

a1_act_1: 
+0.25200442742436469 a1_x1
-25.200442742436469 a1_z1
<= 0

a1_act_2: 
+0.0023956323094759925 a1_x2
-0.23956323094759926 a1_z2
<= 0

a2_local_1: 
+14.296086489307568 a2_x3
+22.25766598692341 a2_x1
+18.476670175349263 a2_x4
<= 2487.7767313032987

a2_local_2: 
+29.271224853153196 a2_x3
+18.318450890799621 a2_x4
+21.226801591401323 a2_x1
<= 4477.5066841896332

a2_local_3: 
+0.015046262241284188 a2_x2
+0.020967325505850665 a2_x5
+0.027889612402548423 a2_x6
<= 3.9071203801491268

a2_local_4: 
+1.3302546676742617 a2_x3
+1.1713000758076397 a2_x4
+0.91605006935527078 a2_x2
<= 205.6639032191278

a2_local_5: 
+2.1048608671933935 a2_x3
+3.2228731455915876 a2_x5
+3.9503986185860636 a2_x6
<= 580.5293929493622

a2_local_6: 
+0.08576875096465908 a2_x2
+0.19971746545752278 a2_x5
+0.10643764095798143 a2_x1
<= 26.321747006933258

a2_local_7: 
+2.133369927858741 a2_x6
+3.3829608134323825 a2_x2
+2.2894582612589245 a2_x5
<= 380.19965557380669

a2_local_8: 
+0.00081291182663965509 a2_x2
+0.0010904606070061015 a2_x4
+0.00075549770203127257 a2_x6
<= 0.174087023841592

a2_act_1: 
+0.01261907309766582 a2_x1
-1.2619073097665821 a2_z1
<= 0

a2_act_2: 
+11.896907803758472 a2_x2
-1189.6907803758472 a2_z2
<= 0

a3_local_1: 
+0.40326220890881026 a3_x6
+0.55297383011299905 a3_x2
+0.40589431036431994 a3_x1
<= 69.769063467054309

a3_local_2: 
+0.012897265344210186 a3_x3
+0.0088491704684089591 a3_x1
+0.010286058156821104 a3_x4
<= 1.8466752658604135

a3_local_3: 
+8.4544872617055766 a3_x4
+6.8339686269436175 a3_x1
+10.005786533477249 a3_x6
<= 1474.1125757062778

a3_local_4: 
+9.0016619080296145 a3_x1
+9.0621783432788821 a3_x3
+6.3765473602512746 a3_x5
<= 896.50835835723512

a3_local_5: 
+2.8364209678213923 a3_x5
+6.021447228956557 a3_x4
+7.9147904297520046 a3_x6
<= 723.67665602317777

a3_local_6: 
+6.8563803048768994 a3_x2
+11.332080607230218 a3_x3
+11.644550723484949 a3_x6
<= 1595.0473607107785

a3_local_7: 
+460.39787730193132 a3_x4
+266.86786834610717 a3_x1
+550.99064629818076 a3_x2
<= 68648.132160004898

a3_local_8: 
+15.711699266671785 a3_x2
+7.396843886855847 a3_x1
+11.575197348241508 a3_x5
<= 1135.0878122786198

a3_act_1: 
+2.3440032900611438 a3_x1
-234.40032900611439 a3_z1
<= 0

a3_act_2: 
+0.005476320375614168 a3_x2
-0.54763203756141676 a3_z2
<= 0

a4_local_1: 
+105.30773240933129 a4_x1
+188.23570440492938 a4_x4
+141.35712350120355 a4_x3
<= 17428.311755907238

a4_local_2: 
+24.489170086750633 a4_x1
+17.683269280786885 a4_x6
+18.239011818739243 a4_x3
<= 2834.2542795119525

a4_local_3: 
+0.52048023159280377 a4_x2
+0.3282522574057522 a4_x5
+0.71123856647376904 a4_x1
<= 88.905380558747737

a4_local_4: 
+0.031849774985330731 a4_x5
+0.032912757799262754 a4_x4
+0.048395317855108741 a4_x3
<= 4.8913218180618339

a4_local_5: 
+1441.2851371892398 a4_x1
+2612.2985819891896 a4_x4
+3020.0088951130856 a4_x2
<= 286428.73405338702

a4_local_6: 
+31.404589519904253 a4_x4
+37.301245200514145 a4_x2
+20.437344351254641 a4_x6
<= 4542.851447252875

a4_local_7: 
+37.88186453393179 a4_x2
+40.431471280249163 a4_x1
+48.776098595964655 a4_x3
<= 6118.1879376204924

a4_local_8: 
+8.2241664512163961 a4_x1
+5.1316021664304197 a4_x2
+9.3650038727379705 a4_x5
<= 1480.6202451774541

a4_act_1: 
+0.35260508522758999 a4_x1
-35.260508522758997 a4_z1
<= 0

a4_act_2: 
+0.020833612785398137 a4_x2
-2.0833612785398135 a4_z2
<= 0

coupling_1: 
+57.570270500129595 a1_x1
+222.41319872362075 a2_x1
+1014.0441846466036 a3_x1
+4764.4377457768414 a4_x1
+390.19818572815569 short_1
-390.19818572815569 surp_1
= 151662.40838467659

coupling_2: 
+0.095799392791436289 a1_x2
+0.5289186910629684 a2_x2
+3.4601774494099464 a3_x2
+10.876313108529059 a4_x2
+1.4282411794867198 short_2
-1.4282411794867198 surp_2
= 339.48697396269324

coupling_3: 
+0.64167929036325289 a1_x3
+2.8872839791643363 a2_x3
+10.05666490528129 a3_x3
+28.390450123325177 a4_x3
+4.3665203168480877 short_3
-4.3665203168480877 surp_3
= 864.27414832221177

bounds
  0 <= a1_x1 <= 100
  0 <= a1_x2 <= 100
  0 <= a1_x3 <= 100
  0 <= a1_x4 <= 100
  0 <= a1_x5 <= 100
  0 <= a1_x6 <= 100
  0 <= a2_x1 <= 100
  0 <= a2_x2 <= 100
  0 <= a2_x3 <= 100
  0 <= a2_x4 <= 100
  0 <= a2_x5 <= 100
  0 <= a2_x6 <= 100
  0 <= a3_x1 <= 100
  0 <= a3_x2 <= 100
  0 <= a3_x3 <= 100
  0 <= a3_x4 <= 100
  0 <= a3_x5 <= 100
  0 <= a3_x6 <= 100
  0 <= a4_x1 <= 100
  0 <= a4_x2 <= 100
  0 <= a4_x3 <= 100
  0 <= a4_x4 <= 100
  0 <= a4_x5 <= 100
  0 <= a4_x6 <= 100
  0 <= short_1 <= +inf
  0 <= surp_1 <= +inf
  0 <= short_2 <= +inf
  0 <= surp_2 <= +inf
  0 <= short_3 <= +inf
  0 <= surp_3 <= +inf
 0 <= a1_z1 <= 1
 0 <= a1_z2 <= 1
 0 <= a2_z1 <= 1
 0 <= a2_z2 <= 1
 0 <= a3_z1 <= 1
 0 <= a3_z2 <= 1
 0 <= a4_z1 <= 1
 0 <= a4_z2 <= 1

binary
  a1_z1
  a1_z2
  a2_z1
  a2_z2
  a3_z1
  a3_z2
  a4_z1
  a4_z2
end
