min
obj: 
  +3.0571104005516858 a1_x1
  +8.0556013187453051 a1_x2
  +1.9742345173811016 a1_x3
  +4.4385591714508195 a1_x4
  +2.091774352732247 a1_x5
  +8.3606733491801819 a1_x6
  +15.666425601953888 a1_z1
  +12.324732571684713 a1_z2
  +3.9044727049854391 a2_x1
  +3.1906424171049248 a2_x2
  +7.2566205037606055 a2_x3
  +4.240342031508578 a2_x4
  +1.7216538193625648 a2_x5
  +9.8652119955060549 a2_x6
  +47.432933857706239 a2_z1
  +10.018499727455843 a2_z2
  +7.6634289009813905 a3_x1
  +6.6031951543936822 a3_x2
  +5.6627725428325562 a3_x3
  +4.150259343395577 a3_x4
  +2.0433644620272413 a3_x5
  +3.9564814242041457 a3_x6
  +26.646913444644401 a3_z1
  +25.192698563482555 a3_z2
  +2.4319173360803403 a4_x1
  +1.259802781834898 a4_x2
  +6.7186619976265831 a4_x3
  +9.2328283032404528 a4_x4
  +5.8537835915052003 a4_x5
  +9.834988999700645 a4_x6
  +10.083472599865093 a4_z1
  +40.29173016694412 a4_z2
  +1000000 short_1
  +1000000 surp_1
  +1000000 short_2
  +1000000 surp_2
  +1000000 short_3
  +1000000 surp_3

s.t.

a1_local_1: 
+0.042275913865406141 a1_x5
+0.06958449033213264 a1_x1
+0.02929141928268035 a1_x6
<= 5.5220746349941603

a1_local_2: 
+0.063266566323345153 a1_x6
+0.12620616524536193 a1_x4
+0.11005898610331198 a1_x2
<= 12.81944818096413

a1_local_3: 
+15.766412767227525 a1_x4
+7.0114536123867301 a1_x5
+12.216514535871752 a1_x1
<= 2313.2262293862468

a1_local_4: 
+37.97998308126899 a1_x3
+13.503761431485366 a1_x1
+16.731445688047497 a1_x4
<= 3007.6390335122123

a1_local_5: 
+2.0985032740236758 a1_x4
+2.4823442334625092 a1_x5
+2.8043574796886941 a1_x1
<= 228.11318512015021

a1_local_6: 
+0.18196700814851366 a1_x2
+0.23672097256138228 a1_x5
+0.30425131815035844 a1_x6
<= 27.420271615966843

a1_local_7: 
+0.0003163750363393601 a1_x1
+0.00035370975518008005 a1_x3
+0.00028524821630558698 a1_x5
<= 0.056012866777356791

a1_local_8: 
+2.3766822025133667 a1_x3
+2.0865167544575525 a1_x4
+1.5311984970876817 a1_x1
<= 212.79581222677473

a1_act_1: 
+0.0072714913446831472 a1_x1
-0.72714913446831475 a1_z1
<= 0

a1_act_2: 
+3.3591845631726094 a1_x2
-335.91845631726096 a1_z2
<= 0

a2_local_1: 
+17.934470005284545 a2_x2
+10.28403399745123 a2_x6
+26.385546195279055 a2_x4
<= 3715.6324199246797

a2_local_2: 
+0.017070220487513929 a2_x2
+0.01851089642567751 a2_x5
+0.019240533706028004 a2_x3
<= 3.3263080753876282

a2_local_3: 
+0.31392472096932206 a2_x3
+0.24879695367662999 a2_x5
+0.26116604400138049 a2_x2
<= 37.733738042125253

a2_local_4: 
+0.0081288433236880488 a2_x1
+0.017368514753377737 a2_x5
+0.011771049706304569 a2_x6
<= 2.392024731013938

a2_local_5: 
+8.3014792642045538 a2_x2
+10.04561770627789 a2_x6
+5.6594324042733932 a2_x1
<= 1437.3672732469349

a2_local_6: 
+0.0017697376023047236 a2_x1
+0.0022678787269356311 a2_x5
+0.001323889326067848 a2_x4
<= 0.35122405619619335

a2_local_7: 
+1.4643557299827472 a2_x6
+0.99221511477685087 a2_x3
+1.6387675685620962 a2_x4
<= 130.06764972427456

a2_local_8: 
+0.11926487374105726 a2_x3
+0.13404069877424624 a2_x1
+0.080075688273949924 a2_x4
<= 17.780629612063276

a2_act_1: 
+16.625451779619439 a2_x1
-1662.5451779619439 a2_z1
<= 0

a2_act_2: 
+0.23479626078916677 a2_x2
-23.479626078916677 a2_z2
<= 0

a3_local_1: 
+4.6671385537229213 a3_x5
+4.3020403804268286 a3_x6
+2.4688501233042808 a3_x2
<= 529.34612746137316

a3_local_2: 
+136.16330148148447 a3_x3
+102.84928504531099 a3_x1
+177.08563596774414 a3_x5
<= 26850.115330961376

a3_local_3: 
+1.590015144013968 a3_x6
+2.9745978071623673 a3_x2
+3.3610137009286887 a3_x3
<= 387.00792944848956

a3_local_4: 
+57.33292610278194 a3_x5
+78.367466466983515 a3_x6
+70.870380341537413 a3_x3
<= 8560.205114437349

a3_local_5: 
+0.010951771741290011 a3_x5
+0.0077682566651069975 a3_x6
+0.006300659430844748 a3_x4
<= 0.9463174384874905

a3_local_6: 
+0.081136742399702574 a3_x3
+0.066012510141089151 a3_x6
+0.086951415549227223 a3_x2
<= 7.5252880867917229

a3_local_7: 
+580.38153024939709 a3_x4
+578.2841245415442 a3_x6
+615.03483973967616 a3_x3
<= 61759.488495567224

a3_local_8: 
+3.5327653221417075 a3_x6
+2.1364687658062871 a3_x3
+1.662934560012695 a3_x5
<= 383.41935574833633

a3_act_1: 
+0.003623292301634468 a3_x1
-0.36232923016344681 a3_z1
<= 0

a3_act_2: 
+3.0042679612103265 a3_x2
-300.42679612103262 a3_z2
<= 0

a4_local_1: 
+257.75511358237748 a4_x4
+513.1820039299887 a4_x1
+201.66760576341048 a4_x6
<= 62528.878802102663

a4_local_2: 
+109.26711149068026 a4_x2
+120.35322802228474 a4_x6
+51.497122583344456 a4_x1
<= 14941.692544270645

a4_local_3: 
+2571.2383182937633 a4_x4
+3736.2949473153235 a4_x3
+2803.8080451638816 a4_x5
<= 374936.77814677724

a4_local_4: 
+7.9852214916785345 a4_x1
+15.204951788776231 a4_x6
+9.2229710872604649 a4_x4
<= 2235.2757312988292

a4_local_5: 
+2857.6919569490674 a4_x3
+2799.8227778635878 a4_x6
+3021.850652398171 a4_x4
<= 537330.75286635803

a4_local_6: 
+0.68702006085384215 a4_x3
+0.40940922661905771 a4_x1
+0.51919474030799506 a4_x5
<= 69.413749128838489

a4_local_7: 
+93.652710638978689 a4_x5
+158.2406705558835 a4_x4
+90.301892209375168 a4_x3
<= 19695.678640093414

a4_local_8: 
+0.036363433392006463 a4_x1
+0.047440699838168982 a4_x4
+0.037313607211695257 a4_x6
<= 4.7957558514897407

a4_act_1: 
+1.153672581131844 a4_x1
-115.36725811318441 a4_z1
<= 0

a4_act_2: 
+0.027320992065952263 a4_x2
-2.7320992065952265 a4_z2
<= 0

coupling_1: 
+0.0023492407852229191 a1_x1
+0.0060468091535960389 a2_x1
+0.035276769944821609 a3_x1
+0.1683119711212448 a4_x1
+0.017812945326087647 short_1
-0.017812945326087647 surp_1
= 6.699857312398656

coupling_2: 
+0.012216111760924523 a1_x2
+0.047686314794181756 a2_x2
+0.18985952509335016 a3_x2
+1.0066690459173908 a4_x2
+0.091582529063381671 short_2
-0.091582529063381671 surp_2
= 55.126870004117251

coupling_3: 
+6.1998835469573933e-05 a1_x3
+0.00043961372489537132 a2_x3
+0.0021352688988683743 a3_x3
+0.016673043135869585 a4_x3
+0.0011260443590442998 short_3
-0.0011260443590442998 surp_3
= 1.3274660366193136

bounds
  0 <= a1_x1 <= 100
  0 <= a1_x2 <= 100
  0 <= a1_x3 <= 100
  0 <= a1_x4 <= 100
  0 <= a1_x5 <= 100
  0 <= a1_x6 <= 100
  0 <= a2_x1 <= 100
  0 <= a2_x2 <= 100
  0 <= a2_x3 <= 100
  0 <= a2_x4 <= 100
  0 <= a2_x5 <= 100
  0 <= a2_x6 <= 100
  0 <= a3_x1 <= 100
  0 <= a3_x2 <= 100
  0 <= a3_x3 <= 100
  0 <= a3_x4 <= 100
  0 <= a3_x5 <= 100
  0 <= a3_x6 <= 100
  0 <= a4_x1 <= 100
  0 <= a4_x2 <= 100
  0 <= a4_x3 <= 100
  0 <= a4_x4 <= 100
  0 <= a4_x5 <= 100
  0 <= a4_x6 <= 100
  0 <= short_1 <= +inf
  0 <= surp_1 <= +inf
  0 <= short_2 <= +inf
  0 <= surp_2 <= +inf
  0 <= short_3 <= +inf
  0 <= surp_3 <= +inf
 0 <= a1_z1 <= 1
 0 <= a1_z2 <= 1
 0 <= a2_z1 <= 1
 0 <= a2_z2 <= 1
 0 <= a3_z1 <= 1
 0 <= a3_z2 <= 1
 0 <= a4_z1 <= 1
 0 <= a4_z2 <= 1

binary
  a1_z1
  a1_z2
  a2_z1
  a2_z2
  a3_z1
  a3_z2
  a4_z1
  a4_z2
end
