min
obj: 
  +4.0092711480649195 a1_x1
  +1.9679731558453351 a1_x2
  +5.1245063990813229 a1_x3
  +5.3289660462088069 a1_x4
  +7.7326436197250805 a1_x5
  +5.1395422066191525 a1_x6
  +7.4601303692563201 a1_z1
  +49.872667351617643 a1_z2
  +9.3684343534405965 a2_x1
  +1.0573707236444929 a2_x2
  +6.6071911877442115 a2_x3
  +2.1574642417771144 a2_x4
  +4.0288495580936399 a2_x5
  +6.5816021448275457 a2_x6
  +37.186317612242192 a2_z1
  +14.569927030673126 a2_z2
  +7.5771846442232071 a3_x1
  +6.3254671996139473 a3_x2
  +1.3182946718516668 a3_x3
  +2.4508427443497842 a3_x4
  +7.5821505201430535 a3_x5
  +8.0396019839617026 a3_x6
  +34.570982164584187 a3_z1
  +17.019236119633661 a3_z2
  +9.6576292080467585 a4_x1
  +1.0103892115093069 a4_x2
  +8.2624531172852755 a4_x3
  +1.8717492610420641 a4_x4
  +5.7231033614351237 a4_x5
  +2.0382344427317065 a4_x6
  +33.41705432517788 a4_z1
  +11.211459891146486 a4_z2
  +1000000 short_1
  +1000000 surp_1
  +1000000 short_2
  +1000000 surp_2
  +1000000 short_3
  +1000000 surp_3

s.t.

a1_local_1: 
+81.484865006639694 a1_x3
+34.618784076617558 a1_x6
+55.081002916895919 a1_x4
<= 6470.8723034614577

a1_local_2: 
+0.016390586869488379 a1_x4
+0.0090804936418230724 a1_x6
+0.0063459912200381418 a1_x2
<= 1.8036940155593835

a1_local_3: 
+0.48859375753669404 a1_x6
+0.82628488203111994 a1_x4
+0.43185242516596495 a1_x1
<= 110.89236174661553

a1_local_4: 
+53.665171784237472 a1_x2
+63.353613472461745 a1_x5
+62.227563456439945 a1_x3
<= 12098.501045269662

a1_local_5: 
+8.6321235140881285 a1_x1
+3.9148292125567248 a1_x4
+5.4949594281904979 a1_x2
<= 1234.8788312630352

a1_local_6: 
+0.0082880355386342787 a1_x1
+0.00849607932152905 a1_x3
+0.0043307477999765306 a1_x6
<= 1.3181508613651145

a1_local_7: 
+70.076781639280981 a1_x2
+113.02460369355532 a1_x5
+89.271659226711947 a1_x4
<= 15151.829191715986

a1_local_8: 
+0.027205734071022624 a1_x4
+0.042413524872954501 a1_x5
+0.017210280028577999 a1_x6
<= 4.4989899084601834

a1_act_1: 
+31.827979240727029 a1_x1
-3182.7979240727027 a1_z1
<= 0

a1_act_2: 
+0.019957419963247 a1_x2
-1.9957419963247001 a1_z2
<= 0

a2_local_1: 
+0.012622303893288288 a2_x4
+0.023813126929609865 a2_x2
+0.019100919756386888 a2_x6
<= 3.2047604474580722

a2_local_2: 
+4.4100216233485074 a2_x1
+6.0851050155340394 a2_x4
+3.8879377641576753 a2_x5
<= 923.86798084110069

a2_local_3: 
+0.18582230460149926 a2_x4
+0.13735519739843208 a2_x5
+0.26844989120345442 a2_x3
<= 37.796736012810221

a2_local_4: 
+0.010061088698697899 a2_x2
+0.0068098126600080969 a2_x1
+0.0096567866735726669 a2_x5
<= 1.2127270396530407

a2_local_5: 
+0.16220240327531751 a2_x2
+0.10227443491241307 a2_x3
+0.18996211849100225 a2_x6
<= 25.621720110835312

a2_local_6: 
+78.884919613386415 a2_x6
+56.615647946665199 a2_x5
+90.385856015466615 a2_x2
<= 12585.5119471856

a2_local_7: 
+2.2934694172519525 a2_x2
+1.5651573345640455 a2_x5
+1.6545296666797895 a2_x6
<= 367.5942400462132

a2_local_8: 
+286.18062466685251 a2_x2
+235.21718948683028 a2_x4
+204.2592374652198 a2_x5
<= 48186.291210029427

a2_act_1: 
+71.802502317585123 a2_x1
-7180.2502317585122 a2_z1
<= 0

a2_act_2: 
+822.12451377479601 a2_x2
-82212.451377479607 a2_z2
<= 0

a3_local_1: 
+20.726097615694005 a3_x1
+17.239159790106179 a3_x2
+32.072792972617229 a3_x6
<= 3163.1828862870348

a3_local_2: 
+0.037054383958250864 a3_x2
+0.030617908585512575 a3_x1
+0.06320811776639329 a3_x6
<= 5.634684493733416

a3_local_3: 
+1.7110727781504333 a3_x1
+1.3217683192292859 a3_x5
+2.6671812012186811 a3_x2
<= 295.24476995872897

a3_local_4: 
+0.23580221202909221 a3_x4
+0.35878556860106842 a3_x6
+0.33782014686590256 a3_x5
<= 59.87251484243167

a3_local_5: 
+0.066631779962396401 a3_x4
+0.097863093271432153 a3_x1
+0.064986435439254892 a3_x5
<= 7.4680771162125987

a3_local_6: 
+0.81750235473186939 a3_x5
+0.46365413463435984 a3_x6
+0.42074342360518546 a3_x1
<= 100.30201845468198

a3_local_7: 
+0.43560991750471073 a3_x6
+0.53775688136088995 a3_x1
+0.62082946650195203 a3_x4
<= 100.00622657591754

a3_local_8: 
+0.092697620220712193 a3_x3
+0.11894199709872631 a3_x1
+0.076086102218398829 a3_x6
<= 11.720347837558114

a3_act_1: 
+828.65138942756585 a3_x1
-82865.138942756588 a3_z1
<= 0

a3_act_2: 
+0.011341287366947634 a3_x2
-1.1341287366947634 a3_z2
<= 0

a4_local_1: 
+134.00991066241272 a4_x3
+130.1845929090891 a4_x2
+181.7073303605257 a4_x5
<= 26570.565761905596

a4_local_2: 
+7.4662739026327385 a4_x2
+14.720699717743353 a4_x5
+17.25814149358084 a4_x3
<= 2729.0499207455518

a4_local_3: 
+3.7224738896571892 a4_x4
+1.7393530686301233 a4_x5
+1.776091783016009 a4_x2
<= 245.34696723693926

a4_local_4: 
+2853.8366687471766 a4_x5
+2907.4033438333654 a4_x3
+2409.4385879908964 a4_x1
<= 270369.89601898869

a4_local_5: 
+4576.7331347819891 a4_x5
+6983.162689036043 a4_x6
+3528.5466461701103 a4_x1
<= 809968.20023072686

a4_local_6: 
+1.2534317826465471 a4_x3
+0.56654212028762641 a4_x2
+0.72623509368208827 a4_x1
<= 124.88290252406166

a4_local_7: 
+0.0085990313566602621 a4_x1
+0.0075937737592490489 a4_x2
+0.016805027350584232 a4_x3
<= 2.0158167028230665

a4_local_8: 
+0.8528496249356522 a4_x3
+0.60951968164634351 a4_x1
+0.93887249433595621 a4_x4
<= 138.01468131063154

a4_act_1: 
+0.042945125292637998 a4_x1
-4.2945125292638 a4_z1
<= 0

a4_act_2: 
+267.49153779604319 a4_x2
-26749.153779604319 a4_z2
<= 0

coupling_1: 
+0.091942160570959663 a1_x1
+0.5477472728382774 a2_x1
+2.5717140925357325 a3_x1
+4.8296311924032969 a4_x1
+0.81454849785512862 short_1
-0.81454849785512862 surp_1
= 454.7049533190974

coupling_2: 
+0.00034163807279636546 a1_x2
+0.0014516712222622944 a2_x2
+0.0055138377542826638 a3_x2
+0.039702612261419849 a4_x2
+0.0042273463971749334 short_2
-0.0042273463971749334 surp_2
= 2.5819766548299095

coupling_3: 
+0.00086944316549702864 a1_x3
+0.0026878226437197306 a2_x3
+0.01785811831010491 a3_x3
+0.09360205325451601 a4_x3
+0.010916650974881717 short_3
-0.010916650974881717 surp_3
= 2.5098092046895357

bounds
  0 <= a1_x1 <= 100
  0 <= a1_x2 <= 100
  0 <= a1_x3 <= 100
  0 <= a1_x4 <= 100
  0 <= a1_x5 <= 100
  0 <= a1_x6 <= 100
  0 <= a2_x1 <= 100
  0 <= a2_x2 <= 100
  0 <= a2_x3 <= 100
  0 <= a2_x4 <= 100
  0 <= a2_x5 <= 100
  0 <= a2_x6 <= 100
  0 <= a3_x1 <= 100
  0 <= a3_x2 <= 100
  0 <= a3_x3 <= 100
  0 <= a3_x4 <= 100
  0 <= a3_x5 <= 100
  0 <= a3_x6 <= 100
  0 <= a4_x1 <= 100
  0 <= a4_x2 <= 100
  0 <= a4_x3 <= 100
  0 <= a4_x4 <= 100
  0 <= a4_x5 <= 100
  0 <= a4_x6 <= 100
  0 <= short_1 <= +inf
  0 <= surp_1 <= +inf
  0 <= short_2 <= +inf
  0 <= surp_2 <= +inf
  0 <= short_3 <= +inf
  0 <= surp_3 <= +inf
 0 <= a1_z1 <= 1
 0 <= a1_z2 <= 1
 0 <= a2_z1 <= 1
 0 <= a2_z2 <= 1
 0 <= a3_z1 <= 1
 0 <= a3_z2 <= 1
 0 <= a4_z1 <= 1
 0 <= a4_z2 <= 1

binary
  a1_z1
  a1_z2
  a2_z1
  a2_z2
  a3_z1
  a3_z2
  a4_z1
  a4_z2
end
