min
obj: 
  +4.0092711480649195 a1_x1
  +1.9679731558453351 a1_x2
  +5.1245063990813229 a1_x3
  +5.3289660462088069 a1_x4
  +7.7326436197250805 a1_x5
  +5.1395422066191525 a1_x6
  +7.4601303692563201 a1_z1
  +49.872667351617643 a1_z2
  +9.3684343534405965 a2_x1
  +1.0573707236444929 a2_x2
  +6.6071911877442115 a2_x3
  +2.1574642417771144 a2_x4
  +4.0288495580936399 a2_x5
  +6.5816021448275457 a2_x6
  +37.186317612242192 a2_z1
  +14.569927030673126 a2_z2
  +7.5771846442232071 a3_x1
  +6.3254671996139473 a3_x2
  +1.3182946718516668 a3_x3
  +2.4508427443497842 a3_x4
  +7.5821505201430535 a3_x5
  +8.0396019839617026 a3_x6
  +34.570982164584187 a3_z1
  +17.019236119633661 a3_z2
  +9.6576292080467585 a4_x1
  +1.0103892115093069 a4_x2
  +8.2624531172852755 a4_x3
  +1.8717492610420641 a4_x4
  +5.7231033614351237 a4_x5
  +2.0382344427317065 a4_x6
  +33.41705432517788 a4_z1
  +11.211459891146486 a4_z2
  +1000000 short_1
  +1000000 surp_1
  +1000000 short_2
  +1000000 surp_2
  +1000000 short_3
  +1000000 surp_3

s.t.

a1_local_1: 
+0.78148208496250937 a1_x3
+0.3320120804870641 a1_x6
+0.52825536371465343 a1_x4
<= 62.059018921159932

a1_local_2: 
+0.82850689794525345 a1_x4
+0.45899830670512559 a1_x6
+0.32077542689389565 a1_x2
<= 91.172631314095725

a1_local_3: 
+0.48859375753669404 a1_x6
+0.82628488203111994 a1_x4
+0.43185242516596495 a1_x1
<= 110.89236174661553

a1_local_4: 
+0.51721050820825076 a1_x2
+0.61058510634536689 a1_x5
+0.59973253881057687 a1_x3
<= 116.60210274440821

a1_local_5: 
+0.78788977519871028 a1_x1
+0.35732272634753814 a1_x4
+0.50154777576307563 a1_x2
<= 112.71252122071357

a1_local_6: 
+0.65598510136492894 a1_x1
+0.67245144267999746 a1_x3
+0.34277194171173625 a1_x6
<= 104.32958719544152

a1_local_7: 
+0.43751232582857641 a1_x2
+0.70564966142939822 a1_x5
+0.55735224057380928 a1_x4
<= 94.597837902262967

a1_local_8: 
+0.51093370724646547 a1_x4
+0.7965416203862149 a1_x5
+0.32321539844488506 a1_x6
<= 84.492687710359348

a1_act_1: 
+0.0099995000374968751 a1_x1
-0.99995000374968745 a1_z1
<= 0

a1_act_2: 
+0.019957419963247 a1_x2
-1.9957419963247001 a1_z2
<= 0

a2_local_1: 
+0.38210255802832649 a2_x4
+0.7208713077566955 a2_x2
+0.57822330703748126 a2_x6
<= 97.01455258836441

a2_local_2: 
+0.52120176967801157 a2_x1
+0.71917277819711223 a2_x4
+0.45949889051526155 a2_x5
<= 109.18804207531662

a2_local_3: 
+0.52461682870637982 a2_x4
+0.38778363135704452 a2_x5
+0.75789249784491519 a2_x3
<= 106.70841600536653

a2_local_4: 
+0.64829000143276161 a2_x2
+0.43879281768829254 a2_x1
+0.62223864970562437 a2_x5
<= 78.142518947871721

a2_local_5: 
+0.6009339641661483 a2_x2
+0.37891042526939894 a2_x3
+0.70377926961066539 a2_x6
<= 94.924375496616079

a2_local_6: 
+0.59465521118310682 a2_x6
+0.42678360136503862 a2_x5
+0.68135228583946383 a2_x2
<= 94.872889539348137

a2_local_7: 
+0.70956674119344976 a2_x2
+0.4842373658822724 a2_x5
+0.51188789131557511 a2_x6
<= 113.72841731790142

a2_local_8: 
+0.67651343220211602 a2_x2
+0.55603899934845002 a2_x4
+0.48285630083254327 a2_x5
<= 113.90943495750736

a2_act_1: 
+0.0099995000374968751 a2_x1
-0.99995000374968757 a2_z1
<= 0

a2_act_2: 
+0.0099995000374968734 a2_x2
-0.99995000374968734 a2_z2
<= 0

a3_local_1: 
+0.49468250114607065 a3_x1
+0.41145761448933238 a3_x2
+0.7655010480323432 a3_x6
<= 75.497628679798211

a3_local_2: 
+0.46662846550291315 a3_x2
+0.38557347806034403 a3_x1
+0.7959842763515157 a3_x6
<= 70.957978463933372

a3_local_3: 
+0.49835127935034823 a3_x1
+0.38496605246954752 a3_x5
+0.77681860225916632 a3_x2
<= 85.990269209633837

a3_local_4: 
+0.23580221202909221 a3_x4
+0.35878556860106842 a3_x6
+0.33782014686590256 a3_x5
<= 59.87251484243167

a3_local_5: 
+0.49336283095547812 a3_x4
+0.72460937963388772 a3_x1
+0.48118017828895326 a3_x5
<= 55.296011451709674

a3_local_6: 
+0.81750235473186939 a3_x5
+0.46365413463435984 a3_x6
+0.42074342360518546 a3_x1
<= 100.30201845468198

a3_local_7: 
+0.43560991750471073 a3_x6
+0.53775688136088995 a3_x1
+0.62082946650195203 a3_x4
<= 100.00622657591754

a3_local_8: 
+0.5488127929814145 a3_x3
+0.70419164456558436 a3_x1
+0.45046492203495359 a3_x6
<= 69.389880949788761

a3_act_1: 
+0.0099995000374968751 a3_x1
-0.99995000374968757 a3_z1
<= 0

a3_act_2: 
+0.011341287366947634 a3_x2
-1.1341287366947634 a3_z2
<= 0

a4_local_1: 
+0.51419106913609913 a4_x3
+0.49951346644504335 a4_x2
+0.69720430381684517 a4_x5
<= 101.95027777521908

a4_local_2: 
+0.31264890934173262 a4_x2
+0.61642671719781406 a4_x5
+0.72268164623999642 a4_x3
<= 114.27848648297959

a4_local_3: 
+0.83160858398989945 a4_x4
+0.38857517482686521 a4_x5
+0.39678268175738912 a4_x2
<= 54.811034290133627

a4_local_4: 
+0.60294574131329637 a4_x5
+0.6142630668537622 a4_x3
+0.50905531893063427 a4_x1
<= 57.122532333124873

a4_local_5: 
+0.50491806736059985 a4_x5
+0.77040214169723142 a4_x6
+0.38927918685842394 a4_x1
<= 89.357969154022555

a4_local_6: 
+1.2534317826465471 a4_x3
+0.56654212028762641 a4_x2
+0.72623509368208827 a4_x1
<= 124.88290252406166

a4_local_7: 
+0.42261030873506078 a4_x1
+0.37320564837512732 a4_x2
+0.82590439578183461 a4_x3
<= 99.069870058505728

a4_local_8: 
+0.8528496249356522 a4_x3
+0.60951968164634351 a4_x1
+0.93887249433595621 a4_x4
<= 138.01468131063154

a4_act_1: 
+0.0099995000374968751 a4_x1
-0.99995000374968745 a4_z1
<= 0

a4_act_2: 
+0.0099995000374968734 a4_x2
-0.99995000374968734 a4_z2
<= 0

coupling_1: 
+0.016362377076669481 a1_x1
+0.097479190887407557 a2_x1
+0.45767203483301083 a3_x1
+0.85949956168756547 a4_x1
+0.14496015306116275 short_1
-0.14496015306116275 surp_1
= 80.921025334121197

coupling_2: 
+0.0084241785568557881 a1_x2
+0.035795593512424104 a2_x2
+0.13596129200534482 a3_x2
+0.97899479447997573 a4_x2
+0.10423873598159902 short_2
-0.10423873598159902 surp_2
= 63.666886397890259

coupling_3: 
+0.0090028477082913973 a1_x3
+0.027831673062232613 a2_x3
+0.18491596217288811 a3_x3
+0.96922382517327266 a4_x3
+0.11303895425441331 short_3
-0.11303895425441331 surp_3
= 25.988392276073466

bounds
  0 <= a1_x1 <= 100
  0 <= a1_x2 <= 100
  0 <= a1_x3 <= 100
  0 <= a1_x4 <= 100
  0 <= a1_x5 <= 100
  0 <= a1_x6 <= 100
  0 <= a2_x1 <= 100
  0 <= a2_x2 <= 100
  0 <= a2_x3 <= 100
  0 <= a2_x4 <= 100
  0 <= a2_x5 <= 100
  0 <= a2_x6 <= 100
  0 <= a3_x1 <= 100
  0 <= a3_x2 <= 100
  0 <= a3_x3 <= 100
  0 <= a3_x4 <= 100
  0 <= a3_x5 <= 100
  0 <= a3_x6 <= 100
  0 <= a4_x1 <= 100
  0 <= a4_x2 <= 100
  0 <= a4_x3 <= 100
  0 <= a4_x4 <= 100
  0 <= a4_x5 <= 100
  0 <= a4_x6 <= 100
  0 <= short_1 <= +inf
  0 <= surp_1 <= +inf
  0 <= short_2 <= +inf
  0 <= surp_2 <= +inf
  0 <= short_3 <= +inf
  0 <= surp_3 <= +inf
 0 <= a1_z1 <= 1
 0 <= a1_z2 <= 1
 0 <= a2_z1 <= 1
 0 <= a2_z2 <= 1
 0 <= a3_z1 <= 1
 0 <= a3_z2 <= 1
 0 <= a4_z1 <= 1
 0 <= a4_z2 <= 1

binary
  a1_z1
  a1_z2
  a2_z1
  a2_z2
  a3_z1
  a3_z2
  a4_z1
  a4_z2
end
