min
obj: 
  +2.370294118728955 a1_x1
  +4.0871141162290519 a1_x2
  +7.6613663727576089 a1_x3
  +4.8999168943267346 a1_x4
  +9.1856075433138287 a1_x5
  +7.8055232956727103 a1_x6
  +17.430873114549655 a1_z1
  +23.402378726140935 a1_z2
  +7.7696749959897602 a2_x1
  +1.8033642153830525 a2_x2
  +9.5715816001394138 a2_x3
  +5.6582749389411147 a2_x4
  +2.4417372334426313 a2_x5
  +7.2729933705310286 a2_x6
  +31.321727314252385 a2_z1
  +17.358761230317288 a2_z2
  +2.3493759750782877 a3_x1
  +3.4440486133066264 a3_x2
  +8.9723629811002734 a3_x3
  +1.1828241076108115 a3_x4
  +8.9432908674835829 a3_x5
  +1.7190508218957756 a3_x6
  +16.001764697499688 a3_z1
  +34.61198408971174 a3_z2
  +6.5610669509273256 a4_x1
  +3.9905359855651432 a4_x2
  +4.1004087373899605 a4_x3
  +4.8874480478433391 a4_x4
  +2.9132673248674479 a4_x5
  +5.3684179760125765 a4_x6
  +43.700484803270278 a4_z1
  +7.0959851654145574 a4_z2
  +1000000 short_1
  +1000000 surp_1
  +1000000 short_2
  +1000000 surp_2
  +1000000 short_3
  +1000000 surp_3

s.t.

a1_local_1: 
+1.582077853325204 a1_x3
+1.1369930495446261 a1_x2
+0.63208014567564075 a1_x1
<= 234.4080527698766

a1_local_2: 
+1.3074704208161818 a1_x6
+0.77748105960196789 a1_x3
+0.76483565829026945 a1_x2
<= 88.26068116923814

a1_local_3: 
+1.0157497001689095 a1_x4
+1.1749389701437916 a1_x3
+0.85110803659667356 a1_x6
<= 93.622523161999396

a1_local_4: 
+0.76327546880282471 a1_x5
+1.4413870609636976 a1_x3
+0.69377617371659317 a1_x6
<= 156.30887535792823

a1_local_5: 
+2.819023197019201 a1_x3
+2.1344802495614861 a1_x5
+1.1303680127603979 a1_x4
<= 368.78102179283258

a1_local_6: 
+1.3502583084461559 a1_x3
+0.97429848056948476 a1_x1
+0.74059903482525158 a1_x6
<= 152.59394277453802

a1_local_7: 
+0.92309589366518208 a1_x6
+1.0833110696977188 a1_x1
+1.0415631227632822 a1_x4
<= 140.28435926149808

a1_local_8: 
+0.51533765988775582 a1_x3
+0.78497229301395333 a1_x2
+0.84097517278571188 a1_x4
<= 78.116086386479168

a1_act_1: 
+0.10000000000000002 a1_x1
-10 a1_z1
<= 0

a1_act_2: 
+0.10000000000000001 a1_x2
-10 a1_z2
<= 0

a2_local_1: 
+1.212451146173982 a2_x3
+1.4178794526189258 a2_x2
+0.70527857509531422 a2_x1
<= 211.26013590586675

a2_local_2: 
+1.1469995093002563 a2_x6
+2.7121505441184208 a2_x2
+2.9970713998650909 a2_x1
<= 437.93402876985402

a2_local_3: 
+0.80601443189449973 a2_x2
+1.3332695285547658 a2_x3
+0.75003589190550068 a2_x1
<= 161.2262710387287

a2_local_4: 
+0.95670459642878769 a2_x1
+0.91733475592568958 a2_x4
+1.0901145885297805 a2_x5
<= 168.1074439354685

a2_local_5: 
+0.83915717107068588 a2_x1
+1.2627245473560138 a2_x6
+1.1309936454717506 a2_x3
<= 100.04843017995572

a2_local_6: 
+0.83274330347580949 a2_x1
+0.67881503806769872 a2_x6
+1.4731553426491255 a2_x2
<= 145.53624870768203

a2_local_7: 
+0.96714825325243492 a2_x3
+0.86991204323730509 a2_x2
+1.149541505688993 a2_x4
<= 122.82222107582346

a2_local_8: 
+0.74679405316670266 a2_x4
+0.38465126379202963 a2_x3
+0.659424316970883 a2_x1
<= 108.25725810989734

a2_act_1: 
+0.08103809945015665 a2_x1
-8.1038099450156658 a2_z1
<= 0

a2_act_2: 
+0.099999999999999992 a2_x2
-9.9999999999999982 a2_z2
<= 0

a3_local_1: 
+0.91733006822027341 a3_x5
+0.61641529054006305 a3_x4
+1.6222829241044046 a3_x2
<= 141.66316778760168

a3_local_2: 
+1.1621612512084034 a3_x4
+0.84047754887639725 a3_x5
+1.1897997767303388 a3_x3
<= 160.69597266821302

a3_local_3: 
+1.2793341068849486 a3_x4
+0.67732240915929165 a3_x3
+1.4764017644731753 a3_x6
<= 145.52402855626741

a3_local_4: 
+0.88217110480703198 a3_x4
+0.92949395153058512 a3_x5
+1.1335669401898425 a3_x2
<= 162.13836792556759

a3_local_5: 
+1.5959081083068978 a3_x4
+0.62660249346116925 a3_x6
+1.3701209338695959 a3_x5
<= 147.84569117282686

a3_local_6: 
+0.98295152504275163 a3_x1
+0.94198524843132236 a3_x5
+1.0615877495590185 a3_x3
<= 98.937617433427803

a3_local_7: 
+0.96604189395861917 a3_x6
+0.75661321084049005 a3_x4
+1.3216792750540816 a3_x1
<= 114.77261972096333

a3_local_8: 
+1.4305545538477729 a3_x4
+0.69902961569014821 a3_x2
+1.3431792685428445 a3_x1
<= 219.64923014482829

a3_act_1: 
+0.099999999999999992 a3_x1
-10 a3_z1
<= 0

a3_act_2: 
+0.088720732042829403 a3_x2
-8.8720732042829411 a3_z2
<= 0

a4_local_1: 
+0.91845120334564079 a4_x5
+1.1531003586543536 a4_x2
+0.86722720402843445 a4_x1
<= 196.61995844192467

a4_local_2: 
+1.2637579839632156 a4_x4
+0.69306098668998717 a4_x2
+1.44287446444783 a4_x6
<= 212.22490000044428

a4_local_3: 
+1.1834694286351188 a4_x1
+0.84497324206615798 a4_x3
+0.89349973214392187 a4_x6
<= 144.7474856026974

a4_local_4: 
+0.87093098926996493 a4_x3
+1.1481965991797165 a4_x4
+0.93811347763415986 a4_x1
<= 178.51587527556018

a4_local_5: 
+0.83781821072257689 a4_x6
+0.86554597978936465 a4_x3
+0.45795776923687026 a4_x4
<= 103.38579485438021

a4_local_6: 
+0.68329360238412751 a4_x5
+1.4634997261950502 a4_x4
+0.72706143046259097 a4_x2
<= 160.93242374921229

a4_local_7: 
+1.17423824900847 a4_x6
+0.85161593130218916 a4_x2
+0.91435662811412188 a4_x4
<= 198.99221521598241

a4_local_8: 
+0.77979263868378701 a4_x6
+1.2823922032502144 a4_x2
+1.259307504534148 a4_x1
<= 120.03397171721066

a4_act_1: 
+0.10000000000000001 a4_x1
-10 a4_z1
<= 0

a4_act_2: 
+0.10000000000000001 a4_x2
-10.000000000000002 a4_z2
<= 0

coupling_1: 
+0.079582539640779423 a1_x1
+0.59953206198516562 a2_x1
+2.4316639835903864 a3_x1
+12.565570343869537 a4_x1
+0.93269153993910725 short_1
-0.93269153993910725 surp_1
= 328.18176721730953

coupling_2: 
+0.086106364245024908 a1_x2
+0.58206644714660771 a2_x2
+2.317214541872139 a3_x2
+11.613543421185367 a4_x2
+0.89711849428698087 short_2
-0.89711849428698087 surp_2
= 1146.5584301475551

coupling_3: 
+0.071519026175639724 a1_x3
+0.3563053115276103 a2_x3
+3.3356056799962648 a3_x3
+13.982293292754765 a4_x3
+1.1807299184188165 short_3
-1.1807299184188165 surp_3
= 986.49802655367091

bounds
  0 <= a1_x1 <= 100
  0 <= a1_x2 <= 100
  0 <= a1_x3 <= 100
  0 <= a1_x4 <= 100
  0 <= a1_x5 <= 100
  0 <= a1_x6 <= 100
  0 <= a2_x1 <= 100
  0 <= a2_x2 <= 100
  0 <= a2_x3 <= 100
  0 <= a2_x4 <= 100
  0 <= a2_x5 <= 100
  0 <= a2_x6 <= 100
  0 <= a3_x1 <= 100
  0 <= a3_x2 <= 100
  0 <= a3_x3 <= 100
  0 <= a3_x4 <= 100
  0 <= a3_x5 <= 100
  0 <= a3_x6 <= 100
  0 <= a4_x1 <= 100
  0 <= a4_x2 <= 100
  0 <= a4_x3 <= 100
  0 <= a4_x4 <= 100
  0 <= a4_x5 <= 100
  0 <= a4_x6 <= 100
  0 <= short_1 <= +inf
  0 <= surp_1 <= +inf
  0 <= short_2 <= +inf
  0 <= surp_2 <= +inf
  0 <= short_3 <= +inf
  0 <= surp_3 <= +inf
 0 <= a1_z1 <= 1
 0 <= a1_z2 <= 1
 0 <= a2_z1 <= 1
 0 <= a2_z2 <= 1
 0 <= a3_z1 <= 1
 0 <= a3_z2 <= 1
 0 <= a4_z1 <= 1
 0 <= a4_z2 <= 1

binary
  a1_z1
  a1_z2
  a2_z1
  a2_z2
  a3_z1
  a3_z2
  a4_z1
  a4_z2
end
