min
obj: 
  +1.5770974257819579 a1_x1
  +5.2436233239928463 a1_x2
  +8.0695966456126804 a1_x3
  +3.4781022885686368 a1_x4
  +9.412058306823841 a1_x5
  +8.3165688602967034 a1_x6
  +34.001400959855452 a1_z1
  +10.410503430419741 a1_z2
  +6.4773554290647395 a2_x1
  +9.5833935756226563 a2_x2
  +2.026827474230366 a2_x3
  +2.5146383338919818 a2_x4
  +5.9719159164755045 a2_x5
  +2.1752834405324757 a2_x6
  +46.820939487606068 a2_z1
  +31.119838842287344 a2_z2
  +4.2898026117145012 a3_x1
  +6.2971939246586208 a3_x2
  +7.0812452369118279 a3_x3
  +4.947199835085236 a3_x4
  +8.0650994710678727 a3_x5
  +5.8436848317688934 a3_x6
  +45.408472421232204 a3_z1
  +47.685437857449642 a3_z2
  +7.6745490131872192 a4_x1
  +9.5447276615633179 a4_x2
  +6.4685946234911675 a4_x3
  +6.1047180091187832 a4_x4
  +9.0091726197219533 a4_x5
  +9.2042443028710519 a4_x6
  +10.38795682780167 a4_z1
  +22.655186795949191 a4_z2
  +1000000 short_1
  +1000000 surp_1
  +1000000 short_2
  +1000000 surp_2
  +1000000 short_3
  +1000000 surp_3

s.t.

a1_local_1: 
+29.855907340797014 a1_x1
+30.522321731648116 a1_x6
+18.615535234557949 a1_x5
<= 4155.3175828502553

a1_local_2: 
+0.0009216256838051151 a1_x5
+0.00050828126561481939 a1_x4
+0.0014348734353809851 a1_x1
<= 0.089547921918096268

a1_local_3: 
+0.0077491337424903444 a1_x2
+0.011065386994573557 a1_x3
+0.006809648302352287 a1_x5
<= 1.0080487819422841

a1_local_4: 
+21.485246084692172 a1_x2
+17.172438929723349 a1_x4
+7.872404833167014 a1_x1
<= 2339.5491992384086

a1_local_5: 
+63.604717020937123 a1_x1
+40.518322353876194 a1_x3
+72.65935748906405 a1_x2
<= 6863.1404142441897

a1_local_6: 
+0.92294774680391634 a1_x3
+0.73772102875188583 a1_x4
+0.63206480780390006 a1_x2
<= 96.249382025955342

a1_local_7: 
+9.1867646843279491 a1_x1
+5.7299647220972343 a1_x4
+7.9147608089396968 a1_x3
<= 1265.4793799476874

a1_local_8: 
+0.0023680042710837292 a1_x3
+0.0015253845502222899 a1_x2
+0.0020983720002596233 a1_x5
<= 0.27380620469269185

a1_act_1: 
+6.3007669899451679 a1_x1
-630.07669899451685 a1_z1
<= 0

a1_act_2: 
+3.0471840436015678 a1_x2
-304.7184043601568 a1_z2
<= 0

a2_local_1: 
+0.48108672247814871 a2_x3
+0.82876994960674777 a2_x6
+0.82883129810389977 a2_x4
<= 118.82792436063581

a2_local_2: 
+625.00756146238882 a2_x6
+258.51423609557901 a2_x4
+581.64170213978855 a2_x2
<= 78729.88124619046

a2_local_3: 
+6.1239278400423709 a2_x4
+8.7541518494795145 a2_x5
+10.566057439500822 a2_x2
<= 1150.1683167018732

a2_local_4: 
+0.002222622675958884 a2_x6
+0.002524700154213451 a2_x5
+0.0017906605605993527 a2_x1
<= 0.21745197475713571

a2_local_5: 
+1.6044020039850573 a2_x6
+1.6225335462842134 a2_x5
+1.5351381944687021 a2_x2
<= 187.51592588666759

a2_local_6: 
+0.66390232301442187 a2_x1
+0.45927838757788886 a2_x6
+0.80630322973210589 a2_x3
<= 98.938073679472609

a2_local_7: 
+6.9621830272947198 a2_x2
+7.7048991733713201 a2_x4
+10.7557352094445 a2_x5
<= 1339.282596409533

a2_local_8: 
+0.00053848053722179952 a2_x4
+0.00054939375667860304 a2_x3
+0.00067418163919667632 a2_x2
<= 0.056749319989662511

a2_act_1: 
+73.554552429711464 a2_x1
-7355.4552429711466 a2_z1
<= 0

a2_act_2: 
+4.6193210606044612 a2_x2
-461.93210606044613 a2_z2
<= 0

a3_local_1: 
+0.0081126116418016384 a3_x3
+0.0071494220348252268 a3_x4
+0.0092998398405517539 a3_x2
<= 1.364664183190486

a3_local_2: 
+1.8216442411599494 a3_x3
+2.1944295893244772 a3_x4
+3.2096054927545796 a3_x6
<= 472.47165868892012

a3_local_3: 
+658.58404595352556 a3_x2
+1050.3896697028283 a3_x3
+637.73720406552707 a3_x5
<= 88322.720368621987

a3_local_4: 
+0.32808814762704036 a3_x2
+0.53762269137738539 a3_x5
+0.4736512120253239 a3_x3
<= 70.311296212380128

a3_local_5: 
+557.85848908418711 a3_x2
+274.50926550068442 a3_x5
+596.66026793546848 a3_x3
<= 89293.166771491524

a3_local_6: 
+238.41717166979481 a3_x5
+204.60233883731036 a3_x6
+229.99180299279573 a3_x1
<= 35508.483698694443

a3_local_7: 
+10.23852390778733 a3_x3
+11.83147846672599 a3_x5
+10.046245167202164 a3_x2
<= 1890.0633014584021

a3_local_8: 
+11.785674481379587 a3_x5
+17.997312287282519 a3_x3
+12.020509998566844 a3_x2
<= 2328.2901313076909

a3_act_1: 
+1.3341654239270746 a3_x1
-133.41654239270747 a3_z1
<= 0

a3_act_2: 
+418.75174341166411 a3_x2
-41875.174341166414 a3_z2
<= 0

a4_local_1: 
+0.016879406184972415 a4_x6
+0.018825265834841492 a4_x1
+0.016762614232950151 a4_x3
<= 1.9598870887972817

a4_local_2: 
+1187.7298568964197 a4_x2
+1980.9710710931604 a4_x4
+1317.1149816747595 a4_x6
<= 252013.79379870117

a4_local_3: 
+26.41487532395082 a4_x3
+20.051653800428191 a4_x2
+39.323721233170183 a4_x1
<= 2589.7240956613432

a4_local_4: 
+82.118807977878191 a4_x3
+123.88240969272654 a4_x5
+127.24535243832865 a4_x2
<= 20493.178023181241

a4_local_5: 
+28.372901260289474 a4_x3
+29.263795968183686 a4_x2
+22.909403284980918 a4_x1
<= 4442.2939247512095

a4_local_6: 
+939.97167123276301 a4_x5
+343.16329678339946 a4_x1
+859.7274552328862 a4_x6
<= 101918.28836628908

a4_local_7: 
+202.36234381039404 a4_x6
+109.16312514615048 a4_x3
+170.85296960674899 a4_x2
<= 32213.120943095659

a4_local_8: 
+0.048751508369058345 a4_x2
+0.057804359929800875 a4_x6
+0.085124112225802462 a4_x5
<= 9.7310778744165187

a4_act_1: 
+160.28468589001915 a4_x1
-16028.468589001915 a4_z1
<= 0

a4_act_2: 
+0.061864422839029161 a4_x2
-6.1864422839029158 a4_z2
<= 0

coupling_1: 
+0.55628339391204762 a1_x1
+3.8356889363978595 a2_x1
+15.648750583516572 a3_x1
+78.246345961243961 a4_x1
+5.5727221892727243 short_1
-5.5727221892727243 surp_1
= 7248.8084855159996

coupling_2: 
+0.00041918384480700062 a1_x2
+0.0016133558311010353 a2_x2
+0.01210865048342909 a3_x2
+0.051844970085123648 a4_x2
+0.0046162717346045724 short_2
-0.0046162717346045724 surp_2
= 2.376966721260104

coupling_3: 
+0.0010315445273171686 a1_x3
+0.0031655158533642818 a2_x3
+0.011798846057123891 a3_x3
+0.071047152310198064 a4_x3
+0.0083092361634340191 short_3
-0.0083092361634340191 surp_3
= 5.0808661725038107

bounds
  0 <= a1_x1 <= 100
  0 <= a1_x2 <= 100
  0 <= a1_x3 <= 100
  0 <= a1_x4 <= 100
  0 <= a1_x5 <= 100
  0 <= a1_x6 <= 100
  0 <= a2_x1 <= 100
  0 <= a2_x2 <= 100
  0 <= a2_x3 <= 100
  0 <= a2_x4 <= 100
  0 <= a2_x5 <= 100
  0 <= a2_x6 <= 100
  0 <= a3_x1 <= 100
  0 <= a3_x2 <= 100
  0 <= a3_x3 <= 100
  0 <= a3_x4 <= 100
  0 <= a3_x5 <= 100
  0 <= a3_x6 <= 100
  0 <= a4_x1 <= 100
  0 <= a4_x2 <= 100
  0 <= a4_x3 <= 100
  0 <= a4_x4 <= 100
  0 <= a4_x5 <= 100
  0 <= a4_x6 <= 100
  0 <= short_1 <= +inf
  0 <= surp_1 <= +inf
  0 <= short_2 <= +inf
  0 <= surp_2 <= +inf
  0 <= short_3 <= +inf
  0 <= surp_3 <= +inf
 0 <= a1_z1 <= 1
 0 <= a1_z2 <= 1
 0 <= a2_z1 <= 1
 0 <= a2_z2 <= 1
 0 <= a3_z1 <= 1
 0 <= a3_z2 <= 1
 0 <= a4_z1 <= 1
 0 <= a4_z2 <= 1

binary
  a1_z1
  a1_z2
  a2_z1
  a2_z2
  a3_z1
  a3_z2
  a4_z1
  a4_z2
end
