min
obj: 
  +1.5770974257819579 a1_x1
  +5.2436233239928463 a1_x2
  +8.0695966456126804 a1_x3
  +3.4781022885686368 a1_x4
  +9.412058306823841 a1_x5
  +8.3165688602967034 a1_x6
  +34.001400959855452 a1_z1
  +10.410503430419741 a1_z2
  +6.4773554290647395 a2_x1
  +9.5833935756226563 a2_x2
  +2.026827474230366 a2_x3
  +2.5146383338919818 a2_x4
  +5.9719159164755045 a2_x5
  +2.1752834405324757 a2_x6
  +46.820939487606068 a2_z1
  +31.119838842287344 a2_z2
  +4.2898026117145012 a3_x1
  +6.2971939246586208 a3_x2
  +7.0812452369118279 a3_x3
  +4.947199835085236 a3_x4
  +8.0650994710678727 a3_x5
  +5.8436848317688934 a3_x6
  +45.408472421232204 a3_z1
  +47.685437857449642 a3_z2
  +7.6745490131872192 a4_x1
  +9.5447276615633179 a4_x2
  +6.4685946234911675 a4_x3
  +6.1047180091187832 a4_x4
  +9.0091726197219533 a4_x5
  +9.2042443028710519 a4_x6
  +10.38795682780167 a4_z1
  +22.655186795949191 a4_z2
  +1000000 short_1
  +1000000 surp_1
  +1000000 short_2
  +1000000 surp_2
  +1000000 short_3
  +1000000 surp_3

s.t.

a1_local_1: 
+0.64098504467401418 a1_x1
+0.65529248652179217 a1_x6
+0.39966226943800787 a1_x5
<= 89.211705947332462

a1_local_2: 
+0.51791392364174604 a1_x5
+0.28563217064578794 a1_x4
+0.80633704540358742 a1_x1
<= 50.322073711188985

a1_local_3: 
+0.51223022241792837 a1_x2
+0.73143990408782489 a1_x3
+0.450128721533822 a1_x5
<= 66.633648216849238

a1_local_4: 
+0.7509922292841581 a1_x2
+0.60024298270744103 a1_x4
+0.27517091645972563 a1_x1
<= 81.776269246822196

a1_local_5: 
+0.60736785680026173 a1_x1
+0.38691354606789718 a1_x3
+0.6938315317099838 a1_x2
<= 65.536819901998797

a1_local_6: 
+0.92294774680391634 a1_x3
+0.73772102875188583 a1_x4
+0.63206480780390006 a1_x2
<= 96.249382025955342

a1_local_7: 
+0.68498350042745682 a1_x1
+0.42723759969205405 a1_x4
+0.59014035411207089 a1_x3
<= 94.356666920411826

a1_local_8: 
+0.6741717186608206 a1_x3
+0.43427756292491176 a1_x2
+0.59740730837336975 a1_x5
<= 77.952730850940924

a1_act_1: 
+0.0099995000374968751 a1_x1
-0.99995000374968757 a1_z1
<= 0

a1_act_2: 
+0.0099995000374968751 a1_x2
-0.99995000374968757 a1_z2
<= 0

a2_local_1: 
+0.48108672247814871 a2_x3
+0.82876994960674777 a2_x6
+0.82883129810389977 a2_x4
<= 118.82792436063581

a2_local_2: 
+0.70063395603317602 a2_x6
+0.28979465704822438 a2_x4
+0.65202079445337002 a2_x2
<= 88.256257294672736

a2_local_3: 
+0.40755672572156976 a2_x4
+0.58260213990676446 a2_x5
+0.70318721681723695 a2_x2
<= 76.545453412864134

a2_local_4: 
+0.5832745751592584 a2_x6
+0.66254764057874038 a2_x5
+0.46991636908744827 a2_x1
<= 57.065110315808013

a2_local_5: 
+0.58338534803205955 a2_x6
+0.58997825684685667 a2_x5
+0.55819995713853043 a2_x2
<= 68.183686765057359

a2_local_6: 
+0.66390232301442187 a2_x1
+0.45927838757788886 a2_x6
+0.80630322973210589 a2_x3
<= 98.938073679472609

a2_local_7: 
+0.46567618922908599 a2_x2
+0.51535388704713037 a2_x4
+0.71941369036910197 a2_x5
<= 89.579951195159282

a2_local_8: 
+0.52642759393292116 a2_x4
+0.53709654009455499 a2_x3
+0.65909126451839239 a2_x2
<= 55.479085899036363

a2_act_1: 
+0.0099995000374968768 a2_x1
-0.99995000374968768 a2_z1
<= 0

a2_act_2: 
+0.0099995000374968751 a2_x2
-0.99995000374968757 a2_z2
<= 0

a3_local_1: 
+0.56881157551933192 a3_x3
+0.50127803366394641 a3_x4
+0.65205346753255045 a3_x2
<= 95.682724425718575

a3_local_2: 
+0.42426419607962779 a3_x3
+0.51108656922784357 a3_x4
+0.74752284960382309 a3_x6
<= 110.03949284654107

a3_local_3: 
+0.47237822426315712 a3_x2
+0.75340605349799239 a3_x3
+0.4574255478157801 a3_x5
<= 63.350653673085205

a3_local_4: 
+0.32808814762704036 a3_x2
+0.53762269137738539 a3_x5
+0.4736512120253239 a3_x3
<= 70.311296212380128

a3_local_5: 
+0.64737635948030336 a3_x2
+0.31855893998348128 a3_x5
+0.69240454283794972 a3_x3
<= 103.62177211983263

a3_local_6: 
+0.61233116492222861 a3_x5
+0.52548391379954917 a3_x6
+0.59069213707556223 a3_x1
<= 91.197085493310368

a3_local_7: 
+0.55063473608792679 a3_x3
+0.6363049089625642 a3_x5
+0.54029385545601216 a3_x2
<= 101.64888186630589

a3_local_8: 
+0.47824837657156011 a3_x5
+0.73030910514649905 a3_x3
+0.48777771704618361 a3_x2
<= 94.479189735362979

a3_act_1: 
+0.0099995000374968751 a3_x1
-0.99995000374968757 a3_z1
<= 0

a3_act_2: 
+0.0099995000374968734 a3_x2
-0.99995000374968745 a3_z2
<= 0

a4_local_1: 
+0.5564097865601414 a4_x6
+0.62055276295368056 a4_x1
+0.55255987712704147 a4_x3
<= 64.605374431390558

a4_local_2: 
+0.44669998527998578 a4_x2
+0.74503452376760726 a4_x4
+0.4953611627340555 a4_x6
<= 94.781281557065924

a4_local_3: 
+0.51349915663727086 a4_x3
+0.38979958032837597 a4_x2
+0.76444417932811382 a4_x1
<= 50.34364624994263

a4_local_4: 
+0.41970762564987546 a4_x3
+0.63316057931486336 a4_x5
+0.65034851408534078 a4_x2
<= 104.74023310770232

a4_local_5: 
+0.60681403829028902 a4_x3
+0.62586769129634812 a4_x2
+0.48996566810870618 a4_x1
<= 95.007778408741984

a4_local_6: 
+0.71250079101605179 a4_x5
+0.26011860558008482 a4_x1
+0.65167548199435332 a4_x6
<= 77.254308084356182

a4_local_7: 
+0.7064308417807228 a4_x6
+0.38107978459008396 a4_x3
+0.59643412340153268 a4_x2
<= 112.45344225473659

a4_local_8: 
+0.42816950302948487 a4_x2
+0.50767791381381555 a4_x6
+0.7476188952274655 a4_x5
<= 85.465063888660467

a4_act_1: 
+0.0099995000374968751 a4_x1
-0.99995000374968745 a4_z1
<= 0

a4_act_2: 
+0.0099995000374968768 a4_x2
-0.99995000374968757 a4_z2
<= 0

coupling_1: 
+0.0069294898565800183 a1_x1
+0.047780264283725053 a2_x1
+0.19493276201189913 a3_x1
+0.97469611098730324 a4_x1
+0.069418074144793215 short_1
-0.069418074144793215 surp_1
= 90.29668227093633

coupling_2: 
+0.0078111397459985719 a1_x2
+0.030063534205508561 a2_x2
+0.22563455684954919 a3_x2
+0.96608758061387268 a4_x2
+0.086020356154473038 short_2
-0.086020356154473038 surp_2
= 44.292783372649268

coupling_3: 
+0.014121366728643983 a1_x3
+0.043334445646231526 a2_x3
+0.16152073685155838 a3_x3
+0.97260260340623517 a4_x3
+0.11374959392585167 short_3
-0.11374959392585167 surp_3
= 69.554704252749573

bounds
  0 <= a1_x1 <= 100
  0 <= a1_x2 <= 100
  0 <= a1_x3 <= 100
  0 <= a1_x4 <= 100
  0 <= a1_x5 <= 100
  0 <= a1_x6 <= 100
  0 <= a2_x1 <= 100
  0 <= a2_x2 <= 100
  0 <= a2_x3 <= 100
  0 <= a2_x4 <= 100
  0 <= a2_x5 <= 100
  0 <= a2_x6 <= 100
  0 <= a3_x1 <= 100
  0 <= a3_x2 <= 100
  0 <= a3_x3 <= 100
  0 <= a3_x4 <= 100
  0 <= a3_x5 <= 100
  0 <= a3_x6 <= 100
  0 <= a4_x1 <= 100
  0 <= a4_x2 <= 100
  0 <= a4_x3 <= 100
  0 <= a4_x4 <= 100
  0 <= a4_x5 <= 100
  0 <= a4_x6 <= 100
  0 <= short_1 <= +inf
  0 <= surp_1 <= +inf
  0 <= short_2 <= +inf
  0 <= surp_2 <= +inf
  0 <= short_3 <= +inf
  0 <= surp_3 <= +inf
 0 <= a1_z1 <= 1
 0 <= a1_z2 <= 1
 0 <= a2_z1 <= 1
 0 <= a2_z2 <= 1
 0 <= a3_z1 <= 1
 0 <= a3_z2 <= 1
 0 <= a4_z1 <= 1
 0 <= a4_z2 <= 1

binary
  a1_z1
  a1_z2
  a2_z1
  a2_z2
  a3_z1
  a3_z2
  a4_z1
  a4_z2
end
