min
obj: 
  +2.370294118728955 a1_x1
  +4.0871141162290519 a1_x2
  +7.6613663727576089 a1_x3
  +4.8999168943267346 a1_x4
  +9.1856075433138287 a1_x5
  +7.8055232956727103 a1_x6
  +17.430873114549655 a1_z1
  +23.402378726140935 a1_z2
  +7.7696749959897602 a2_x1
  +1.8033642153830525 a2_x2
  +9.5715816001394138 a2_x3
  +5.6582749389411147 a2_x4
  +2.4417372334426313 a2_x5
  +7.2729933705310286 a2_x6
  +31.321727314252385 a2_z1
  +17.358761230317288 a2_z2
  +2.3493759750782877 a3_x1
  +3.4440486133066264 a3_x2
  +8.9723629811002734 a3_x3
  +1.1828241076108115 a3_x4
  +8.9432908674835829 a3_x5
  +1.7190508218957756 a3_x6
  +16.001764697499688 a3_z1
  +34.61198408971174 a3_z2
  +6.5610669509273256 a4_x1
  +3.9905359855651432 a4_x2
  +4.1004087373899605 a4_x3
  +4.8874480478433391 a4_x4
  +2.9132673248674479 a4_x5
  +5.3684179760125765 a4_x6
  +43.700484803270278 a4_z1
  +7.0959851654145574 a4_z2
  +1000000 short_1
  +1000000 surp_1
  +1000000 short_2
  +1000000 surp_2
  +1000000 short_3
  +1000000 surp_3

s.t.

a1_local_1: 
+0.77241195716615829 a1_x3
+0.55510986696212827 a1_x2
+0.30859812706501166 a1_x1
<= 114.44416748198472

a1_local_2: 
+0.76791484251516651 a1_x6
+0.45663690431334675 a1_x3
+0.44920989778057013 a1_x2
<= 51.838027079838319

a1_local_3: 
+0.57353003939573333 a1_x4
+0.66341421880025575 a1_x3
+0.48056723588315414 a1_x6
<= 52.862756827297559

a1_local_4: 
+0.43063763239582575 a1_x5
+0.81322607193567842 a1_x3
+0.39142634746345872 a1_x6
<= 88.18897862939329

a1_local_5: 
+0.75938868227298373 a1_x3
+0.57498645125237902 a1_x5
+0.3044986208702713 a1_x4
<= 99.342259575112024

a1_local_6: 
+0.74094541606884645 a1_x3
+0.53463991929925525 a1_x1
+0.40639887684176712 a1_x6
<= 83.734928132956171

a1_local_7: 
+0.34749955519298076 a1_x6
+0.40781257661203768 a1_x1
+0.39209655719358399 a1_x4
<= 52.810063156433721

a1_local_8: 
+0.51533765988775582 a1_x3
+0.78497229301395333 a1_x2
+0.84097517278571188 a1_x4
<= 78.116086386479168

a1_act_1: 
+0.0099995000374968768 a1_x1
-0.99995000374968757 a1_z1
<= 0

a1_act_2: 
+0.0099995000374968751 a1_x2
-0.99995000374968757 a1_z2
<= 0

a2_local_1: 
+0.60791199623513237 a2_x3
+0.71091188389924798 a2_x2
+0.3536202739722914 a2_x1
<= 105.92391400569633

a2_local_2: 
+0.27298831903800402 a2_x6
+0.64549758915640565 a2_x2
+0.71330935789604866 a2_x1
<= 104.22922886545705

a2_local_3: 
+0.46614415501724021 a2_x2
+0.77107279126206008 a2_x3
+0.43376995898586412 a2_x1
<= 93.242355106820014

a2_local_4: 
+0.40404045289186746 a2_x1
+0.38741357742107907 a2_x4
+0.46038285349284325 a2_x5
<= 70.996008627660757

a2_local_5: 
+0.83915717107068588 a2_x1
+1.2627245473560138 a2_x6
+1.1309936454717506 a2_x3
<= 100.04843017995572

a2_local_6: 
+0.45672210821443548 a2_x1
+0.37229940364563713 a2_x6
+0.80795920064893401 a2_x2
<= 79.820062261628067

a2_local_7: 
+0.55712484542162344 a2_x3
+0.50111201771719893 a2_x2
+0.66219230765188586 a2_x4
<= 70.751625411195789

a2_local_8: 
+0.74679405316670266 a2_x4
+0.38465126379202963 a2_x3
+0.659424316970883 a2_x1
<= 108.25725810989734

a2_act_1: 
+0.0099995000374968751 a2_x1
-0.99995000374968757 a2_z1
<= 0

a2_act_2: 
+0.0099995000374968751 a2_x2
-0.99995000374968757 a2_z2
<= 0

a3_local_1: 
+0.46731663203920337 a3_x5
+0.31402123127994841 a3_x4
+0.82644166867659885 a3_x2
<= 72.167649080712323

a3_local_2: 
+0.6236432264172822 a3_x4
+0.45102014007742142 a3_x5
+0.63847471319417637 a3_x3
<= 86.233261316244381

a3_local_3: 
+0.61873482797448964 a3_x4
+0.32757898195559443 a3_x3
+0.71404427259961634 a3_x6
<= 70.380977330587385

a3_local_4: 
+0.51561991303265631 a3_x4
+0.54327962890760972 a3_x5
+0.66255818619816786 a3_x2
<= 94.768203938537781

a3_local_5: 
+0.72715879570718156 a3_x4
+0.28550485592540154 a3_x6
+0.62428123715894035 a3_x5
<= 67.364338951685241

a3_local_6: 
+0.56936091402592692 a3_x1
+0.54563177164048948 a3_x5
+0.61490984652713276 a3_x3
<= 57.308230221214536

a3_local_7: 
+0.53565463193328733 a3_x6
+0.41952980869997958 a3_x4
+0.73284981742548938 a3_x1
<= 63.639564450695786

a3_local_8: 
+0.6867467670161036 a3_x4
+0.33557359090746153 a3_x2
+0.6448017083401697 a3_x1
<= 105.44400300835248

a3_act_1: 
+0.0099995000374968734 a3_x1
-0.99995000374968745 a3_z1
<= 0

a3_act_2: 
+0.0099995000374968751 a3_x2
-0.99995000374968757 a3_z2
<= 0

a4_local_1: 
+0.53699798738911919 a4_x5
+0.67419212866122302 a4_x2
+0.50704845448071745 a4_x1
<= 114.95931583434506

a4_local_2: 
+0.61966013127884112 a4_x4
+0.33982951438988579 a4_x2
+0.70748655312523379 a4_x6
<= 104.06051717473623

a4_local_3: 
+0.69341408287709849 a4_x1
+0.49508363420821427 a4_x3
+0.52351609794437026 a4_x6
<= 84.809917814029134

a4_local_4: 
+0.50648080789037353 a4_x3
+0.66772172345937819 a4_x4
+0.54555008134831429 a4_x1
<= 103.81404019922495

a4_local_5: 
+0.83781821072257689 a4_x6
+0.86554597978936465 a4_x3
+0.45795776923687026 a4_x4
<= 103.38579485438021

a4_local_6: 
+0.38576832624855306 a4_x5
+0.82625073302251495 a4_x4
+0.41047840947258923 a4_x2
<= 90.857914565919629

a4_local_7: 
+0.68481414059526768 a4_x6
+0.49666124622017871 a4_x2
+0.53325153477864828 a4_x4
<= 116.05198771488715

a4_local_8: 
+0.39801599426753947 a4_x6
+0.65454914870586722 a4_x2
+0.64276642743351675 a4_x1
<= 61.266852530882495

a4_act_1: 
+0.0099995000374968751 a4_x1
-0.99995000374968745 a4_z1
<= 0

a4_act_2: 
+0.0099995000374968751 a4_x2
-0.99995000374968757 a4_z2
<= 0

coupling_1: 
+0.0061784381390645043 a1_x1
+0.046545030782896152 a2_x1
+0.1887836900583891 a3_x1
+0.97553558107210303 a4_x1
+0.072410066433589215 short_1
-0.072410066433589215 surp_1
= 25.47858809574873

coupling_2: 
+0.0072208090700900049 a1_x2
+0.048811614772065255 a2_x2
+0.19431971060445227 a3_x2
+0.97390222438087271 a4_x2
+0.075231620999108711 short_2
-0.075231620999108711 surp_2
= 96.149449397707841

coupling_3: 
+0.0049405649608257243 a1_x3
+0.024613723530942072 a2_x3
+0.2304250690613294 a3_x3
+0.96590280947788387 a4_x3
+0.081565328487730085 short_3
-0.081565328487730085 surp_3
= 68.147706205413741

bounds
  0 <= a1_x1 <= 100
  0 <= a1_x2 <= 100
  0 <= a1_x3 <= 100
  0 <= a1_x4 <= 100
  0 <= a1_x5 <= 100
  0 <= a1_x6 <= 100
  0 <= a2_x1 <= 100
  0 <= a2_x2 <= 100
  0 <= a2_x3 <= 100
  0 <= a2_x4 <= 100
  0 <= a2_x5 <= 100
  0 <= a2_x6 <= 100
  0 <= a3_x1 <= 100
  0 <= a3_x2 <= 100
  0 <= a3_x3 <= 100
  0 <= a3_x4 <= 100
  0 <= a3_x5 <= 100
  0 <= a3_x6 <= 100
  0 <= a4_x1 <= 100
  0 <= a4_x2 <= 100
  0 <= a4_x3 <= 100
  0 <= a4_x4 <= 100
  0 <= a4_x5 <= 100
  0 <= a4_x6 <= 100
  0 <= short_1 <= +inf
  0 <= surp_1 <= +inf
  0 <= short_2 <= +inf
  0 <= surp_2 <= +inf
  0 <= short_3 <= +inf
  0 <= surp_3 <= +inf
 0 <= a1_z1 <= 1
 0 <= a1_z2 <= 1
 0 <= a2_z1 <= 1
 0 <= a2_z2 <= 1
 0 <= a3_z1 <= 1
 0 <= a3_z2 <= 1
 0 <= a4_z1 <= 1
 0 <= a4_z2 <= 1

binary
  a1_z1
  a1_z2
  a2_z1
  a2_z2
  a3_z1
  a3_z2
  a4_z1
  a4_z2
end
