min
obj: 
  +4.6820518769511636 a1_x1
  +5.7129162548306427 a1_x2
  +9.0056358908477314 a1_x3
  +9.0172471176233611 a1_x4
  +9.406385688684578 a1_x5
  +5.7753562095118767 a1_x6
  +36.440798325108226 a1_z1
  +20.355895911925103 a1_z2
  +9.8523773325997031 a2_x1
  +8.6665660995193221 a2_x2
  +1.318348960475541 a2_x3
  +8.2691943978607085 a2_x4
  +6.0635318483155114 a2_x5
  +3.2631581910354219 a2_x6
  +31.015799445658949 a2_z1
  +42.142738976131909 a2_z2
  +3.407000856972263 a3_x1
  +9.4188250932667614 a3_x2
  +9.7490010795163791 a3_x3
  +7.0450820339939781 a3_x4
  +9.9763761898407548 a3_x5
  +5.8473553548384958 a3_x6
  +49.073547744148975 a3_z1
  +13.999141819476126 a3_z2
  +1.9143138950663818 a4_x1
  +6.1042201720531999 a4_x2
  +2.2574896326389386 a4_x3
  +5.6594666769891386 a4_x4
  +4.3520497618016583 a4_x5
  +6.7823412192640848 a4_x6
  +29.956754589694771 a4_z1
  +32.972144993024642 a4_z2
  +1000000 short_1
  +1000000 surp_1
  +1000000 short_2
  +1000000 surp_2
  +1000000 short_3
  +1000000 surp_3

s.t.

a1_local_1: 
+0.71433844523206802 a1_x4
+0.58447109877792247 a1_x2
+0.38485597352355061 a1_x6
<= 73.86513702201799

a1_local_2: 
+0.70495917278386289 a1_x3
+0.31528735967011728 a1_x4
+0.63531602021367128 a1_x5
<= 69.546758313812376

a1_local_3: 
+0.41451117236781237 a1_x1
+0.72875843443075417 a1_x3
+0.54506112705667975 a1_x6
<= 87.912395772809731

a1_local_4: 
+0.46059081302182614 a1_x2
+0.40016831925090912 a1_x1
+0.79228872213846113 a1_x5
<= 79.077828965448631

a1_local_5: 
+0.39411578841246081 a1_x2
+0.64169752199966568 a1_x3
+0.65794911321736205 a1_x5
<= 72.133438358523549

a1_local_6: 
+0.66171173080293677 a1_x6
+0.46546895978685998 a1_x1
+0.58777226269425153 a1_x3
<= 89.471630655027909

a1_local_7: 
+0.67240197120697554 a1_x4
+0.54436733432785611 a1_x2
+0.50153743074047608 a1_x5
<= 90.482465396498796

a1_local_8: 
+0.62146601471376839 a1_x6
+0.60662518643990138 a1_x2
+0.49576796561752662 a1_x4
<= 107.83159953146193

a1_act_1: 
+0.0099995000374968768 a1_x1
-0.99995000374968757 a1_z1
<= 0

a1_act_2: 
+0.0099995000374968751 a1_x2
-0.99995000374968757 a1_z2
<= 0

a2_local_1: 
+0.44885746616390759 a2_x2
+0.61687916725815728 a2_x6
+0.64651919389280244 a2_x5
<= 56.772926322447439

a2_local_2: 
+0.4682361225787785 a2_x1
+0.54938211080138299 a2_x4
+0.69205074224641072 a2_x5
<= 118.71935989283287

a2_local_3: 
+0.77440698609889347 a2_x2
+0.5377854261600109 a2_x5
+0.33328764647241832 a2_x1
<= 103.86364945294805

a2_local_4: 
+0.414685421461433 a2_x6
+0.79588688361712912 a2_x4
+0.4411349790184047 a2_x5
<= 61.595230409636876

a2_local_5: 
+0.40401631066425486 a2_x5
+0.74862317746819773 a2_x3
+0.52567495553304 a2_x6
<= 86.736840247560025

a2_local_6: 
+0.65607633883902949 a2_x6
+0.45872831625651228 a2_x4
+0.59927637153490387 a2_x1
<= 90.216060324826756

a2_local_7: 
+0.56547167327310022 a2_x3
+0.5164528005730763 a2_x6
+0.64305387916250556 a2_x1
<= 80.627763816903993

a2_local_8: 
+0.56126493618842432 a2_x5
+0.56250289975453271 a2_x3
+0.60710144059551197 a2_x6
<= 120.39309652113236

a2_act_1: 
+0.0099995000374968768 a2_x1
-0.99995000374968757 a2_z1
<= 0

a2_act_2: 
+0.0099995000374968734 a2_x2
-0.99995000374968745 a2_z2
<= 0

a3_local_1: 
+0.68812236348274236 a3_x5
+0.46521836019664281 a3_x2
+0.5568298575066456 a3_x3
<= 66.223664011684193

a3_local_2: 
+0.66844458967972231 a3_x2
+0.4393223222342989 a3_x3
+0.60014808815372411 a3_x4
<= 86.581858359904516

a3_local_3: 
+0.2264143079956473 a3_x6
+0.46020959577534132 a3_x4
+0.39505049577176587 a3_x1
<= 74.220922876386823

a3_local_4: 
+0.63608518661876157 a3_x4
+0.71580316063459848 a3_x2
+0.28813446616067029 a3_x1
<= 80.742037538558165

a3_local_5: 
+0.31567127026281783 a3_x3
+0.61740789740806823 a3_x5
+0.72052698585743979 a3_x2
<= 81.793793350045235

a3_local_6: 
+0.63441264836813471 a3_x1
+0.57474358463614261 a3_x6
+0.51690463676593801 a3_x2
<= 78.331569061444341

a3_local_7: 
+0.54666872771579833 a3_x1
+0.72931960157448539 a3_x4
+0.4113954556103217 a3_x6
<= 57.594235780629887

a3_local_8: 
+0.74222403752031096 a3_x4
+0.35370848328944038 a3_x3
+0.56920452121898324 a3_x5
<= 105.84449907801232

a3_act_1: 
+0.0099995000374968734 a3_x1
-0.99995000374968734 a3_z1
<= 0

a3_act_2: 
+0.0099995000374968751 a3_x2
-0.99995000374968745 a3_z2
<= 0

a4_local_1: 
+0.65330116758955548 a4_x3
+0.49798456092255111 a4_x5
+0.57027095446717035 a4_x2
<= 109.99703619307682

a4_local_2: 
+0.76480237003958962 a4_x3
+0.35900619022984703 a4_x2
+0.53496905532794825 a4_x6
<= 56.991539039728153

a4_local_3: 
+0.38335425840995246 a4_x5
+0.5942148138736506 a4_x6
+0.70707019986141273 a4_x3
<= 98.662299008194353

a4_local_4: 
+0.57133602830775065 a4_x3
+0.53967723445066296 a4_x6
+0.61832323696688729 a4_x1
<= 117.54805813326776

a4_local_5: 
+0.67332326360099481 a4_x3
+0.69377176908360172 a4_x6
+0.25557095906286958 a4_x5
<= 83.856138928332882

a4_local_6: 
+0.49619066165061448 a4_x3
+0.51592854986444281 a4_x4
+0.69829260251380199 a4_x6
<= 100.26213658980785

a4_local_7: 
+0.5310837322285793 a4_x6
+0.47509502323482594 a4_x3
+0.70159446139465964 a4_x1
<= 115.54890986260021

a4_local_8: 
+0.33016800447811762 a4_x1
+0.75046547554304976 a4_x6
+0.57253005059724316 a4_x3
<= 87.543224718461673

a4_act_1: 
+0.019960517821429307 a4_x1
-1.9960517821429307 a4_z1
<= 0

a4_act_2: 
+0.0099995000374968751 a4_x2
-0.99995000374968768 a4_z2
<= 0

coupling_1: 
+0.00741178802162563 a1_x1
+0.022829467231751874 a2_x1
+0.10200732827607105 a3_x1
+0.98760492253758947 a4_x1
+0.082628393369762909 short_1
-0.082628393369762909 surp_1
= 56.51096738951459

coupling_2: 
+0.0086325303360214826 a1_x2
+0.019017896684870476 a2_x2
+0.091341031928170668 a3_x2
+0.99046321796550718 a4_x2
+0.071425586344777678 short_2
-0.071425586344777678 surp_2
= 26.402038790489048

coupling_3: 
+0.0061330046063538968 a1_x3
+0.047675842131175317 a2_x3
+0.10865540221461911 a3_x3
+0.98649616402971874 a4_x3
+0.079714246706004382 short_3
-0.079714246706004382 surp_3
= 69.087639850358684

bounds
  0 <= a1_x1 <= 100
  0 <= a1_x2 <= 100
  0 <= a1_x3 <= 100
  0 <= a1_x4 <= 100
  0 <= a1_x5 <= 100
  0 <= a1_x6 <= 100
  0 <= a2_x1 <= 100
  0 <= a2_x2 <= 100
  0 <= a2_x3 <= 100
  0 <= a2_x4 <= 100
  0 <= a2_x5 <= 100
  0 <= a2_x6 <= 100
  0 <= a3_x1 <= 100
  0 <= a3_x2 <= 100
  0 <= a3_x3 <= 100
  0 <= a3_x4 <= 100
  0 <= a3_x5 <= 100
  0 <= a3_x6 <= 100
  0 <= a4_x1 <= 100
  0 <= a4_x2 <= 100
  0 <= a4_x3 <= 100
  0 <= a4_x4 <= 100
  0 <= a4_x5 <= 100
  0 <= a4_x6 <= 100
  0 <= short_1 <= +inf
  0 <= surp_1 <= +inf
  0 <= short_2 <= +inf
  0 <= surp_2 <= +inf
  0 <= short_3 <= +inf
  0 <= surp_3 <= +inf
 0 <= a1_z1 <= 1
 0 <= a1_z2 <= 1
 0 <= a2_z1 <= 1
 0 <= a2_z2 <= 1
 0 <= a3_z1 <= 1
 0 <= a3_z2 <= 1
 0 <= a4_z1 <= 1
 0 <= a4_z2 <= 1

binary
  a1_z1
  a1_z2
  a2_z1
  a2_z2
  a3_z1
  a3_z2
  a4_z1
  a4_z2
end
