min
obj: 
  +1.5869078218103445 a1_x1
  +1.8591431952918778 a1_x2
  +3.3231109040519993 a1_x3
  +9.2087059181463786 a1_x4
  +9.6203246603591985 a1_x5
  +2.6522167369866532 a1_x6
  +45.971215901918207 a1_z1
  +15.231591264695247 a1_z2
  +7.3851642913844699 a2_x1
  +8.184615433312981 a2_x2
  +6.3286902635835114 a2_x3
  +1.720840343178456 a2_x4
  +2.5195780412124975 a2_x5
  +8.1969421632275719 a2_x6
  +32.909722818284479 a2_z1
  +29.006081337850453 a2_z2
  +9.6251817518945995 a3_x1
  +3.9009418953480735 a3_x2
  +1.3219510135661245 a3_x3
  +4.7485775019531236 a3_x4
  +3.5558983548633152 a3_x5
  +8.1243659823807501 a3_x6
  +20.822115549059351 a3_z1
  +25.222874624514855 a3_z2
  +3.9740281273618923 a4_x1
  +5.8725760658506196 a4_x2
  +8.5449306619724936 a4_x3
  +7.8945369096479574 a4_x4
  +2.7042977066829055 a4_x5
  +9.2622687133164359 a4_x6
  +13.310232891557296 a4_z1
  +27.542990425232677 a4_z2
  +1000000 short_1
  +1000000 surp_1
  +1000000 short_2
  +1000000 surp_2
  +1000000 short_3
  +1000000 surp_3

s.t.

a1_local_1: 
+0.53246830785528032 a1_x4
+0.69012198110526712 a1_x1
+0.4901113672677625 a1_x3
<= 75.931814365354413

a1_local_2: 
+0.69617846452001109 a1_x2
+0.47322524293868901 a1_x4
+0.53980868368726553 a1_x3
<= 115.09745279685555

a1_local_3: 
+0.39363520896456566 a1_x6
+0.78920363589640463 a1_x4
+0.47139043621112853 a1_x1
<= 71.439889216297018

a1_local_4: 
+0.63759636823170907 a1_x6
+0.5666554469122379 a1_x2
+0.52189316502750527 a1_x1
<= 67.621854702021153

a1_local_5: 
+0.40846880477800945 a1_x1
+0.59511297047828338 a1_x2
+0.69209377102509617 a1_x5
<= 88.502184901274092

a1_local_6: 
+0.42686743713977277 a1_x1
+0.67541372727482663 a1_x2
+0.60133226099923198 a1_x6
<= 61.782549730103106

a1_local_7: 
+0.33550665993360723 a1_x5
+0.71373623814206666 a1_x2
+0.61482994681700887 a1_x4
<= 110.23329386021827

a1_local_8: 
+0.63697201480423715 a1_x1
+0.44880667154185594 a1_x2
+0.62676887601072784 a1_x3
<= 107.30496701647057

a1_act_1: 
+0.0099995000374968768 a1_x1
-0.99995000374968757 a1_z1
<= 0

a1_act_2: 
+0.0099995000374968768 a1_x2
-0.99995000374968768 a1_z2
<= 0

a2_local_1: 
+0.31939001902648456 a2_x1
+0.8129004431689747 a2_x5
+0.48701425568657269 a2_x3
<= 86.681348237909589

a2_local_2: 
+0.31152223204326324 a2_x4
+0.73618456743677296 a2_x2
+0.60082125595780556 a2_x5
<= 75.440842778789474

a2_local_3: 
+0.6386154218141098 a2_x2
+0.56816630194893947 a2_x1
+0.51899652826474019 a2_x5
<= 57.358889792003382

a2_local_4: 
+0.63488124547400782 a2_x6
+0.43309552396088674 a2_x2
+0.63980783933179308 a2_x4
<= 79.787787456841087

a2_local_5: 
+0.38430315262398562 a2_x1
+0.69611865206745305 a2_x6
+0.60640737885274598 a2_x2
<= 79.963330176758035

a2_local_6: 
+0.57487758146634427 a2_x4
+0.60226727613655762 a2_x6
+0.55388617460851852 a2_x5
<= 90.770539510562045

a2_local_7: 
+0.55289946965362835 a2_x4
+0.38156738676092156 a2_x6
+0.74074861175514717 a2_x3
<= 103.06019168697216

a2_local_8: 
+0.67337856361790527 a2_x5
+0.58705384102281088 a2_x1
+0.44936521650017708 a2_x4
<= 111.38710584505171

a2_act_1: 
+0.0099995000374968768 a2_x1
-0.99995000374968757 a2_z1
<= 0

a2_act_2: 
+0.0099995000374968751 a2_x2
-0.99995000374968745 a2_z2
<= 0

a3_local_1: 
+0.61901247814665172 a3_x3
+0.71777423678678232 a3_x5
+0.31878471874274789 a3_x4
<= 57.360397372925952

a3_local_2: 
+0.5976449516254726 a3_x3
+0.6644609502547828 a3_x5
+0.44867823368545251 a3_x2
<= 87.120231492733438

a3_local_3: 
+0.46365429726410096 a3_x5
+0.59152824592302933 a3_x6
+0.65963552580478635 a3_x2
<= 86.025905751169987

a3_local_4: 
+0.7174798108035142 a3_x4
+0.62765459816003211 a3_x3
+0.30211326766284552 a3_x1
<= 71.929204771733993

a3_local_5: 
+0.71826790167457411 a3_x1
+0.61124667272427935 a3_x4
+0.33236835966665335 a3_x5
<= 95.346587516316575

a3_local_6: 
+0.39874655304907536 a3_x5
+0.72397073837245529 a3_x4
+0.56290990079401027 a3_x6
<= 68.173856952020842

a3_local_7: 
+0.64657871153568114 a3_x5
+0.49624509506998421 a3_x4
+0.57937619506486493 a3_x2
<= 104.55524219681379

a3_local_8: 
+0.7489385994264951 a3_x6
+0.3422312223846265 a3_x2
+0.56742291521774513 a3_x3
<= 90.49738292869084

a3_act_1: 
+0.0055031354937043996 a3_x1
-0.55031354937043997 a3_z1
<= 0

a3_act_2: 
+0.0099995000374968768 a3_x2
-0.99995000374968757 a3_z2
<= 0

a4_local_1: 
+0.53231102975291911 a4_x3
+0.44628892202161391 a4_x2
+0.719354686982835 a4_x4
<= 100.50105393825339

a4_local_2: 
+0.64808858862810526 a4_x5
+0.3280427308519947 a4_x4
+0.68729116684648017 a4_x1
<= 66.743244988416052

a4_local_3: 
+0.48683511536909591 a4_x3
+0.58943244357704683 a4_x2
+0.64464018250676147 a4_x6
<= 98.660894889932024

a4_local_4: 
+0.51997354613037339 a4_x1
+0.61544933228311527 a4_x6
+0.59232561207234002 a4_x5
<= 79.817992873673802

a4_local_5: 
+0.56662000448558147 a4_x1
+0.62763989475477278 a4_x2
+0.53386321565451356 a4_x6
<= 67.980090691553897

a4_local_6: 
+0.28357326232914637 a4_x6
+0.83305908349641034 a4_x3
+0.47497238687751736 a4_x5
<= 65.273324420121483

a4_local_7: 
+0.48611282887096735 a4_x1
+0.51038557666546014 a4_x4
+0.70936653483155754 a4_x5
<= 54.928813102811418

a4_local_8: 
+0.52642041201404344 a4_x5
+0.46379354365254516 a4_x1
+0.71258480104558741 a4_x6
<= 97.158698272168834

a4_act_1: 
+0.0099995000374968751 a4_x1
-0.99995000374968745 a4_z1
<= 0

a4_act_2: 
+0.0099995000374968751 a4_x2
-0.99995000374968757 a4_z2
<= 0

coupling_1: 
+0.010298989913213338 a1_x1
+0.032368948340112516 a2_x1
+0.10825648259669425 a3_x1
+0.98858493591554708 a4_x1
+0.070094723220681346 short_1
-0.070094723220681346 surp_1
= 67.730214184076317

coupling_2: 
+0.012251900097095481 a1_x2
+0.027696921403999757 a2_x2
+0.32000759548621027 a3_x2
+0.93444765661718887 a4_x2
+0.10836394087179052 short_2
-0.10836394087179052 surp_2
= 100.61427564454894

coupling_3: 
+0.0073245544154903882 a1_x3
+0.030153217725247247 a2_x3
+0.28641203701550821 a3_x3
+0.94461559515035731 a4_x3
+0.11114552805846925 short_3
-0.11114552805846925 surp_3
= 64.668294870653568

bounds
  0 <= a1_x1 <= 100
  0 <= a1_x2 <= 100
  0 <= a1_x3 <= 100
  0 <= a1_x4 <= 100
  0 <= a1_x5 <= 100
  0 <= a1_x6 <= 100
  0 <= a2_x1 <= 100
  0 <= a2_x2 <= 100
  0 <= a2_x3 <= 100
  0 <= a2_x4 <= 100
  0 <= a2_x5 <= 100
  0 <= a2_x6 <= 100
  0 <= a3_x1 <= 100
  0 <= a3_x2 <= 100
  0 <= a3_x3 <= 100
  0 <= a3_x4 <= 100
  0 <= a3_x5 <= 100
  0 <= a3_x6 <= 100
  0 <= a4_x1 <= 100
  0 <= a4_x2 <= 100
  0 <= a4_x3 <= 100
  0 <= a4_x4 <= 100
  0 <= a4_x5 <= 100
  0 <= a4_x6 <= 100
  0 <= short_1 <= +inf
  0 <= surp_1 <= +inf
  0 <= short_2 <= +inf
  0 <= surp_2 <= +inf
  0 <= short_3 <= +inf
  0 <= surp_3 <= +inf
 0 <= a1_z1 <= 1
 0 <= a1_z2 <= 1
 0 <= a2_z1 <= 1
 0 <= a2_z2 <= 1
 0 <= a3_z1 <= 1
 0 <= a3_z2 <= 1
 0 <= a4_z1 <= 1
 0 <= a4_z2 <= 1

binary
  a1_z1
  a1_z2
  a2_z1
  a2_z2
  a3_z1
  a3_z2
  a4_z1
  a4_z2
end
