min
obj: 
  +4.6820518769511636 a1_x1
  +5.7129162548306427 a1_x2
  +9.0056358908477314 a1_x3
  +9.0172471176233611 a1_x4
  +9.406385688684578 a1_x5
  +5.7753562095118767 a1_x6
  +36.440798325108226 a1_z1
  +20.355895911925103 a1_z2
  +9.8523773325997031 a2_x1
  +8.6665660995193221 a2_x2
  +1.318348960475541 a2_x3
  +8.2691943978607085 a2_x4
  +6.0635318483155114 a2_x5
  +3.2631581910354219 a2_x6
  +31.015799445658949 a2_z1
  +42.142738976131909 a2_z2
  +3.407000856972263 a3_x1
  +9.4188250932667614 a3_x2
  +9.7490010795163791 a3_x3
  +7.0450820339939781 a3_x4
  +9.9763761898407548 a3_x5
  +5.8473553548384958 a3_x6
  +49.073547744148975 a3_z1
  +13.999141819476126 a3_z2
  +1.9143138950663818 a4_x1
  +6.1042201720531999 a4_x2
  +2.2574896326389386 a4_x3
  +5.6594666769891386 a4_x4
  +4.3520497618016583 a4_x5
  +6.7823412192640848 a4_x6
  +29.956754589694771 a4_z1
  +32.972144993024642 a4_z2
  +1000000 short_1
  +1000000 surp_1
  +1000000 short_2
  +1000000 surp_2
  +1000000 short_3
  +1000000 surp_3

s.t.

a1_local_1: 
+1.3623945454214452 a1_x4
+1.1147100401026737 a1_x2
+0.7340017642911647 a1_x6
<= 140.87644371837223

a1_local_2: 
+1.4953012733070599 a1_x3
+0.66876155183655095 a1_x4
+1.3475799601647833 a1_x5
<= 147.51684959336771

a1_local_3: 
+0.75418227837105534 a1_x1
+1.3259394030842011 a1_x3
+0.99171137006251386 a1_x6
<= 159.95219275335523

a1_local_4: 
+0.81799788854876521 a1_x2
+0.71068903451150744 a1_x1
+1.407085168673456 a1_x5
<= 140.44026779512012

a1_local_5: 
+0.77395509511110938 a1_x2
+1.2601501418462635 a1_x3
+1.2920646253468222 a1_x5
<= 141.6539092999638

a1_local_6: 
+1.1923096376581668 a1_x6
+0.83870830899607163 a1_x1
+1.059081320363066 a1_x3
<= 161.21504661483962

a1_local_7: 
+1.1578780300237648 a1_x4
+0.93740203579326942 a1_x2
+0.86364882489347827 a1_x5
<= 155.81105242290019

a1_local_8: 
+1.1196169416042347 a1_x6
+1.0928800929762152 a1_x2
+0.89316261914289863 a1_x4
<= 194.26659353418268

a1_act_1: 
+0.099999999999999992 a1_x1
-10 a1_z1
<= 0

a1_act_2: 
+0.099999999999999992 a1_x2
-10 a1_z2
<= 0

a2_local_1: 
+0.8332273471304853 a2_x2
+1.145130984290861 a2_x6
+1.2001526395453241 a2_x5
<= 105.38925684531954

a2_local_2: 
+1.5964950890497744 a2_x1
+1.873169966203625 a2_x4
+2.3596120805134149 a2_x5
<= 404.78482095783221

a2_local_3: 
+1.5243160512059697 a2_x2
+1.0585583187077072 a2_x5
+0.65603192934224208 a2_x1
<= 204.44163190663792

a2_local_4: 
+0.72182797607453397 a2_x6
+1.3853716302854164 a2_x4
+0.76786776819486391 a2_x5
<= 107.21659889981881

a2_local_5: 
+0.73462857105759261 a2_x5
+1.3612321102082527 a2_x3
+0.95584220545224485 a2_x6
<= 157.71482320689694

a2_local_6: 
+1.1959125218165827 a2_x6
+0.83618156157526224 a2_x4
+1.0923761067433324 a2_x1
<= 164.44811346548474

a2_local_7: 
+0.98123234262351178 a2_x3
+0.89617254994848872 a2_x6
+1.1158565390755149 a2_x1
<= 139.90898803581049

a2_local_8: 
+1.5776932235562073 a2_x5
+1.5811730894864087 a2_x3
+1.706537798964155 a2_x6
<= 338.42016541110337

a2_act_1: 
+0.10000000000000001 a2_x1
-10 a2_z1
<= 0

a2_act_2: 
+0.10000000000000001 a2_x2
-10.000000000000002 a2_z2
<= 0

a3_local_1: 
+1.2161983589985279 a3_x5
+0.82223429476047383 a3_x2
+0.98414990542296288 a3_x3
<= 117.04475217204607

a3_local_2: 
+1.2335054451200038 a3_x2
+0.81069767787098257 a3_x3
+1.1074753929427097 a3_x4
<= 159.77269527564397

a3_local_3: 
+0.70141346562245221 a3_x6
+1.4256926178521174 a3_x4
+1.2238349236324286 a3_x1
<= 229.9304986389113

a3_local_4: 
+1.4006217636003988 a3_x4
+1.5761560028903205 a3_x2
+0.63445496395421641 a3_x1
<= 177.78916628304535

a3_local_5: 
+0.66190003401050868 a3_x3
+1.2945818856195492 a3_x5
+1.5108021583575311 a3_x2
<= 171.50535921488452

a3_local_6: 
+1.1078493380353669 a3_x1
+1.0036516475783526 a3_x6
+0.90264981497698571 a3_x2
<= 136.78727426890234

a3_local_7: 
+0.99801149312313975 a3_x1
+1.3314632932684043 a3_x4
+0.7510533749265097 a3_x6
<= 105.14541317716476

a3_local_8: 
+1.4485876210779116 a3_x4
+0.69032758905939562 a3_x3
+1.1109080029988045 a3_x5
<= 206.57513550200176

a3_act_1: 
+0.099999999999999992 a3_x1
-10 a3_z1
<= 0

a3_act_2: 
+0.10000000000000001 a3_x2
-10 a3_z2
<= 0

a4_local_1: 
+1.1453778440132707 a4_x3
+0.87307433544909185 a4_x5
+0.99980797331340965 a4_x2
<= 192.84852746785486

a4_local_2: 
+1.4595656838598428 a4_x3
+0.68513531871719913 a4_x2
+1.0209467251561628 a4_x6
<= 108.76390805174914

a4_local_3: 
+0.73632386902872882 a4_x5
+1.1413321782322305 a4_x6
+1.3580980354732786 a4_x3
<= 189.50462695863703

a4_local_4: 
+0.98904665465250396 a4_x3
+0.93424173670005251 a4_x6
+1.0703867754102059 a4_x1
<= 203.48885401461627

a4_local_5: 
+1.5990408426952309 a4_x3
+1.6476029483083565 a4_x6
+0.60694234677519254 a4_x5
<= 199.14563821842032

a4_local_6: 
+0.84295729347153858 a4_x3
+0.87648915554291318 a4_x4
+1.1862997185559838 a4_x6
<= 170.33109614813623

a4_local_7: 
+0.91987683469109605 a4_x6
+0.82290019375446899 a4_x3
+1.2152141992305481 a4_x1
<= 200.1393735228699

a4_local_8: 
+0.66328798980764092 a4_x1
+1.5076407463521364 a4_x6
+1.1501790034602855 a4_x3
<= 175.86915981325942

a4_act_1: 
+0.10000000000000001 a4_x1
-10.000000000000002 a4_z1
<= 0

a4_act_2: 
+0.099999999999999978 a4_x2
-9.9999999999999982 a4_z2
<= 0

coupling_1: 
+0.086630310700062524 a1_x1
+0.26683491670742443 a2_x1
+1.1922799891814908 a3_x1
+11.543303861188601 a4_x1
+0.96577551454305544 short_1
-0.96577551454305544 surp_1
= 660.51034495735689

coupling_2: 
+0.065055828534624105 a1_x2
+0.14332124854024389 a2_x2
+0.68835744329782911 a3_x2
+7.4642547167129596 a4_x2
+0.53827215397569872 short_2
-0.53827215397569872 surp_2
= 198.96906719822221

coupling_3: 
+0.078847684677703825 a1_x3
+0.61293444378117312 a2_x3
+1.3969053412207741 a3_x3
+12.682680589640388 a4_x3
+1.0248294583186948 short_3
-1.0248294583186948 surp_3
= 888.21072079486896

bounds
  0 <= a1_x1 <= 100
  0 <= a1_x2 <= 100
  0 <= a1_x3 <= 100
  0 <= a1_x4 <= 100
  0 <= a1_x5 <= 100
  0 <= a1_x6 <= 100
  0 <= a2_x1 <= 100
  0 <= a2_x2 <= 100
  0 <= a2_x3 <= 100
  0 <= a2_x4 <= 100
  0 <= a2_x5 <= 100
  0 <= a2_x6 <= 100
  0 <= a3_x1 <= 100
  0 <= a3_x2 <= 100
  0 <= a3_x3 <= 100
  0 <= a3_x4 <= 100
  0 <= a3_x5 <= 100
  0 <= a3_x6 <= 100
  0 <= a4_x1 <= 100
  0 <= a4_x2 <= 100
  0 <= a4_x3 <= 100
  0 <= a4_x4 <= 100
  0 <= a4_x5 <= 100
  0 <= a4_x6 <= 100
  0 <= short_1 <= +inf
  0 <= surp_1 <= +inf
  0 <= short_2 <= +inf
  0 <= surp_2 <= +inf
  0 <= short_3 <= +inf
  0 <= surp_3 <= +inf
 0 <= a1_z1 <= 1
 0 <= a1_z2 <= 1
 0 <= a2_z1 <= 1
 0 <= a2_z2 <= 1
 0 <= a3_z1 <= 1
 0 <= a3_z2 <= 1
 0 <= a4_z1 <= 1
 0 <= a4_z2 <= 1

binary
  a1_z1
  a1_z2
  a2_z1
  a2_z2
  a3_z1
  a3_z2
  a4_z1
  a4_z2
end
