min
obj: 
  +1.5869078218103445 a1_x1
  +1.8591431952918778 a1_x2
  +3.3231109040519993 a1_x3
  +9.2087059181463786 a1_x4
  +9.6203246603591985 a1_x5
  +2.6522167369866532 a1_x6
  +45.971215901918207 a1_z1
  +15.231591264695247 a1_z2
  +7.3851642913844699 a2_x1
  +8.184615433312981 a2_x2
  +6.3286902635835114 a2_x3
  +1.720840343178456 a2_x4
  +2.5195780412124975 a2_x5
  +8.1969421632275719 a2_x6
  +32.909722818284479 a2_z1
  +29.006081337850453 a2_z2
  +9.6251817518945995 a3_x1
  +3.9009418953480735 a3_x2
  +1.3219510135661245 a3_x3
  +4.7485775019531236 a3_x4
  +3.5558983548633152 a3_x5
  +8.1243659823807501 a3_x6
  +20.822115549059351 a3_z1
  +25.222874624514855 a3_z2
  +3.9740281273618923 a4_x1
  +5.8725760658506196 a4_x2
  +8.5449306619724936 a4_x3
  +7.8945369096479574 a4_x4
  +2.7042977066829055 a4_x5
  +9.2622687133164359 a4_x6
  +13.310232891557296 a4_z1
  +27.542990425232677 a4_z2
  +1000000 short_1
  +1000000 surp_1
  +1000000 short_2
  +1000000 surp_2
  +1000000 short_3
  +1000000 surp_3

s.t.

a1_local_1: 
+0.00049415753771742035 a1_x4
+0.0006404681252885669 a1_x1
+0.00045484815318282053 a1_x3
<= 0.070468566612602923

a1_local_2: 
+9.2429768641700303 a1_x2
+6.2828860628994896 a1_x4
+7.1668967494412579 a1_x3
<= 1528.1183597940189

a1_local_3: 
+0.00017514583968055797 a1_x6
+0.0003511518541535444 a1_x4
+0.0002097426040337126 a1_x1
<= 0.031786789135015418

a1_local_4: 
+0.0022862101089172874 a1_x6
+0.002031839382330054 a1_x2
+0.0018713366153100717 a1_x1
<= 0.24246964930533346

a1_local_5: 
+0.011647055162815126 a1_x1
+0.016969015783308831 a1_x2
+0.019734320551971819 a1_x5
<= 2.5235460273031296

a1_local_6: 
+0.00022335188253172264 a1_x1
+0.00035339994187751626 a1_x2
+0.00031463794338863527 a1_x6
<= 0.032326777798489928

a1_local_7: 
+0.00015200434972812671 a1_x5
+0.00032336470691119308 a1_x2
+0.0002785543103012982 a1_x4
<= 0.049942198330512368

a1_local_8: 
+0.0015256550584030993 a1_x1
+0.0010749674283466433 a1_x2
+0.0015012168257176486 a1_x3
<= 0.25701343530888049

a1_act_1: 
+8.9514992083703593 a1_x1
-895.14992083703589 a1_z1
<= 0

a1_act_2: 
+21.19826434477331 a1_x2
-2119.8264344773311 a1_z2
<= 0

a2_local_1: 
+1.150781997065508 a2_x1
+2.9289305854227643 a2_x5
+1.7547424915363197 a2_x3
<= 312.3182600934087

a2_local_2: 
+1.2840123466894213 a2_x4
+3.0343583115434001 a2_x2
+2.4764265001033032 a2_x5
<= 310.94722497740895

a2_local_3: 
+0.12187590824645984 a2_x2
+0.10843111788367622 a2_x1
+0.099047362619809412 a2_x5
<= 10.946598767613025

a2_local_4: 
+0.039614791804344462 a2_x6
+0.027023934216696622 a2_x2
+0.039922197309503166 a2_x4
<= 4.9785319871469556

a2_local_5: 
+0.0050038756482498033 a2_x1
+0.0090639151606985852 a2_x6
+0.0078958163502998602 a2_x2
<= 1.041174286217565

a2_local_6: 
+2.7463529012891588 a2_x4
+2.8772012242157472 a2_x6
+2.6460710100053082 a2_x5
<= 433.6365559786725

a2_local_7: 
+2.0969452751089417 a2_x4
+1.4471454083781825 a2_x6
+2.8093883006191995 a2_x3
<= 390.86957733058455

a2_local_8: 
+0.00094763747833417813 a2_x5
+0.00082615374413510276 a2_x1
+0.00063238621426765708 a2_x4
<= 0.15675372191063949

a2_act_1: 
+0.65264814334906707 a2_x1
-65.264814334906703 a2_z1
<= 0

a2_act_2: 
+20.898288642579875 a2_x2
-2089.8288642579873 a2_z2
<= 0

a3_local_1: 
+0.078754446999101127 a3_x3
+0.091319504992196224 a3_x5
+0.040557686836163009 a3_x4
<= 7.2977307150232473

a3_local_2: 
+270.23218615121925 a3_x3
+300.44382490156289 a3_x5
+202.87513453852407 a3_x2
<= 39392.436178454001

a3_local_3: 
+46.369410264272126 a3_x5
+59.157902946139508 a3_x6
+65.969215644966766 a3_x2
<= 8603.3291197114922

a3_local_4: 
+0.28341109460645542 a3_x4
+0.24792931316087474 a3_x3
+0.11933750691544996 a3_x1
<= 28.412694478049502

a3_local_5: 
+0.034131182886426664 a3_x1
+0.029045669348209822 a3_x4
+0.015793724379157721 a3_x5
<= 4.5307493325665966

a3_local_6: 
+0.0050417926658717716 a3_x5
+0.0091539609085543178 a3_x4
+0.0071174910169582179 a3_x6
<= 0.86199729967969685

a3_local_7: 
+63.741534399169012 a3_x5
+48.921226810413984 a3_x4
+57.116522720140253 a3_x2
<= 10307.347656517881

a3_local_8: 
+97.550366891907643 a3_x6
+44.576125908119806 a3_x2
+73.907678953592793 a3_x3
<= 11787.418773997484

a3_act_1: 
+0.0055031354937043996 a3_x1
-0.55031354937043997 a3_z1
<= 0

a3_act_2: 
+357.96792309383454 a3_x2
-35796.792309383454 a3_z2
<= 0

a4_local_1: 
+0.032759595817054066 a4_x3
+0.027465605418401828 a4_x2
+0.044270675371125709 a4_x4
<= 6.1850567096709241

a4_local_2: 
+18.795722809870401 a4_x5
+9.5138231826284407 a4_x4
+19.932667367380059 a4_x1
<= 1935.6729222606427

a4_local_3: 
+4.4924375032635755 a4_x3
+5.439189433075784 a4_x2
+5.9486377226680398 a4_x6
<= 910.42714528314445

a4_local_4: 
+1747.4938574043465 a4_x1
+2068.3627767453595 a4_x6
+1990.6500559167987 a4_x5
<= 268247.20852648257

a4_local_5: 
+4.2012257417325518 a4_x1
+4.653660057018266 a4_x2
+3.9583492753809622 a4_x6
<= 504.04098810093666

a4_local_6: 
+11.538416155273055 a4_x6
+33.896645644098093 a4_x3
+19.326325116276159 a4_x5
<= 2655.9301635544157

a4_local_7: 
+1.2326789977579538 a4_x1
+1.2942295363307363 a4_x4
+1.7988030293915598 a4_x5
<= 139.28781604235385

a4_local_8: 
+0.029222802585820138 a4_x5
+0.025746241706096146 a4_x1
+0.039557214141718353 a4_x6
<= 5.393501836754595

a4_act_1: 
+182.44207332917603 a4_x1
-18244.207332917602 a4_z1
<= 0

a4_act_2: 
+91.098046211945132 a4_x2
-9109.8046211945129 a4_z2
<= 0

coupling_1: 
+0.14206713219505818 a1_x1
+0.44650627892643485 a2_x1
+1.4933200395025956 a3_x1
+13.636815645053627 a4_x1
+0.9669061135007514 short_1
-0.9669061135007514 surp_1
= 934.2894180082352

coupling_2: 
+9.5063749748486259 a1_x2
+21.490325453906664 a2_x2
+248.29717622434541 a3_x2
+725.0475230595049 a4_x2
+84.080693403938184 short_2
-84.080693403938184 surp_2
= 78067.648652033211

coupling_3: 
+0.0001187670968536563 a1_x3
+0.00048893214888950476 a2_x3
+0.0046441495565019194 a3_x3
+0.01531687055821886 a4_x3
+0.0018022163461375836 short_3
-0.0018022163461375836 surp_3
= 1.0485915189626591

bounds
  0 <= a1_x1 <= 100
  0 <= a1_x2 <= 100
  0 <= a1_x3 <= 100
  0 <= a1_x4 <= 100
  0 <= a1_x5 <= 100
  0 <= a1_x6 <= 100
  0 <= a2_x1 <= 100
  0 <= a2_x2 <= 100
  0 <= a2_x3 <= 100
  0 <= a2_x4 <= 100
  0 <= a2_x5 <= 100
  0 <= a2_x6 <= 100
  0 <= a3_x1 <= 100
  0 <= a3_x2 <= 100
  0 <= a3_x3 <= 100
  0 <= a3_x4 <= 100
  0 <= a3_x5 <= 100
  0 <= a3_x6 <= 100
  0 <= a4_x1 <= 100
  0 <= a4_x2 <= 100
  0 <= a4_x3 <= 100
  0 <= a4_x4 <= 100
  0 <= a4_x5 <= 100
  0 <= a4_x6 <= 100
  0 <= short_1 <= +inf
  0 <= surp_1 <= +inf
  0 <= short_2 <= +inf
  0 <= surp_2 <= +inf
  0 <= short_3 <= +inf
  0 <= surp_3 <= +inf
 0 <= a1_z1 <= 1
 0 <= a1_z2 <= 1
 0 <= a2_z1 <= 1
 0 <= a2_z2 <= 1
 0 <= a3_z1 <= 1
 0 <= a3_z2 <= 1
 0 <= a4_z1 <= 1
 0 <= a4_z2 <= 1

binary
  a1_z1
  a1_z2
  a2_z1
  a2_z2
  a3_z1
  a3_z2
  a4_z1
  a4_z2
end
