min
obj: 
  +8.05560131874530505 a1_x1
  +1.97423451738110156 a1_x2
  +4.43855917145081946 a1_x3
  +2.09177435273224699 a1_x4
  +8.36067334918018190 a1_x5
  +3.13328512039077767 a1_x6
  +12.32473257168471292 a1_z1
  +43.38047102379790942 a1_z2
  +7.63381403352449350 a2_x1
  +9.96116936913966633 a2_x2
  +9.94077753687388643 a2_x3
  +8.29981383037531018 a2_x4
  +5.15933962158974069 a2_x5
  +2.23730116212215036 a2_x6
  +36.51341922859109701 a2_z1
  +11.46217618633665936 a2_z2
  +8.77356431574039775 a3_x1
  +3.66477499322525757 a3_x2
  +8.98940674965133013 a3_x3
  +1.83133745097963319 a3_x4
  +5.96614000496332153 a3_x5
  +2.35435503869091178 a3_x6
  +18.83602233642604062 a3_z1
  +16.87083221217522322 a3_z2
  +7.85154573325681415 a4_x1
  +9.06414056673653157 a4_x2
  +3.88034584638911362 a4_x3
  +5.56052955494331336 a4_x4
  +7.24881590451171665 a4_x5
  +9.98170521647477038 a4_x6
  +15.56555023854576802 a4_z1
  +24.43179263140065771 a4_z2
  +1000000.00000000000000000 short_1
  +1000000.00000000000000000 surp_1
  +1000000.00000000000000000 short_2
  +1000000.00000000000000000 surp_2
  +1000000.00000000000000000 short_3
  +1000000.00000000000000000 surp_3

s.t.

a1_local_1: 
+0.82684252230862620 a1_x2
+0.34805731688325592 a1_x5
+0.44180034796991469 a1_x3
<= 77.689574

a1_local_2: 
+0.35342997224112588 a1_x6
+0.70503338605983579 a1_x4
+0.61482939036991358 a1_x2
<= 71.614084

a1_local_3: 
+0.56329307536713580 a1_x5
+0.75496941283132801 a1_x3
+0.33574111593987760 a1_x4
<= 76.060673

a1_local_4: 
+0.25704487800282011 a1_x6
+0.62208374941506395 a1_x1
+0.73955374341978108 a1_x4
<= 50.619998

a1_local_5: 
+0.66132755977059876 a1_x3
+0.59953350854442045 a1_x4
+0.45078313058529856 a1_x1
<= 54.058611

a1_local_6: 
+0.52003746285469832 a1_x3
+0.73220895507550321 a1_x5
+0.43980800735649184 a1_x1
<= 70.254115

a1_local_7: 
+0.43960012288379796 a1_x3
+0.83274332654840511 a1_x6
+0.33658622082557976 a1_x5
<= 95.961198

a1_local_8: 
+0.54480491510754214 a1_x5
+0.74178972751619221 a1_x6
+0.39106982065369966 a1_x2
<= 111.642470

a1_act_1: 
+0.00999950003749688 a1_x1
-0.99995000374968757 a1_z1
<= 0.000000

a1_act_2: 
+0.00999950003749688 a1_x2
-0.99995000374968757 a1_z2
<= 0.000000

a2_local_1: 
+0.45562339277008845 a2_x1
+0.58178728249050982 a2_x6
+0.67374392902124280 a2_x5
<= 52.823018

a2_local_2: 
+0.68873407384713292 a2_x2
+0.29188467696508608 a2_x4
+0.66366310043192778 a2_x3
<= 110.501151

a2_local_3: 
+0.28454541512070847 a2_x6
+0.31264525051260073 a2_x3
+0.27411163995934945 a2_x1
<= 52.632756

a2_local_4: 
+0.57589813655081079 a2_x4
+0.59859810420494186 a2_x3
+0.55679587458920099 a2_x1
<= 69.059819

a2_local_5: 
+0.65649870962920376 a2_x3
+0.52029951175570555 a2_x5
+0.54616651519656978 a2_x2
<= 78.911117

a2_local_6: 
+0.47042021393129008 a2_x6
+0.37406126861985134 a2_x4
+0.79923900658272840 a2_x1
<= 74.855258

a2_local_7: 
+0.49176600284360283 a2_x2
+0.70486445308604195 a2_x1
+0.51120671085475844 a2_x6
<= 97.130947

a2_local_8: 
+0.69921610833717429 a2_x3
+0.57637497488331135 a2_x4
+0.42295238759236126 a2_x6
<= 89.288033

a2_act_1: 
+0.00999950003749688 a2_x1
-0.99995000374968757 a2_z1
<= 0.000000

a2_act_2: 
+0.00999950003749688 a2_x2
-0.99995000374968757 a2_z2
<= 0.000000

a3_local_1: 
+0.68816001460848675 a3_x5
+0.46912941007957132 a3_x6
+0.55349199713495456 a3_x2
<= 95.934760

a3_local_2: 
+0.58576699140919630 a3_x4
+0.48317253284092332 a3_x6
+0.65070833349781620 a3_x1
<= 78.767796

a3_local_3: 
+0.40239967522825526 a3_x4
+0.37747303691564871 a3_x5
+0.83401954879839113 a3_x3
<= 49.767477

a3_local_4: 
+0.54277401064600550 a3_x2
+0.36359553955544233 a3_x3
+0.75709620061299765 a3_x6
<= 72.586474

a3_local_5: 
+0.56358144281403866 a3_x5
+0.64724271114423704 a3_x3
+0.51327656305962799 a3_x2
<= 59.938134

a3_local_6: 
+0.60480419389621753 a3_x1
+0.57771969318054484 a3_x5
+0.54813487679304207 a3_x3
<= 119.058997

a3_local_7: 
+0.55812865310006621 a3_x5
+0.63063249943685717 a3_x6
+0.53925416757103339 a3_x3
<= 87.991085

a3_local_8: 
+0.47692833798501411 a3_x5
+0.65190577343271527 a3_x6
+0.58954068815642013 a3_x3
<= 71.208722

a3_act_1: 
+0.00999950003749688 a3_x1
-0.99995000374968757 a3_z1
<= 0.000000

a3_act_2: 
+0.00999950003749688 a3_x2
-0.99995000374968757 a3_z2
<= 0.000000

a4_local_1: 
+0.71088459366334733 a4_x2
+0.39333668136554473 a4_x5
+0.58303460410548302 a4_x4
<= 105.200473

a4_local_2: 
+0.47967704984781373 a4_x4
+0.60652055161723284 a4_x1
+0.63406840980703782 a4_x3
<= 71.246545

a4_local_3: 
+0.67272192480994697 a4_x3
+0.45027288505169366 a4_x1
+0.58711118271348262 a4_x6
<= 59.457525

a4_local_4: 
+0.64096503476504874 a4_x2
+0.36961512573331823 a4_x3
+0.67271723854661492 a4_x5
<= 61.211556

a4_local_5: 
+0.76398797020930265 a4_x4
+0.39035070705866642 a4_x5
+0.51375938616658734 a4_x6
<= 96.798127

a4_local_6: 
+0.31762419475138542 a4_x2
+0.88975648050018075 a4_x4
+0.32779303884686944 a4_x3
<= 87.540794

a4_local_7: 
+0.66311961361760707 a4_x2
+0.48492521873993272 a4_x6
+0.57019287111087569 a4_x1
<= 71.316461

a4_local_8: 
+0.59403263685526286 a4_x5
+0.63456311659147180 a4_x4
+0.49442378321891167 a4_x2
<= 60.664487

a4_act_1: 
+0.00999950003749688 a4_x1
-0.99995000374968757 a4_z1
<= 0.000000

a4_act_2: 
+0.00999950003749688 a4_x2
-0.99995000374968757 a4_z2
<= 0.000000

coupling_1: 
+0.00018224806323255 a1_x1
+0.00705390729911182 a2_x1
+0.13231526575959693 a3_x1
+1.86689212545905692 a4_x1
+0.02351835457339103 short_1
-0.02351835457339103 surp_1
= 137.353178

coupling_2: 
+0.00031447354709213 a1_x2
+0.00350805009715149 a2_x2
+0.14391206354111769 a3_x2
+1.88068618176865088 a4_x2
+0.02351835457339103 short_2
-0.02351835457339103 surp_2
= 159.115454

coupling_3: 
+0.00006900627868677 a1_x3
+0.00107244632916276 a2_x3
+0.03280913353884282 a3_x3
+0.99941438126643445 a4_x3
+0.00683009411594094 short_3
-0.00683009411594094 surp_3
= 63.371155

bounds
  0.000000 <= a1_x1 <= 100.000000
  0.000000 <= a1_x2 <= 100.000000
  0.000000 <= a1_x3 <= 100.000000
  0.000000 <= a1_x4 <= 100.000000
  0.000000 <= a1_x5 <= 100.000000
  0.000000 <= a1_x6 <= 100.000000
  0.000000 <= a2_x1 <= 100.000000
  0.000000 <= a2_x2 <= 100.000000
  0.000000 <= a2_x3 <= 100.000000
  0.000000 <= a2_x4 <= 100.000000
  0.000000 <= a2_x5 <= 100.000000
  0.000000 <= a2_x6 <= 100.000000
  0.000000 <= a3_x1 <= 100.000000
  0.000000 <= a3_x2 <= 100.000000
  0.000000 <= a3_x3 <= 100.000000
  0.000000 <= a3_x4 <= 100.000000
  0.000000 <= a3_x5 <= 100.000000
  0.000000 <= a3_x6 <= 100.000000
  0.000000 <= a4_x1 <= 100.000000
  0.000000 <= a4_x2 <= 100.000000
  0.000000 <= a4_x3 <= 100.000000
  0.000000 <= a4_x4 <= 100.000000
  0.000000 <= a4_x5 <= 100.000000
  0.000000 <= a4_x6 <= 100.000000
  0.000000 <= short_1 <= +inf
  0.000000 <= surp_1 <= +inf
  0.000000 <= short_2 <= +inf
  0.000000 <= surp_2 <= +inf
  0.000000 <= short_3 <= +inf
  0.000000 <= surp_3 <= +inf
 0 <= a1_z1 <= 1
 0 <= a1_z2 <= 1
 0 <= a2_z1 <= 1
 0 <= a2_z2 <= 1
 0 <= a3_z1 <= 1
 0 <= a3_z2 <= 1
 0 <= a4_z1 <= 1
 0 <= a4_z2 <= 1

binary
  a1_z1
  a1_z2
  a2_z1
  a2_z2
  a3_z1
  a3_z2
  a4_z1
  a4_z2
end
