min
obj: 
  +1.96797315584533505 a1_x1
  +5.12450639908132288 a1_x2
  +5.32896604620880687 a1_x3
  +7.73264361972508052 a1_x4
  +5.13954220661915251 a1_x5
  +1.49202607385126407 a1_x6
  +49.87266735161764331 a1_z1
  +13.86958179616855702 a1_z2
  +7.53413172178710777 a2_x1
  +3.45719216892709458 a2_x2
  +4.76571137466424233 a2_x3
  +9.38617884989886875 a2_x4
  +1.72886855476886026 a2_x5
  +5.90816082155518885 a2_x6
  +23.53717041290824596 a2_z1
  +38.77106799595807018 a2_z2
  +4.90875225577424779 a3_x1
  +9.92442060145863181 a3_x2
  +6.78612387718403109 a3_x3
  +8.67367115140907785 a3_x4
  +9.64439582433125331 a3_x5
  +8.97688831165856627 a3_x6
  +12.68276888992290807 a3_z1
  +43.15224448184653028 a3_z2
  +4.12769081519996917 a4_x1
  +7.02237149328651711 a4_x2
  +1.06108582988083655 a4_x3
  +7.09274128796206593 a4_x4
  +7.93550517031278613 a4_x5
  +7.59713078328193436 a4_x6
  +17.37310151636162914 a4_z1
  +10.31092367888116890 a4_z2
  +1000000.00000000000000000 short_1
  +1000000.00000000000000000 surp_1
  +1000000.00000000000000000 short_2
  +1000000.00000000000000000 surp_2
  +1000000.00000000000000000 short_3
  +1000000.00000000000000000 surp_3

s.t.

a1_local_1: 
+0.00571987176354480 a1_x3
+0.00910073192041656 a1_x6
+0.00695013502649710 a1_x2
<= 1.492301

a1_local_2: 
+0.01371656515333186 a1_x4
+0.00759906790734515 a1_x6
+0.00531068244994709 a1_x2
<= 1.509433

a1_local_3: 
+0.00505091083104228 a1_x4
+0.00680635499859815 a1_x5
+0.01151056097284712 a1_x2
<= 0.795994

a1_local_4: 
+0.00670277076690149 a1_x2
+0.00839237983064083 a1_x1
+0.01208671191974373 a1_x4
<= 1.823227

a1_local_5: 
+0.01394694337606759 a1_x5
+0.01339007870280470 a1_x2
+0.01488281991666147 a1_x4
<= 2.372643

a1_local_6: 
+0.01340199851485714 a1_x4
+0.00634001334421599 a1_x6
+0.01490278730823719 a1_x1
<= 2.267306

a1_local_7: 
+0.01442663000398244 a1_x5
+0.00867805224888279 a1_x4
+0.00728240180483714 a1_x3
<= 1.243750

a1_local_8: 
+0.00829772394478138 a1_x6
+0.01012555578714986 a1_x3
+0.00649167170667954 a1_x2
<= 1.101876

a1_act_1: 
+1.00000000000000000 a1_x1
-100.00000000000000000 a1_z1
<= 0.000000

a1_act_2: 
+1.00000000000000000 a1_x2
-100.00000000000000000 a1_z2
<= 0.000000

a2_local_1: 
+0.27052400497488932 a2_x3
+0.27004126065829109 a2_x6
+0.24469931905517708 a2_x4
<= 46.300014

a2_local_2: 
+0.26181799940870254 a2_x6
+0.15353902955927415 a2_x4
+0.11248282876768212 a2_x3
<= 35.246813

a2_local_3: 
+0.25780004780587773 a2_x2
+0.25694669433847300 a2_x3
+0.16289098825976708 a2_x4
<= 41.337188

a2_local_4: 
+0.20815163949793866 a2_x6
+0.13299369818753179 a2_x5
+0.29210386793335730 a2_x2
<= 36.443724

a2_local_5: 
+0.21003351276605031 a2_x4
+0.15525151659341857 a2_x5
+0.30342683442680024 a2_x3
<= 42.721358

a2_local_6: 
+0.21889147751454935 a2_x2
+0.28479446613303988 a2_x5
+0.19276213728480676 a2_x1
<= 42.310020

a2_local_7: 
+0.21225220535887915 a2_x4
+0.21272335428503739 a2_x3
+0.24335833656672423 a2_x5
<= 25.723744

a2_local_8: 
+0.19157831694815841 a2_x6
+0.13592175979294546 a2_x4
+0.15561645655807865 a2_x3
<= 29.988142

a2_act_1: 
+1.00000000000000000 a2_x1
-100.00000000000000000 a2_z1
<= 0.000000

a2_act_2: 
+1.00000000000000000 a2_x2
-100.00000000000000000 a2_z2
<= 0.000000

a3_local_1: 
+5.04238099354286717 a3_x1
+4.43964207600365413 a3_x3
+3.10649596293918284 a3_x4
<= 750.814794

a3_local_2: 
+6.54506609257039784 a3_x1
+6.69817134366806322 a3_x6
+6.07749495805073447 a3_x5
<= 1341.494815

a3_local_3: 
+2.36925313379753488 a3_x6
+4.70410152128580616 a3_x2
+3.02415053015301583 a3_x3
<= 705.579352

a3_local_4: 
+3.56053557594965486 a3_x1
+6.84174443045527436 a3_x6
+2.66530672554914005 a3_x2
<= 893.588829

a3_local_5: 
+4.08039486259844608 a3_x4
+5.44858806390720662 a3_x6
+6.62835457669649308 a3_x3
<= 824.693481

a3_local_6: 
+4.99357038699602551 a3_x6
+3.83536353322829537 a3_x3
+3.43144540881059257 a3_x1
<= 573.080410

a3_local_7: 
+2.57197878020111759 a3_x6
+5.18996661721000674 a3_x5
+4.85012676691521527 a3_x1
<= 634.321756

a3_local_8: 
+4.17593757643108354 a3_x4
+6.35391044430721674 a3_x6
+5.98262345901463455 a3_x5
<= 1060.311871

a3_act_1: 
+1.00000000000000000 a3_x1
-100.00000000000000000 a3_z1
<= 0.000000

a3_act_2: 
+1.00000000000000000 a3_x2
-100.00000000000000000 a3_z2
<= 0.000000

a4_local_1: 
+139.87653336921428604 a4_x4
+135.62215274067034443 a4_x1
+117.86892864073028875 a4_x5
<= 18381.579818

a4_local_2: 
+99.76866817171571711 a4_x4
+102.30159129434058229 a4_x1
+73.89620841913271931 a4_x6
<= 12135.511138

a4_local_3: 
+74.62968531455035759 a4_x3
+78.13798281066071638 a4_x5
+140.02043841513358302 a4_x1
<= 12361.331053

a4_local_4: 
+76.24372181366101131 a4_x3
+148.63953104817178996 a4_x5
+67.57770591314448438 a4_x6
<= 20027.244492

a4_local_5: 
+133.19813380499695654 a4_x4
+72.12804877424754579 a4_x5
+73.48294417664384071 a4_x6
<= 14632.980379

a4_local_6: 
+72.03302476035517543 a4_x5
+91.64918231563228801 a4_x2
+121.01412851295710027 a4_x1
<= 13753.000014

a4_local_7: 
+121.67445157202357109 a4_x2
+128.44002327056404056 a4_x3
+57.97304723800996840 a4_x1
<= 14589.966426

a4_local_8: 
+147.96501181840432082 a4_x1
+101.29068066987821339 a4_x2
+52.15352277751789245 a4_x4
<= 10260.103826

a4_act_1: 
+1.00000000000000000 a4_x1
-100.00000000000000000 a4_z1
<= 0.000000

a4_act_2: 
+1.00000000000000000 a4_x2
-100.00000000000000000 a4_z2
<= 0.000000

coupling_1: 
+0.00142374263971852 a1_x1
+0.02685039784332102 a2_x1
+0.57447088129258794 a3_x1
+14.23727647894197190 a4_x1
+0.10143334915417133 short_1
-0.10143334915417133 surp_1
= 636.199324

coupling_2: 
+0.00063889596430519 a1_x2
+0.01771419407125810 a2_x2
+0.38880416036602022 a3_x2
+6.94184340528308397 a4_x2
+0.10143334915417133 short_2
-0.10143334915417133 surp_2
= 181.045520

coupling_3: 
+0.00144485412428433 a1_x3
+0.01970552464949041 a2_x3
+0.39591720100538358 a3_x3
+7.39222317952927277 a4_x3
+0.10143334915417133 short_3
-0.10143334915417133 surp_3
= 417.644382

bounds
  0.000000 <= a1_x1 <= 100.000000
  0.000000 <= a1_x2 <= 100.000000
  0.000000 <= a1_x3 <= 100.000000
  0.000000 <= a1_x4 <= 100.000000
  0.000000 <= a1_x5 <= 100.000000
  0.000000 <= a1_x6 <= 100.000000
  0.000000 <= a2_x1 <= 100.000000
  0.000000 <= a2_x2 <= 100.000000
  0.000000 <= a2_x3 <= 100.000000
  0.000000 <= a2_x4 <= 100.000000
  0.000000 <= a2_x5 <= 100.000000
  0.000000 <= a2_x6 <= 100.000000
  0.000000 <= a3_x1 <= 100.000000
  0.000000 <= a3_x2 <= 100.000000
  0.000000 <= a3_x3 <= 100.000000
  0.000000 <= a3_x4 <= 100.000000
  0.000000 <= a3_x5 <= 100.000000
  0.000000 <= a3_x6 <= 100.000000
  0.000000 <= a4_x1 <= 100.000000
  0.000000 <= a4_x2 <= 100.000000
  0.000000 <= a4_x3 <= 100.000000
  0.000000 <= a4_x4 <= 100.000000
  0.000000 <= a4_x5 <= 100.000000
  0.000000 <= a4_x6 <= 100.000000
  0.000000 <= short_1 <= +inf
  0.000000 <= surp_1 <= +inf
  0.000000 <= short_2 <= +inf
  0.000000 <= surp_2 <= +inf
  0.000000 <= short_3 <= +inf
  0.000000 <= surp_3 <= +inf
 0 <= a1_z1 <= 1
 0 <= a1_z2 <= 1
 0 <= a2_z1 <= 1
 0 <= a2_z2 <= 1
 0 <= a3_z1 <= 1
 0 <= a3_z2 <= 1
 0 <= a4_z1 <= 1
 0 <= a4_z2 <= 1

binary
  a1_z1
  a1_z2
  a2_z1
  a2_z2
  a3_z1
  a3_z2
  a4_z1
  a4_z2
end
