min
obj: 
  +1.96797315584533505 a1_x1
  +5.12450639908132288 a1_x2
  +5.32896604620880687 a1_x3
  +7.73264361972508052 a1_x4
  +5.13954220661915251 a1_x5
  +1.49202607385126407 a1_x6
  +49.87266735161764331 a1_z1
  +13.86958179616855702 a1_z2
  +7.53413172178710777 a2_x1
  +3.45719216892709458 a2_x2
  +4.76571137466424233 a2_x3
  +9.38617884989886875 a2_x4
  +1.72886855476886026 a2_x5
  +5.90816082155518885 a2_x6
  +23.53717041290824596 a2_z1
  +38.77106799595807018 a2_z2
  +4.90875225577424779 a3_x1
  +9.92442060145863181 a3_x2
  +6.78612387718403109 a3_x3
  +8.67367115140907785 a3_x4
  +9.64439582433125331 a3_x5
  +8.97688831165856627 a3_x6
  +12.68276888992290807 a3_z1
  +43.15224448184653028 a3_z2
  +4.12769081519996917 a4_x1
  +7.02237149328651711 a4_x2
  +1.06108582988083655 a4_x3
  +7.09274128796206593 a4_x4
  +7.93550517031278613 a4_x5
  +7.59713078328193436 a4_x6
  +17.37310151636162914 a4_z1
  +10.31092367888116890 a4_z2
  +1000000.00000000000000000 short_1
  +1000000.00000000000000000 surp_1
  +1000000.00000000000000000 short_2
  +1000000.00000000000000000 surp_2
  +1000000.00000000000000000 short_3
  +1000000.00000000000000000 surp_3

s.t.

a1_local_1: 
+0.44685866575831845 a1_x3
+0.71098463243539267 a1_x6
+0.54297162474424476 a1_x2
<= 116.584349

a1_local_2: 
+0.82850689794525334 a1_x4
+0.45899830670512554 a1_x6
+0.32077542689389565 a1_x2
<= 91.172631

a1_local_3: 
+0.35334778835277675 a1_x4
+0.47615381976605564 a1_x5
+0.80524709275376827 a1_x2
<= 55.685556

a1_local_4: 
+0.41453565163171713 a1_x2
+0.51903022836685797 a1_x1
+0.74750773612566379 a1_x4
<= 112.758258

a1_local_5: 
+0.57162015603718541 a1_x5
+0.54879687047281278 a1_x2
+0.60997737021242893 a1_x4
<= 97.243587

a1_local_6: 
+0.63753845244283325 a1_x4
+0.30159698133509749 a1_x6
+0.70893157815571606 a1_x1
<= 107.856646

a1_local_7: 
+0.78648775386863090 a1_x5
+0.47309606050022562 a1_x4
+0.39701023986018646 a1_x3
<= 67.804783

a1_local_8: 
+0.56785673666480851 a1_x6
+0.69294484902990772 a1_x3
+0.44425911676330582 a1_x2
<= 75.407172

a1_act_1: 
+0.00999950003749688 a1_x1
-0.99995000374968757 a1_z1
<= 0.000000

a1_act_2: 
+0.00999950003749688 a1_x2
-0.99995000374968757 a1_z2
<= 0.000000

a2_local_1: 
+0.59605979258166908 a2_x3
+0.59499613659576789 a2_x6
+0.53915890153423973 a2_x4
<= 102.015261

a2_local_2: 
+0.80885388210438769 a2_x6
+0.47433958090748163 a2_x4
+0.34750159623975280 a2_x3
<= 108.890609

a2_local_3: 
+0.64649126272615132 a2_x2
+0.64435128810089581 a2_x3
+0.40848557470425162 a2_x4
<= 103.662242

a2_local_4: 
+0.54412621306035580 a2_x6
+0.34765691747717514 a2_x5
+0.76358452838625857 a2_x2
<= 95.267015

a2_local_5: 
+0.52461682870637982 a2_x4
+0.38778363135704452 a2_x5
+0.75789249784491519 a2_x3
<= 106.708416

a2_local_6: 
+0.53695920744457326 a2_x2
+0.69862478227016822 a2_x5
+0.47286173786684793 a2_x1
<= 103.790038

a2_local_7: 
+0.54890169735173400 a2_x4
+0.55012012730791005 a2_x3
+0.62934471649098189 a2_x5
<= 66.523722

a2_local_8: 
+0.67991401742405400 a2_x6
+0.48238814928714802 a2_x4
+0.55228489236770129 a2_x3
<= 106.428318

a2_act_1: 
+0.00999950003749688 a2_x1
-0.99995000374968757 a2_z1
<= 0.000000

a2_act_2: 
+0.00999950003749688 a2_x2
-0.99995000374968757 a2_z2
<= 0.000000

a3_local_1: 
+0.68123898476413813 a3_x1
+0.59980736569607018 a3_x3
+0.41969580614329111 a3_x4
<= 101.437061

a3_local_2: 
+0.58625488668569281 a3_x1
+0.59996883553872815 a3_x6
+0.54437358883348508 a3_x5
<= 120.160420

a3_local_3: 
+0.39009675296958451 a3_x6
+0.77452877572080103 a3_x2
+0.49792539491677279 a3_x3
<= 116.173409

a3_local_4: 
+0.43632330244810213 a3_x1
+0.83841671027425380 a3_x6
+0.32661811902232257 a3_x2
<= 109.504208

a3_local_5: 
+0.42946333906640527 a3_x4
+0.57346627027974151 a3_x6
+0.69763721033885240 a3_x3
<= 86.799349

a3_local_6: 
+0.69637425408187792 a3_x6
+0.53485746922481814 a3_x3
+0.47852939916616483 a3_x1
<= 79.918458

a3_local_7: 
+0.34044432783976447 a3_x6
+0.68697872241726410 a3_x5
+0.64199524498836802 a3_x1
<= 83.963074

a3_local_8: 
+0.43162885350286873 a3_x4
+0.65674618696769393 a3_x6
+0.61836961336016016 a3_x5
<= 109.594837

a3_act_1: 
+0.00999950003749688 a3_x1
-0.99995000374968757 a3_z1
<= 0.000000

a3_act_2: 
+0.00999950003749688 a3_x2
-0.99995000374968757 a3_z2
<= 0.000000

a4_local_1: 
+0.61427456718237716 a4_x4
+0.59559124871372615 a4_x1
+0.51762710571272008 a4_x5
<= 80.723598

a4_local_2: 
+0.62017120756328625 a4_x4
+0.63591609040485719 a4_x1
+0.45934562071897117 a4_x6
<= 75.435452

a4_local_3: 
+0.42196097359866241 a4_x3
+0.44179711012922679 a4_x5
+0.79168443854930781 a4_x1
<= 69.891750

a4_local_4: 
+0.42309620134642040 a4_x3
+0.82483933706823143 a4_x5
+0.37500622985634474 a4_x6
<= 111.136378

a4_local_5: 
+0.79116673665540416 a4_x4
+0.42842426796750238 a4_x5
+0.43647203968472947 a4_x6
<= 86.916588

a4_local_6: 
+0.42870156750027261 a4_x5
+0.54544631784578268 a4_x2
+0.72021058057438070 a4_x1
<= 81.850411

a4_local_7: 
+0.65353698555968520 a4_x2
+0.68987617818661717 a4_x3
+0.31138443647071834 a4_x1
<= 78.365528

a4_local_8: 
+0.79234014268973318 a4_x1
+0.54240304102168124 a4_x2
+0.27927771012532615 a4_x4
<= 54.941990

a4_act_1: 
+0.00999950003749688 a4_x1
-0.99995000374968757 a4_z1
<= 0.000000

a4_act_2: 
+0.00999950003749688 a4_x2
-0.99995000374968757 a4_z2
<= 0.000000

coupling_1: 
+0.00009991450518841 a1_x1
+0.00188429013768799 a2_x1
+0.04031485203031402 a3_x1
+0.99913453101704053 a4_x1
+0.00711832504528086 short_1
-0.00711832504528086 surp_1
= 44.646791

coupling_2: 
+0.00009187162226582 a1_x2
+0.00254725626296284 a2_x2
+0.05590905398091390 a3_x2
+0.99821950801054848 a4_x2
+0.01458585882411015 short_2
-0.01458585882411015 surp_2
= 26.033887

coupling_3: 
+0.00019513890502127 a1_x3
+0.00266138597547067 a2_x3
+0.05347172962637058 a3_x3
+0.99837783806772229 a4_x3
+0.01369937099801669 short_3
-0.01369937099801669 surp_3
= 56.406156

bounds
  0.000000 <= a1_x1 <= 100.000000
  0.000000 <= a1_x2 <= 100.000000
  0.000000 <= a1_x3 <= 100.000000
  0.000000 <= a1_x4 <= 100.000000
  0.000000 <= a1_x5 <= 100.000000
  0.000000 <= a1_x6 <= 100.000000
  0.000000 <= a2_x1 <= 100.000000
  0.000000 <= a2_x2 <= 100.000000
  0.000000 <= a2_x3 <= 100.000000
  0.000000 <= a2_x4 <= 100.000000
  0.000000 <= a2_x5 <= 100.000000
  0.000000 <= a2_x6 <= 100.000000
  0.000000 <= a3_x1 <= 100.000000
  0.000000 <= a3_x2 <= 100.000000
  0.000000 <= a3_x3 <= 100.000000
  0.000000 <= a3_x4 <= 100.000000
  0.000000 <= a3_x5 <= 100.000000
  0.000000 <= a3_x6 <= 100.000000
  0.000000 <= a4_x1 <= 100.000000
  0.000000 <= a4_x2 <= 100.000000
  0.000000 <= a4_x3 <= 100.000000
  0.000000 <= a4_x4 <= 100.000000
  0.000000 <= a4_x5 <= 100.000000
  0.000000 <= a4_x6 <= 100.000000
  0.000000 <= short_1 <= +inf
  0.000000 <= surp_1 <= +inf
  0.000000 <= short_2 <= +inf
  0.000000 <= surp_2 <= +inf
  0.000000 <= short_3 <= +inf
  0.000000 <= surp_3 <= +inf
 0 <= a1_z1 <= 1
 0 <= a1_z2 <= 1
 0 <= a2_z1 <= 1
 0 <= a2_z2 <= 1
 0 <= a3_z1 <= 1
 0 <= a3_z2 <= 1
 0 <= a4_z1 <= 1
 0 <= a4_z2 <= 1

binary
  a1_z1
  a1_z2
  a2_z1
  a2_z2
  a3_z1
  a3_z2
  a4_z1
  a4_z2
end
