min
obj: 
  +5.71291625483064269 a1_x1
  +9.00563589084773142 a1_x2
  +9.01724711762336106 a1_x3
  +9.40638568868457803 a1_x4
  +5.77535620951187667 a1_x5
  +7.28815966502164514 a1_x6
  +20.35589591192510284 a1_z1
  +36.98632201902846361 a1_z2
  +9.57055811069523088 a2_x1
  +1.26049992587512483 a2_x2
  +5.39403189015226747 a2_x3
  +5.18163926236740036 a2_x4
  +3.59512023493198285 a2_x5
  +8.32429931763050135 a2_x6
  +8.22405720557796727 a2_z1
  +9.84830187035061044 a2_z2
  +4.44432428569451421 a3_x1
  +6.87835612826100196 a3_x2
  +6.09227189830646143 a3_x3
  +7.96998209317280093 a3_x4
  +3.38862436120579025 a3_x5
  +8.87685055794251454 a3_x6
  +46.43685776379189178 a3_z1
  +46.77504748135883261 a3_z2
  +2.14266889482626155 a4_x1
  +3.71753864038075932 a4_x2
  +7.47528281002840789 a4_x3
  +1.46230104481487744 a4_x4
  +9.33481878718765401 a4_x5
  +5.50998435696904032 a4_x6
  +29.02492698326168252 a4_z1
  +40.43054682310305736 a4_z2
  +1000000.00000000000000000 short_1
  +1000000.00000000000000000 surp_1
  +1000000.00000000000000000 short_2
  +1000000.00000000000000000 surp_2
  +1000000.00000000000000000 short_3
  +1000000.00000000000000000 surp_3

s.t.

a1_local_1: 
+0.69479125208272063 a1_x1
+0.45749835068840977 a1_x3
+0.55494177635740338 a1_x4
<= 59.663311

a1_local_2: 
+0.70495917278386289 a1_x3
+0.31528735967011723 a1_x4
+0.63531602021367128 a1_x5
<= 69.546758

a1_local_3: 
+0.62596231467382157 a1_x2
+0.38556695188663004 a1_x4
+0.67787115753736316 a1_x1
<= 71.026872

a1_local_4: 
+0.56438140470326137 a1_x2
+0.69233475721564841 a1_x3
+0.44960673257450545 a1_x4
<= 55.951590

a1_local_5: 
+0.68580351629667835 a1_x1
+0.35780747295462434 a1_x3
+0.63375653790153286 a1_x2
<= 58.087174

a1_local_6: 
+0.60301586421584152 a1_x2
+0.59136723368593402 a1_x3
+0.53540327084046435 a1_x4
<= 107.999823

a1_local_7: 
+0.42300015015955056 a1_x1
+0.61028157461119648 a1_x2
+0.66979644120813020 a1_x4
<= 112.477323

a1_local_8: 
+0.66879392168088614 a1_x2
+0.63988053821378033 a1_x6
+0.37850705031471144 a1_x5
<= 100.047713

a1_act_1: 
+0.00999950003749688 a1_x1
-0.99995000374968757 a1_z1
<= 0.000000

a1_act_2: 
+0.00999950003749688 a1_x2
-0.99995000374968757 a1_z2
<= 0.000000

a2_local_1: 
+0.41951212627840240 a2_x5
+0.60504763112895710 a2_x6
+0.67670299243509424 a2_x2
<= 64.417789

a2_local_2: 
+0.49808411253051998 a2_x4
+0.61231807063367316 a2_x6
+0.61398599106179963 a2_x2
<= 77.394568

a2_local_3: 
+0.65685081750642238 a2_x6
+0.27909380208489848 a2_x1
+0.70046673952368388 a2_x2
<= 80.036744

a2_local_4: 
+0.47024367953840585 a2_x6
+0.59236091067204399 a2_x2
+0.65420137065124517 a2_x5
<= 92.447488

a2_local_5: 
+0.77440698609889347 a2_x2
+0.53778542616001102 a2_x5
+0.33328764647241826 a2_x1
<= 103.863649

a2_local_6: 
+0.48921620474191685 a2_x2
+0.40300497356516035 a2_x4
+0.77346913079945179 a2_x3
<= 69.321936

a2_local_7: 
+0.63196563393785588 a2_x5
+0.56559031981327079 a2_x1
+0.52983679341382639 a2_x6
<= 88.177032

a2_local_8: 
+0.37493635232564698 a2_x3
+0.51980718651910018 a2_x2
+0.76760876789405919 a2_x5
<= 100.568815

a2_act_1: 
+0.00999950003749688 a2_x1
-0.99995000374968757 a2_z1
<= 0.000000

a2_act_2: 
+0.00999950003749688 a2_x2
-0.99995000374968757 a2_z2
<= 0.000000

a3_local_1: 
+0.59681975406716736 a3_x6
+0.47404587273329102 a3_x4
+0.64736905370873132 a3_x5
<= 99.289266

a3_local_2: 
+0.71391929117014497 a3_x3
+0.52624283011482498 a3_x6
+0.46193909711980119 a3_x5
<= 56.297317

a3_local_3: 
+0.56584994127175092 a3_x3
+0.46492350293259033 a3_x5
+0.68092582590444128 a3_x2
<= 59.885260

a3_local_4: 
+0.39007143722254972 a3_x1
+0.81479049376990476 a3_x4
+0.42890642933550155 a3_x2
<= 88.919333

a3_local_5: 
+0.42092793148085306 a3_x2
+0.68675080476973382 a3_x5
+0.59261539690373666 a3_x3
<= 89.267445

a3_local_6: 
+0.51844749248734756 a3_x5
+0.58289053460030926 a3_x3
+0.62566030895922053 a3_x2
<= 84.242006

a3_local_7: 
+0.53343577926673880 a3_x5
+0.45790889845894628 a3_x6
+0.71117206786417120 a3_x1
<= 77.050841

a3_local_8: 
+0.63608518661876157 a3_x4
+0.71580316063459848 a3_x2
+0.28813446616067029 a3_x1
<= 80.742038

a3_act_1: 
+0.00999950003749688 a3_x1
-0.99995000374968757 a3_z1
<= 0.000000

a3_act_2: 
+0.00999950003749688 a3_x2
-0.99995000374968757 a3_z2
<= 0.000000

a4_local_1: 
+0.66069904971540949 a4_x2
+0.69336261653351272 a4_x5
+0.28761962328560969 a4_x4
<= 71.083345

a4_local_2: 
+0.62489012423358270 a4_x2
+0.56750506185175642 a4_x4
+0.53614395213223454 a4_x3
<= 98.441513

a4_local_3: 
+0.44264131437622811 a4_x6
+0.69653321876731578 a4_x4
+0.56472129582735575 a4_x1
<= 64.784195

a4_local_4: 
+0.66120517301568904 a4_x1
+0.42771909264954822 a4_x6
+0.61633115851816211 a4_x3
<= 58.087168

a4_local_5: 
+0.52425265155470124 a4_x1
+0.64304423052932780 a4_x3
+0.55825914674173494 a4_x6
<= 85.567548

a4_local_6: 
+0.63287532907092336 a4_x6
+0.49128380707661329 a4_x2
+0.59842212422142271 a4_x4
<= 111.868941

a4_local_7: 
+0.74216029705005382 a4_x3
+0.46473330202124569 a4_x6
+0.48292965478939642 a4_x4
<= 92.670670

a4_local_8: 
+0.37257535466557801 a4_x4
+0.56933622475909484 a4_x5
+0.73283276964999355 a4_x6
<= 82.630082

a4_act_1: 
+0.00999950003749688 a4_x1
-0.99995000374968757 a4_z1
<= 0.000000

a4_act_2: 
+0.00999950003749688 a4_x2
-0.99995000374968757 a4_z2
<= 0.000000

coupling_1: 
+0.00022619572471865 a1_x1
+0.00216741104769767 a2_x1
+0.08539313376415300 a3_x1
+0.99604352393524731 a4_x1
+0.01732862223947298 short_1
-0.01732862223947298 surp_1
= 82.006267

coupling_2: 
+0.00009258621315574 a1_x2
+0.00198898835697287 a2_x2
+0.04047697617185116 a3_x2
+0.99913198916872559 a4_x2
+0.00681608292343162 short_2
-0.00681608292343162 surp_2
= 80.167864

coupling_3: 
+0.00014421295371031 a1_x3
+0.00189726881515440 a2_x3
+0.03865121050453427 a3_x3
+0.99906068932230629 a4_x3
+0.01378772191189527 short_3
-0.01378772191189527 surp_3
= 29.632884

bounds
  0.000000 <= a1_x1 <= 100.000000
  0.000000 <= a1_x2 <= 100.000000
  0.000000 <= a1_x3 <= 100.000000
  0.000000 <= a1_x4 <= 100.000000
  0.000000 <= a1_x5 <= 100.000000
  0.000000 <= a1_x6 <= 100.000000
  0.000000 <= a2_x1 <= 100.000000
  0.000000 <= a2_x2 <= 100.000000
  0.000000 <= a2_x3 <= 100.000000
  0.000000 <= a2_x4 <= 100.000000
  0.000000 <= a2_x5 <= 100.000000
  0.000000 <= a2_x6 <= 100.000000
  0.000000 <= a3_x1 <= 100.000000
  0.000000 <= a3_x2 <= 100.000000
  0.000000 <= a3_x3 <= 100.000000
  0.000000 <= a3_x4 <= 100.000000
  0.000000 <= a3_x5 <= 100.000000
  0.000000 <= a3_x6 <= 100.000000
  0.000000 <= a4_x1 <= 100.000000
  0.000000 <= a4_x2 <= 100.000000
  0.000000 <= a4_x3 <= 100.000000
  0.000000 <= a4_x4 <= 100.000000
  0.000000 <= a4_x5 <= 100.000000
  0.000000 <= a4_x6 <= 100.000000
  0.000000 <= short_1 <= +inf
  0.000000 <= surp_1 <= +inf
  0.000000 <= short_2 <= +inf
  0.000000 <= surp_2 <= +inf
  0.000000 <= short_3 <= +inf
  0.000000 <= surp_3 <= +inf
 0 <= a1_z1 <= 1
 0 <= a1_z2 <= 1
 0 <= a2_z1 <= 1
 0 <= a2_z2 <= 1
 0 <= a3_z1 <= 1
 0 <= a3_z2 <= 1
 0 <= a4_z1 <= 1
 0 <= a4_z2 <= 1

binary
  a1_z1
  a1_z2
  a2_z1
  a2_z2
  a3_z1
  a3_z2
  a4_z1
  a4_z2
end
