min
obj: 
  +1.85914319529187777 a1_x1
  +3.32311090405199927 a1_x2
  +9.20870591814637862 a1_x3
  +9.62032466035919853 a1_x4
  +2.65221673698665317 a1_x5
  +9.19424318038364063 a1_x6
  +15.23159126469524693 a1_z1
  +37.87053616888882601 a1_z2
  +9.50992409015265672 a2_x1
  +7.57539983332453648 a2_x2
  +7.25458697589536605 a2_x3
  +4.07761765395989872 a2_x4
  +7.08231795774132511 a2_x5
  +8.34807126494008500 a2_x6
  +13.29578844905750223 a2_z1
  +34.63921833196101829 a2_z2
  +8.76504266892960793 a3_x1
  +7.77977201232387294 a3_x2
  +6.04838547653606717 a3_x3
  +6.48681552366104786 a3_x4
  +7.59141867997845843 a3_x5
  +2.66707871930021945 a3_x6
  +17.07642873173313092 a3_z1
  +32.16693189471635606 a3_z2
  +3.95786841150633606 a4_x1
  +4.77265222387028487 a4_x2
  +6.62265288598760282 a4_x3
  +9.50730455200969438 a4_x4
  +5.10859874083684673 a4_x5
  +6.19908634988090146 a4_x6
  +14.10084107909216655 a4_z1
  +36.13532285979064795 a4_z2
  +1000000.00000000000000000 short_1
  +1000000.00000000000000000 surp_1
  +1000000.00000000000000000 short_2
  +1000000.00000000000000000 surp_2
  +1000000.00000000000000000 short_3
  +1000000.00000000000000000 surp_3

s.t.

a1_local_1: 
+1.18663059751256617 a1_x5
+0.84272224405490270 a1_x4
+1.13850953885975348 a1_x3
<= 113.089468

a1_local_2: 
+1.21290375604193224 a1_x2
+0.82446772468023288 a1_x4
+0.94047146436761953 a1_x3
<= 200.526359

a1_local_3: 
+1.18925953027628895 a1_x1
+0.70624019261684512 a1_x6
+1.41594886619902072 a1_x3
<= 137.364848

a1_local_4: 
+0.97107579677322964 a1_x3
+0.97039826357777603 a1_x6
+1.03050472938099147 a1_x5
<= 177.037267

a1_local_5: 
+1.04489827236373656 a1_x2
+1.01999762953961337 a1_x3
+0.95703096315570613 a1_x5
<= 100.432314

a1_local_6: 
+0.95322638536518667 a1_x4
+1.04906873682151991 a1_x3
+0.96257655513364349 a1_x2
<= 193.709001

a1_local_7: 
+1.10229725778337184 a1_x6
+1.11267016811752928 a1_x4
+0.89873893329219889 a1_x5
<= 207.952689

a1_local_8: 
+1.02754704685920784 a1_x3
+1.42696340140722233 a1_x4
+0.70078882122262842 a1_x2
<= 216.617563

a1_act_1: 
+0.10000000000000001 a1_x1
-10.00000000000000000 a1_z1
<= 0.000000

a1_act_2: 
+0.10000000000000001 a1_x2
-10.00000000000000000 a1_z2
<= 0.000000

a2_local_1: 
+1.26343232982890941 a2_x5
+1.54229499331672648 a2_x1
+0.64838439101036471 a2_x3
<= 222.251623

a2_local_2: 
+0.96916284171168177 a2_x3
+0.89411255262679934 a2_x1
+1.11842742511791804 a2_x2
<= 178.493500

a2_local_3: 
+0.85028578090460416 a2_x4
+1.15090557327702192 a2_x6
+1.17607517667309147 a2_x2
<= 104.589146

a2_local_4: 
+1.26945762044187727 a2_x5
+1.03604062844553124 a2_x2
+0.78773799447666182 a2_x3
<= 168.205966

a2_local_5: 
+1.10927052851462604 a2_x2
+0.98690089922469171 a2_x1
+0.90149334566659289 a2_x5
<= 99.631991

a2_local_6: 
+0.59606155638378677 a2_x4
+1.67767907406551298 a2_x3
+1.14445859410784179 a2_x2
<= 238.747435

a2_local_7: 
+1.32053753704684640 a2_x1
+1.43329061426030102 a2_x4
+0.69769521271586954 a2_x6
<= 173.195421

a2_local_8: 
+0.89268321571713560 a2_x4
+0.88907013168472648 a2_x5
+1.12477066134824377 a2_x1
<= 180.298240

a2_act_1: 
+0.10000000000000001 a2_x1
-10.00000000000000000 a2_z1
<= 0.000000

a2_act_2: 
+0.10000000000000001 a2_x2
-10.00000000000000000 a2_z2
<= 0.000000

a3_local_1: 
+1.37288599796300503 a3_x3
+0.84079792111834650 a3_x2
+0.72839259886380381 a3_x1
<= 170.505325

a3_local_2: 
+1.60580006006262077 a3_x3
+0.62274253493364773 a3_x5
+1.12877932155389971 a3_x1
<= 197.413007

a3_local_3: 
+1.09830836105948548 a3_x1
+0.97163289980533862 a3_x6
+0.91049111110776559 a3_x5
<= 169.689041

a3_local_4: 
+1.07157724102662555 a3_x4
+0.76569549662475056 a3_x5
+1.30600219592263889 a3_x3
<= 106.767231

a3_local_5: 
+0.92863325637435445 a3_x5
+1.12716591060933924 a3_x2
+0.88718084053784596 a3_x3
<= 101.919149

a3_local_6: 
+0.76978643567623550 a3_x1
+0.98787716071662612 a3_x4
+1.29906160157463479 a3_x6
<= 152.066962

a3_local_7: 
+0.94696891904956704 a3_x2
+1.05600086748745436 a3_x6
+0.98329938535233496 a3_x3
<= 178.245006

a3_local_8: 
+1.54106140295752758 a3_x4
+1.34812751668928854 a3_x3
+0.64890341039030008 a3_x1
<= 154.495387

a3_act_1: 
+0.10000000000000001 a3_x1
-10.00000000000000000 a3_z1
<= 0.000000

a3_act_2: 
+0.10000000000000001 a3_x2
-10.00000000000000000 a3_z2
<= 0.000000

a4_local_1: 
+0.70567542439175335 a4_x4
+1.41708208254798640 a4_x1
+0.79082808277754668 a4_x2
<= 102.259583

a4_local_2: 
+1.30552465173857035 a4_x5
+1.20044286027214286 a4_x4
+0.76597557822312867 a4_x1
<= 106.209602

a4_local_3: 
+1.48961649270116547 a4_x1
+0.67131372732499139 a4_x2
+0.86319441635113625 a4_x4
<= 119.972200

a4_local_4: 
+1.33979863034028468 a4_x6
+0.66128787772163222 a4_x3
+1.51220071271433154 a4_x4
<= 151.836906

a4_local_5: 
+0.60380460951652049 a4_x6
+1.65616489877532014 a4_x3
+1.46940220087430751 a4_x5
<= 116.462824

a4_local_6: 
+0.81171975453084655 a4_x4
+0.83434651703754092 a4_x1
+1.23195227714763988 a4_x5
<= 143.545966

a4_local_7: 
+0.66872042334298265 a4_x1
+0.67875866413331765 a4_x2
+1.49539323922683032 a4_x3
<= 145.583834

a4_local_8: 
+0.87962752140740263 a4_x2
+1.19351857057303290 a4_x3
+0.83785876873275555 a4_x4
<= 191.262031

a4_act_1: 
+0.10000000000000001 a4_x1
-10.00000000000000000 a4_z1
<= 0.000000

a4_act_2: 
+0.10000000000000001 a4_x2
-10.00000000000000000 a4_z2
<= 0.000000

coupling_1: 
+0.00753736061940271 a1_x1
+0.21135326921919825 a2_x1
+5.37686917853339175 a3_x1
+132.67243674473999704 a4_x1
+1.17118177254123101 short_1
-1.17118177254123101 surp_1
= 10701.569060

coupling_2: 
+0.00972663112099583 a1_x2
+0.19444269195418423 a2_x2
+4.95833669255173159 a3_x2
+102.81051965067406684 a4_x2
+1.03071068263568999 short_2
-1.03071068263568999 surp_2
= 4782.831258

coupling_3: 
+0.00961648070822829 a1_x3
+0.21826384358247933 a2_x3
+2.93329924707697298 a3_x3
+103.98814601108237810 a4_x3
+0.69515939521316716 short_3
-0.69515939521316716 surp_3
= 7496.471957

bounds
  0.000000 <= a1_x1 <= 100.000000
  0.000000 <= a1_x2 <= 100.000000
  0.000000 <= a1_x3 <= 100.000000
  0.000000 <= a1_x4 <= 100.000000
  0.000000 <= a1_x5 <= 100.000000
  0.000000 <= a1_x6 <= 100.000000
  0.000000 <= a2_x1 <= 100.000000
  0.000000 <= a2_x2 <= 100.000000
  0.000000 <= a2_x3 <= 100.000000
  0.000000 <= a2_x4 <= 100.000000
  0.000000 <= a2_x5 <= 100.000000
  0.000000 <= a2_x6 <= 100.000000
  0.000000 <= a3_x1 <= 100.000000
  0.000000 <= a3_x2 <= 100.000000
  0.000000 <= a3_x3 <= 100.000000
  0.000000 <= a3_x4 <= 100.000000
  0.000000 <= a3_x5 <= 100.000000
  0.000000 <= a3_x6 <= 100.000000
  0.000000 <= a4_x1 <= 100.000000
  0.000000 <= a4_x2 <= 100.000000
  0.000000 <= a4_x3 <= 100.000000
  0.000000 <= a4_x4 <= 100.000000
  0.000000 <= a4_x5 <= 100.000000
  0.000000 <= a4_x6 <= 100.000000
  0.000000 <= short_1 <= +inf
  0.000000 <= surp_1 <= +inf
  0.000000 <= short_2 <= +inf
  0.000000 <= surp_2 <= +inf
  0.000000 <= short_3 <= +inf
  0.000000 <= surp_3 <= +inf
 0 <= a1_z1 <= 1
 0 <= a1_z2 <= 1
 0 <= a2_z1 <= 1
 0 <= a2_z2 <= 1
 0 <= a3_z1 <= 1
 0 <= a3_z2 <= 1
 0 <= a4_z1 <= 1
 0 <= a4_z2 <= 1

binary
  a1_z1
  a1_z2
  a2_z1
  a2_z2
  a3_z1
  a3_z2
  a4_z1
  a4_z2
end
