min
obj: 
  +4.61217347674817457 a1_x1
  +8.37266539443051627 a1_x2
  +3.88741117842564377 a1_x3
  +3.57352147071314707 a1_x4
  +7.90632682258909369 a1_x5
  +6.50433465125659094 a1_x6
  +46.95512094955829951 a1_z1
  +19.80665349763778238 a1_z2
  +7.65671715801393571 a2_x1
  +8.20437447093011585 a2_x2
  +3.61886914738285226 a2_x3
  +5.28592570462095690 a2_x4
  +3.39477691808076010 a2_x5
  +2.52109627660840552 a2_x6
  +31.13088232979415793 a2_z1
  +23.01056128172705328 a2_z2
  +6.98746639113835144 a3_x1
  +2.08920162411281263 a3_x2
  +9.36108080061404380 a3_x3
  +4.85098195997041159 a3_x4
  +1.72431460157976346 a3_x5
  +7.00389344376385736 a3_x6
  +33.01267747284549614 a3_z1
  +8.00105962872783749 a3_z2
  +6.42161923356443864 a4_x1
  +2.38773349159600956 a4_x2
  +7.47586240964883597 a4_x3
  +7.41060969147519710 a4_x4
  +8.58602476997859654 a4_x5
  +3.43257573175068753 a4_x6
  +23.31726507162430551 a4_z1
  +25.04248719439813797 a4_z2
  +1000000.00000000000000000 short_1
  +1000000.00000000000000000 surp_1
  +1000000.00000000000000000 short_2
  +1000000.00000000000000000 surp_2
  +1000000.00000000000000000 short_3
  +1000000.00000000000000000 surp_3

s.t.

a1_local_1: 
+1.06088300154747106 a1_x1
+0.94261101228065369 a1_x6
+1.03039170294381965 a1_x2
<= 184.665611

a1_local_2: 
+1.20311966167186646 a1_x4
+0.90361891902783420 a1_x6
+0.83117251912448209 a1_x2
<= 110.084938

a1_local_3: 
+1.48564166218637350 a1_x2
+1.43045711390481034 a1_x1
+0.67310982550686593 a1_x5
<= 137.928027

a1_local_4: 
+1.58493320114710867 a1_x1
+0.81508054679657105 a1_x2
+0.63094141713748031 a1_x4
<= 95.685986

a1_local_5: 
+1.24030371224889246 a1_x2
+0.80625413769569465 a1_x6
+0.89499736356293780 a1_x3
<= 103.126294

a1_local_6: 
+1.16643452052824026 a1_x4
+0.99612321803208148 a1_x6
+0.85731344743392235 a1_x1
<= 165.314809

a1_local_7: 
+1.21562909697798816 a1_x1
+0.61907774092834422 a1_x5
+1.61530601714162736 a1_x6
<= 191.290781

a1_local_8: 
+1.30563946100689798 a1_x2
+0.76590822341476139 a1_x1
+0.96152091107570281 a1_x4
<= 160.949058

a1_act_1: 
+0.10000000000000001 a1_x1
-10.00000000000000000 a1_z1
<= 0.000000

a1_act_2: 
+0.10000000000000001 a1_x2
-10.00000000000000000 a1_z2
<= 0.000000

a2_local_1: 
+0.94316634748660133 a2_x4
+1.11934244693795959 a2_x2
+0.89338164806987408 a2_x6
<= 110.409078

a2_local_2: 
+0.70713748685113864 a2_x2
+1.41415215371054526 a2_x6
+0.93100780847491971 a2_x5
<= 148.408715

a2_local_3: 
+1.13270545633941189 a2_x2
+0.83777274532878176 a2_x1
+1.19364112233986885 a2_x3
<= 105.680364

a2_local_4: 
+0.82390932582237875 a2_x3
+0.95471827245614016 a2_x2
+1.21372579318950913 a2_x4
<= 182.047836

a2_local_5: 
+0.73450215460200574 a2_x2
+1.02354628101806089 a2_x5
+1.36146639425701355 a2_x6
<= 190.730980

a2_local_6: 
+1.11664496563389837 a2_x6
+1.01707155381419501 a2_x5
+0.89553979176570120 a2_x1
<= 139.333562

a2_local_7: 
+0.97146277692760230 a2_x5
+1.07334733100824042 a2_x4
+0.93166486850128727 a2_x3
<= 154.041796

a2_local_8: 
+1.10763999340282182 a2_x6
+0.90282041634111032 a2_x4
+1.05669372062703881 a2_x3
<= 92.067064

a2_act_1: 
+0.10000000000000001 a2_x1
-10.00000000000000000 a2_z1
<= 0.000000

a2_act_2: 
+0.10000000000000001 a2_x2
-10.00000000000000000 a2_z2
<= 0.000000

a3_local_1: 
+1.38671919607536953 a3_x2
+1.22325481673653247 a3_x1
+0.72112652859364412 a3_x6
<= 199.418459

a3_local_2: 
+1.58558686633874757 a3_x3
+0.63068130875042094 a3_x5
+0.78145055265120200 a3_x6
<= 171.378263

a3_local_3: 
+1.10809877418165281 a3_x4
+1.16437136587907020 a3_x5
+0.85883252483199479 a3_x3
<= 198.146320

a3_local_4: 
+1.38131326288221690 a3_x1
+0.71089262247521945 a3_x5
+1.40668220260628529 a3_x6
<= 161.894234

a3_local_5: 
+1.22021346304324441 a3_x3
+1.05600126692585938 a3_x5
+0.81952873844382423 a3_x1
<= 110.890209

a3_local_6: 
+1.34126880431914564 a3_x3
+1.40458044230105061 a3_x4
+0.71195637493125874 a3_x6
<= 106.474930

a3_local_7: 
+0.82643913357730203 a3_x2
+1.21001046461997386 a3_x3
+1.00961868465683846 a3_x1
<= 162.590832

a3_local_8: 
+1.18416876126276027 a3_x1
+1.19212969924258405 a3_x3
+0.83883490247357062 a3_x5
<= 117.935688

a3_act_1: 
+0.10000000000000001 a3_x1
-10.00000000000000000 a3_z1
<= 0.000000

a3_act_2: 
+0.10000000000000001 a3_x2
-10.00000000000000000 a3_z2
<= 0.000000

a4_local_1: 
+1.65383060711211272 a4_x4
+1.46614699339985144 a4_x2
+0.60465684677718057 a4_x6
<= 260.297362

a4_local_2: 
+0.99326715993971049 a4_x5
+0.91980714783717088 a4_x6
+1.08718441942030375 a4_x2
<= 142.811058

a4_local_3: 
+1.16597927198155049 a4_x1
+1.19009608893568197 a4_x3
+0.84026828530653563 a4_x6
<= 163.666440

a4_local_4: 
+1.34462639461388234 a4_x5
+1.26718161171282029 a4_x1
+0.74370100423854624 a4_x6
<= 166.011482

a4_local_5: 
+0.67700288248403773 a4_x5
+1.24045196460369356 a4_x1
+1.47709858535731997 a4_x6
<= 224.361607

a4_local_6: 
+1.03420833220374409 a4_x6
+0.85289201202615739 a4_x1
+1.17248137618778703 a4_x5
<= 145.101797

a4_local_7: 
+1.28631533828537936 a4_x2
+1.59016742591270321 a4_x6
+0.62886459859786981 a4_x1
<= 185.096756

a4_local_8: 
+0.94029390323611650 a4_x2
+1.06349727096857594 a4_x3
+1.00463978690844469 a4_x6
<= 109.047361

a4_act_1: 
+0.10000000000000001 a4_x1
-10.00000000000000000 a4_z1
<= 0.000000

a4_act_2: 
+0.10000000000000001 a4_x2
-10.00000000000000000 a4_z2
<= 0.000000

coupling_1: 
+0.00978610466024575 a1_x1
+0.22490700715785872 a2_x1
+4.44618899324257555 a3_x1
+102.18570460035196845 a4_x1
+0.88316945168704153 short_1
-0.88316945168704153 surp_1
= 4363.213838

coupling_2: 
+0.00755884766389762 a1_x2
+0.18757750815237542 a2_x2
+4.17611068659973839 a3_x2
+132.29529744013424875 a4_x2
+1.09681368161947135 short_2
-1.09681368161947135 surp_2
= 5444.587027

coupling_3: 
+0.00867435623448203 a1_x3
+0.28824841726406952 a2_x3
+4.87969067095681996 a3_x3
+115.28233023504739663 a4_x3
+1.44436520683590208 short_3
-1.44436520683590208 surp_3
= 2837.875897

bounds
  0.000000 <= a1_x1 <= 100.000000
  0.000000 <= a1_x2 <= 100.000000
  0.000000 <= a1_x3 <= 100.000000
  0.000000 <= a1_x4 <= 100.000000
  0.000000 <= a1_x5 <= 100.000000
  0.000000 <= a1_x6 <= 100.000000
  0.000000 <= a2_x1 <= 100.000000
  0.000000 <= a2_x2 <= 100.000000
  0.000000 <= a2_x3 <= 100.000000
  0.000000 <= a2_x4 <= 100.000000
  0.000000 <= a2_x5 <= 100.000000
  0.000000 <= a2_x6 <= 100.000000
  0.000000 <= a3_x1 <= 100.000000
  0.000000 <= a3_x2 <= 100.000000
  0.000000 <= a3_x3 <= 100.000000
  0.000000 <= a3_x4 <= 100.000000
  0.000000 <= a3_x5 <= 100.000000
  0.000000 <= a3_x6 <= 100.000000
  0.000000 <= a4_x1 <= 100.000000
  0.000000 <= a4_x2 <= 100.000000
  0.000000 <= a4_x3 <= 100.000000
  0.000000 <= a4_x4 <= 100.000000
  0.000000 <= a4_x5 <= 100.000000
  0.000000 <= a4_x6 <= 100.000000
  0.000000 <= short_1 <= +inf
  0.000000 <= surp_1 <= +inf
  0.000000 <= short_2 <= +inf
  0.000000 <= surp_2 <= +inf
  0.000000 <= short_3 <= +inf
  0.000000 <= surp_3 <= +inf
 0 <= a1_z1 <= 1
 0 <= a1_z2 <= 1
 0 <= a2_z1 <= 1
 0 <= a2_z2 <= 1
 0 <= a3_z1 <= 1
 0 <= a3_z2 <= 1
 0 <= a4_z1 <= 1
 0 <= a4_z2 <= 1

binary
  a1_z1
  a1_z2
  a2_z1
  a2_z2
  a3_z1
  a3_z2
  a4_z1
  a4_z2
end
