min
obj: 
  +4.08711411622905185 a1_x1
  +7.66136637275760890 a1_x2
  +4.89991689432673461 a1_x3
  +9.18560754331382867 a1_x4
  +7.80552329567271030 a1_x5
  +3.48617462290993085 a1_x6
  +23.40237872614093462 a1_z1
  +18.26756086639244359 a1_z2
  +9.86731097874472596 a2_x1
  +9.26152928173022261 a2_x2
  +3.50078905131847584 a2_x3
  +7.16373731684462012 a2_x4
  +7.92452849914212010 a2_x5
  +2.45821067970353369 a2_x6
  +33.65890549127213660 a2_z1
  +35.25440952037810405 a2_z2
  +2.67328543975586186 a3_x1
  +9.89718173180398963 a3_x2
  +5.22112132820410846 a3_x3
  +8.01142911451852413 a3_x4
  +2.58297506253818687 a3_x5
  +9.90251287309686745 a3_x6
  +27.09261525514139990 a3_z1
  +47.99613585574002173 a3_z2
  +8.20462741556096375 a4_x1
  +7.12140565612760490 a4_x2
  +6.26647229654029836 a4_x3
  +7.50796663445631296 a4_x4
  +5.57360575198759278 a4_x5
  +1.80810837019631565 a4_x6
  +27.56107960188447947 a4_z1
  +34.98595155711783633 a4_z2
  +1000000.00000000000000000 short_1
  +1000000.00000000000000000 surp_1
  +1000000.00000000000000000 short_2
  +1000000.00000000000000000 surp_2
  +1000000.00000000000000000 short_3
  +1000000.00000000000000000 surp_3

s.t.

a1_local_1: 
+0.00946176663749695 a1_x6
+0.00526001002114592 a1_x4
+0.01498712974842023 a1_x2
<= 2.059113

a1_local_2: 
+0.01353668975605790 a1_x6
+0.00804952810211425 a1_x3
+0.00791860592470051 a1_x2
<= 0.913793

a1_local_3: 
+0.00989198093616936 a1_x6
+0.01294681306198465 a1_x4
+0.01497585005751207 a1_x1
<= 2.019042

a1_local_4: 
+0.01447476557893368 a1_x4
+0.00577027258610340 a1_x5
+0.00749048983243004 a1_x2
<= 1.846655

a1_local_5: 
+0.01074608028307142 a1_x5
+0.01154817774133839 a1_x1
+0.00837133933138264 a1_x4
<= 2.075141

a1_local_6: 
+0.00924310271879218 a1_x2
+0.01154918104821212 a1_x6
+0.00648790910308063 a1_x1
<= 1.339462

a1_local_7: 
+0.01257972379803208 a1_x2
+0.01247218607757229 a1_x1
+0.00730861069516881 a1_x3
<= 1.441919

a1_local_8: 
+0.01080587983304124 a1_x2
+0.01252387394653014 a1_x4
+0.01490016345610185 a1_x3
<= 2.189659

a1_act_1: 
+1.00000000000000000 a1_x1
-100.00000000000000000 a1_z1
<= 0.000000

a1_act_2: 
+1.00000000000000000 a1_x2
-100.00000000000000000 a1_z2
<= 0.000000

a2_local_1: 
+0.29556235574817136 a2_x6
+0.31344939745007699 a2_x2
+0.31187803953305160 a2_x4
<= 44.250267

a2_local_2: 
+0.23374049545133882 a2_x2
+0.16689094321363124 a2_x3
+0.17892800383980506 a2_x6
<= 40.003883

a2_local_3: 
+0.14447145449044582 a2_x4
+0.28726585180506514 a2_x6
+0.23982480548185381 a2_x2
<= 20.395916

a2_local_4: 
+0.26873415981474785 a2_x6
+0.29696561877591282 a2_x2
+0.29016983171215266 a2_x4
<= 46.620117

a2_local_5: 
+0.16646155626945464 a2_x2
+0.27535253944301363 a2_x3
+0.15490062818239980 a2_x1
<= 33.297141

a2_local_6: 
+0.21657116516128166 a2_x4
+0.24911906405450010 a2_x6
+0.23886743794679924 a2_x2
<= 44.177245

a2_local_7: 
+0.29937277191517903 a2_x5
+0.28927494988876151 a2_x2
+0.20574120077446423 a2_x3
<= 53.604995

a2_local_8: 
+0.10949767788503528 a2_x5
+0.22234263135448182 a2_x4
+0.25041337400341351 a2_x6
<= 25.420267

a2_act_1: 
+1.00000000000000000 a2_x1
-100.00000000000000000 a2_z1
<= 0.000000

a2_act_2: 
+1.00000000000000000 a2_x2
-100.00000000000000000 a2_z2
<= 0.000000

a3_local_1: 
+2.93944253932641120 a3_x3
+4.02364042222227347 a3_x5
+6.59686689271386850 a3_x6
<= 849.664313

a3_local_2: 
+5.85415135058175906 a3_x4
+4.69162622600885815 a3_x1
+3.79735286621539458 a3_x2
<= 933.467090

a3_local_3: 
+4.21184819749845563 a3_x3
+4.95557696822197347 a3_x5
+4.10391516908626919 a3_x2
<= 528.156692

a3_local_4: 
+5.37516452107139475 a3_x2
+4.26962647742100021 a3_x6
+3.37711548325024724 a3_x4
<= 885.891209

a3_local_5: 
+4.04822355481356677 a3_x2
+5.44041442404837827 a3_x3
+5.57461004945091965 a3_x1
<= 850.618975

a3_local_6: 
+5.77632157548020064 a3_x1
+4.68062850279025255 a3_x5
+6.79759822972569072 a3_x4
<= 770.196580

a3_local_7: 
+3.07681845262874809 a3_x2
+6.70673246742731433 a3_x1
+3.75841461167545443 a3_x3
<= 522.092636

a3_local_8: 
+3.83820680452158047 a3_x4
+4.04410209095062889 a3_x5
+4.93199598072199219 a3_x2
<= 705.442044

a3_act_1: 
+1.00000000000000000 a3_x1
-100.00000000000000000 a3_z1
<= 0.000000

a3_act_2: 
+1.00000000000000000 a3_x2
-100.00000000000000000 a3_z2
<= 0.000000

a4_local_1: 
+141.80083872888764063 a4_x3
+66.14091004717093369 a4_x2
+72.88430142142298962 a4_x6
<= 17818.415850

a4_local_2: 
+118.63783508595480498 a4_x6
+107.39476495699035752 a4_x1
+66.42814879999350808 a4_x5
<= 13130.374306

a4_local_3: 
+50.12013746757391885 a4_x4
+100.36271652007171440 a4_x5
+109.46242063801409472 a4_x6
<= 13084.235982

a4_local_4: 
+102.46754041028118820 a4_x6
+129.83287565988825918 a4_x2
+82.46708527598596561 a4_x4
<= 17222.772369

a4_local_5: 
+54.29091819898435034 a4_x3
+59.01218649074292699 a4_x6
+74.80586297373719162 a4_x1
<= 13065.770806

a4_local_6: 
+82.68208677462050105 a4_x5
+147.41064643450255289 a4_x6
+108.11702067915913972 a4_x2
<= 19819.650452

a4_local_7: 
+113.92564358033277472 a4_x4
+51.19903819875653284 a4_x3
+80.69626157826382951 a4_x2
<= 15651.859912

a4_local_8: 
+131.06179207900942174 a4_x3
+61.39519444345520327 a4_x6
+109.08214583770121919 a4_x2
<= 20078.860931

a4_act_1: 
+1.00000000000000000 a4_x1
-100.00000000000000000 a4_z1
<= 0.000000

a4_act_2: 
+1.00000000000000000 a4_x2
-100.00000000000000000 a4_z2
<= 0.000000

coupling_1: 
+0.00006301275628246 a1_x1
+0.00187644021018664 a2_x1
+0.04726489437891612 a3_x1
+1.05586648231449609 a4_x1
+0.00819463119237340 short_1
-0.00819463119237340 surp_1
= 65.436635

coupling_2: 
+0.00011564989498936 a1_x2
+0.00199053429178867 a2_x2
+0.05653735793892956 a3_x2
+0.99519448817229295 a4_x2
+0.00819463119237340 short_2
-0.00819463119237340 surp_2
= 69.077527

coupling_3: 
+0.00009493896976882 a1_x3
+0.00191132102487566 a2_x3
+0.03064089439987210 a3_x3
+0.83051984357092212 a4_x3
+0.00819463119237340 short_3
-0.00819463119237340 surp_3
= 57.533703

bounds
  0.000000 <= a1_x1 <= 100.000000
  0.000000 <= a1_x2 <= 100.000000
  0.000000 <= a1_x3 <= 100.000000
  0.000000 <= a1_x4 <= 100.000000
  0.000000 <= a1_x5 <= 100.000000
  0.000000 <= a1_x6 <= 100.000000
  0.000000 <= a2_x1 <= 100.000000
  0.000000 <= a2_x2 <= 100.000000
  0.000000 <= a2_x3 <= 100.000000
  0.000000 <= a2_x4 <= 100.000000
  0.000000 <= a2_x5 <= 100.000000
  0.000000 <= a2_x6 <= 100.000000
  0.000000 <= a3_x1 <= 100.000000
  0.000000 <= a3_x2 <= 100.000000
  0.000000 <= a3_x3 <= 100.000000
  0.000000 <= a3_x4 <= 100.000000
  0.000000 <= a3_x5 <= 100.000000
  0.000000 <= a3_x6 <= 100.000000
  0.000000 <= a4_x1 <= 100.000000
  0.000000 <= a4_x2 <= 100.000000
  0.000000 <= a4_x3 <= 100.000000
  0.000000 <= a4_x4 <= 100.000000
  0.000000 <= a4_x5 <= 100.000000
  0.000000 <= a4_x6 <= 100.000000
  0.000000 <= short_1 <= +inf
  0.000000 <= surp_1 <= +inf
  0.000000 <= short_2 <= +inf
  0.000000 <= surp_2 <= +inf
  0.000000 <= short_3 <= +inf
  0.000000 <= surp_3 <= +inf
 0 <= a1_z1 <= 1
 0 <= a1_z2 <= 1
 0 <= a2_z1 <= 1
 0 <= a2_z2 <= 1
 0 <= a3_z1 <= 1
 0 <= a3_z2 <= 1
 0 <= a4_z1 <= 1
 0 <= a4_z2 <= 1

binary
  a1_z1
  a1_z2
  a2_z1
  a2_z2
  a3_z1
  a3_z2
  a4_z1
  a4_z2
end
