min
obj: 
  +5.24362332399284625 a1_x1
  +8.06959664561268042 a1_x2
  +3.47810228856863679 a1_x3
  +9.41205830682384104 a1_x4
  +8.31656886029670339 a1_x5
  +6.80028019197109046 a1_x6
  +10.41050343041974102 a1_z1
  +29.39644014342060530 a1_z2
  +8.28066141375753872 a2_x1
  +6.06494311381576523 a2_x2
  +8.65417661359723311 a2_x3
  +4.32929045080204133 a2_x4
  +7.27024404204758401 a2_x5
  +4.53185167774403475 a2_x6
  +14.32924585982750010 a2_z1
  +33.49545064378996528 a2_z2
  +3.46672163395224064 a3_x1
  +8.73068689063360637 a3_x2
  +5.78731633243780319 a3_x3
  +5.65993509091970015 a3_x4
  +4.88699203046912878 a3_x5
  +4.33566741350590856 a3_x6
  +5.90058593924896702 a3_z1
  +40.30367968473242257 a3_z2
  +4.52735162287015491 a4_x1
  +9.79326185053260900 a4_x2
  +5.17425215108361947 a4_x3
  +5.44899982766291835 a4_x4
  +4.65504731238401082 a4_x5
  +5.18157972709797487 a4_x6
  +20.49298729783527051 a4_z1
  +8.57422142752452210 a4_z2
  +1000000.00000000000000000 short_1
  +1000000.00000000000000000 surp_1
  +1000000.00000000000000000 short_2
  +1000000.00000000000000000 surp_2
  +1000000.00000000000000000 short_3
  +1000000.00000000000000000 surp_3

s.t.

a1_local_1: 
+1.28047475064471095 a1_x4
+0.78096034263581249 a1_x6
+0.98116625064417262 a1_x1
<= 199.627262

a1_local_2: 
+1.07918455239658750 a1_x5
+0.59517578531382465 a1_x4
+1.68017588194170120 a1_x1
<= 104.856815

a1_local_3: 
+1.20146166843029123 a1_x3
+0.83231952069390536 a1_x6
+1.18851189122156442 a1_x5
<= 113.163555

a1_local_4: 
+0.70699757526425777 a1_x3
+1.35698087220815378 a1_x5
+1.41443200795451873 a1_x4
<= 198.883122

a1_local_5: 
+0.84485815904631634 a1_x5
+1.11266269547504226 a1_x2
+1.18363063585585704 a1_x1
<= 194.065331

a1_local_6: 
+1.14408873291251378 a1_x3
+0.83205074851504623 a1_x2
+1.20184976912128438 a1_x5
<= 194.579706

a1_local_7: 
+0.66194989686676664 a1_x1
+1.51068835380644195 a1_x5
+0.75403805195422213 a1_x6
<= 182.983223

a1_local_8: 
+0.93341524033849199 a1_x1
+1.19927709015213280 a1_x5
+0.83383565667309312 a1_x3
<= 173.617821

a1_act_1: 
+0.10000000000000001 a1_x1
-10.00000000000000000 a1_z1
<= 0.000000

a1_act_2: 
+0.10000000000000001 a1_x2
-10.00000000000000000 a1_z2
<= 0.000000

a2_local_1: 
+0.73716610651001824 a2_x2
+1.35654636203273360 a2_x5
+1.22947743266652099 a2_x6
<= 169.470302

a2_local_2: 
+1.42712636734444365 a2_x5
+1.07875684871232114 a2_x3
+0.70070879697974586 a2_x4
<= 111.870955

a2_local_3: 
+1.10968554024788935 a2_x3
+1.00130446059843492 a2_x1
+0.90115619581436823 a2_x2
<= 149.462373

a2_local_4: 
+0.66667545155617869 a2_x1
+1.49998023425905780 a2_x3
+1.21555455185398431 a2_x4
<= 236.031222

a2_local_5: 
+0.76130476611049103 a2_x4
+1.08828479047160220 a2_x5
+1.31353440109012309 a2_x2
<= 142.984804

a2_local_6: 
+0.86297675635168558 a2_x6
+1.02013309196257573 a2_x1
+1.15877976160979457 a2_x3
<= 113.244754

a2_local_7: 
+1.10826134916149921 a2_x4
+0.71893685308000665 a2_x6
+1.39094274513246496 a2_x2
<= 215.225692

a2_local_8: 
+0.94990359360639498 a2_x6
+1.15933143344006839 a2_x5
+0.86256610590874205 a2_x4
<= 162.730942

a2_act_1: 
+0.10000000000000001 a2_x1
-10.00000000000000000 a2_z1
<= 0.000000

a2_act_2: 
+0.10000000000000001 a2_x2
-10.00000000000000000 a2_z2
<= 0.000000

a3_local_1: 
+1.35374935841588928 a3_x4
+0.92732935999177590 a3_x1
+0.73868917741919782 a3_x5
<= 181.499425

a3_local_2: 
+0.67736683940912357 a3_x2
+0.62510955050727435 a3_x4
+1.59971959985014323 a3_x3
<= 157.968040

a3_local_3: 
+1.14167386785023406 a3_x4
+0.87590688388356897 a3_x6
+1.03019110008332992 a3_x5
<= 126.362768

a3_local_4: 
+1.49242528351795589 a3_x4
+0.67005029400385974 a3_x2
+1.00973606498825919 a3_x6
<= 184.866538

a3_local_5: 
+1.39578893980271768 a3_x3
+0.72196970650939152 a3_x4
+0.71644069635724517 a3_x2
<= 101.256554

a3_local_6: 
+1.19105826357097189 a3_x4
+1.15874874205780753 a3_x1
+0.83958948993968552 a3_x6
<= 163.256661

a3_local_7: 
+1.41641699168797697 a3_x4
+0.85996829379096373 a3_x5
+0.70600678039612963 a3_x2
<= 199.744851

a3_local_8: 
+0.78118964058423690 a3_x2
+1.28009890050784469 a3_x5
+1.12778051496382470 a3_x3
<= 167.413717

a3_act_1: 
+0.10000000000000001 a3_x1
-10.00000000000000000 a3_z1
<= 0.000000

a3_act_2: 
+0.10000000000000001 a3_x2
-10.00000000000000000 a3_z2
<= 0.000000

a4_local_1: 
+1.39157547459894815 a4_x5
+0.72851388165365527 a4_x6
+0.71860996277488987 a4_x2
<= 100.063399

a4_local_2: 
+1.35757414010736199 a4_x5
+0.72625092768622512 a4_x4
+1.37693455784754271 a4_x1
<= 180.390789

a4_local_3: 
+0.82504281694381620 a4_x6
+0.82018453340095765 a4_x2
+1.21923781695007527 a4_x3
<= 121.672129

a4_local_4: 
+0.93205234921750746 a4_x2
+0.84286411326198873 a4_x6
+1.18643086621623506 a4_x4
<= 176.687788

a4_local_5: 
+1.32740076540886065 a4_x2
+0.75335198386147073 a4_x1
+1.05605867790730024 a4_x3
<= 143.367812

a4_local_6: 
+1.00139635450206899 a4_x3
+1.01224011499026001 a4_x5
+0.98790789378034305 a4_x2
<= 150.985445

a4_local_7: 
+0.64176927340222023 a4_x5
+1.55819239319247327 a4_x2
+0.67733752947946058 a4_x4
<= 140.211219

a4_local_8: 
+1.11915726276269045 a4_x1
+1.32196724995308856 a4_x5
+0.75644839161899535 a4_x4
<= 192.929478

a4_act_1: 
+0.10000000000000001 a4_x1
-10.00000000000000000 a4_z1
<= 0.000000

a4_act_2: 
+0.10000000000000001 a4_x2
-10.00000000000000000 a4_z2
<= 0.000000

coupling_1: 
+0.00007718414219832 a1_x1
+0.00120678458065496 a2_x1
+0.03879119650219789 a3_x1
+0.99919113373390700 a4_x1
+0.00744510090802118 short_1
-0.00744510090802118 surp_1
= 29.063019

coupling_2: 
+0.00007468558499752 a1_x2
+0.00138886340929535 a2_x2
+0.04513982565818436 a3_x2
+0.99890800907464206 a4_x2
+0.00846318576474380 short_2
-0.00846318576474380 surp_2
= 70.303647

coupling_3: 
+0.00015859144852378 a1_x3
+0.00241108956163405 a2_x3
+0.05799087542549227 a3_x3
+0.99813079009028272 a4_x3
+0.01353044228788055 short_3
-0.01353044228788055 surp_3
= 54.007083

bounds
  0.000000 <= a1_x1 <= 100.000000
  0.000000 <= a1_x2 <= 100.000000
  0.000000 <= a1_x3 <= 100.000000
  0.000000 <= a1_x4 <= 100.000000
  0.000000 <= a1_x5 <= 100.000000
  0.000000 <= a1_x6 <= 100.000000
  0.000000 <= a2_x1 <= 100.000000
  0.000000 <= a2_x2 <= 100.000000
  0.000000 <= a2_x3 <= 100.000000
  0.000000 <= a2_x4 <= 100.000000
  0.000000 <= a2_x5 <= 100.000000
  0.000000 <= a2_x6 <= 100.000000
  0.000000 <= a3_x1 <= 100.000000
  0.000000 <= a3_x2 <= 100.000000
  0.000000 <= a3_x3 <= 100.000000
  0.000000 <= a3_x4 <= 100.000000
  0.000000 <= a3_x5 <= 100.000000
  0.000000 <= a3_x6 <= 100.000000
  0.000000 <= a4_x1 <= 100.000000
  0.000000 <= a4_x2 <= 100.000000
  0.000000 <= a4_x3 <= 100.000000
  0.000000 <= a4_x4 <= 100.000000
  0.000000 <= a4_x5 <= 100.000000
  0.000000 <= a4_x6 <= 100.000000
  0.000000 <= short_1 <= +inf
  0.000000 <= surp_1 <= +inf
  0.000000 <= short_2 <= +inf
  0.000000 <= surp_2 <= +inf
  0.000000 <= short_3 <= +inf
  0.000000 <= surp_3 <= +inf
 0 <= a1_z1 <= 1
 0 <= a1_z2 <= 1
 0 <= a2_z1 <= 1
 0 <= a2_z2 <= 1
 0 <= a3_z1 <= 1
 0 <= a3_z2 <= 1
 0 <= a4_z1 <= 1
 0 <= a4_z2 <= 1

binary
  a1_z1
  a1_z2
  a2_z1
  a2_z2
  a3_z1
  a3_z2
  a4_z1
  a4_z2
end
