min
obj: 
  +5.24362332399284625 a1_x1
  +8.06959664561268042 a1_x2
  +3.47810228856863679 a1_x3
  +9.41205830682384104 a1_x4
  +8.31656886029670339 a1_x5
  +6.80028019197109046 a1_x6
  +10.41050343041974102 a1_z1
  +29.39644014342060530 a1_z2
  +8.28066141375753872 a2_x1
  +6.06494311381576523 a2_x2
  +8.65417661359723311 a2_x3
  +4.32929045080204133 a2_x4
  +7.27024404204758401 a2_x5
  +4.53185167774403475 a2_x6
  +14.32924585982750010 a2_z1
  +33.49545064378996528 a2_z2
  +3.46672163395224064 a3_x1
  +8.73068689063360637 a3_x2
  +5.78731633243780319 a3_x3
  +5.65993509091970015 a3_x4
  +4.88699203046912878 a3_x5
  +4.33566741350590856 a3_x6
  +5.90058593924896702 a3_z1
  +40.30367968473242257 a3_z2
  +4.52735162287015491 a4_x1
  +9.79326185053260900 a4_x2
  +5.17425215108361947 a4_x3
  +5.44899982766291835 a4_x4
  +4.65504731238401082 a4_x5
  +5.18157972709797487 a4_x6
  +20.49298729783527051 a4_z1
  +8.57422142752452210 a4_z2
  +1000000.00000000000000000 short_1
  +1000000.00000000000000000 surp_1
  +1000000.00000000000000000 short_2
  +1000000.00000000000000000 surp_2
  +1000000.00000000000000000 short_3
  +1000000.00000000000000000 surp_3

s.t.

a1_local_1: 
+0.01389983735026916 a1_x4
+0.00847749768918343 a1_x6
+0.01065077721420181 a1_x1
<= 2.166998

a1_local_2: 
+0.00906774276580820 a1_x5
+0.00500090638777078 a1_x4
+0.01411751369580709 a1_x1
<= 0.881049

a1_local_3: 
+0.01031548926056935 a1_x3
+0.00714611485549725 a1_x6
+0.01020430528255871 a1_x5
<= 0.971598

a1_local_4: 
+0.00737580391424521 a1_x3
+0.01415680219984876 a1_x5
+0.01475616537553926 a1_x4
<= 2.074863

a1_local_5: 
+0.01038217334893301 a1_x5
+0.01367313182647463 a1_x2
+0.01454523260618666 a1_x1
<= 2.384803

a1_local_6: 
+0.00817285097432050 a1_x3
+0.00594379314738457 a1_x2
+0.00858546961785425 a1_x5
<= 1.389989

a1_local_7: 
+0.00635960288872637 a1_x1
+0.01451375408366661 a1_x5
+0.00724432860570844 a1_x6
<= 1.757989

a1_local_8: 
+0.01157937428839154 a1_x1
+0.01487749256946857 a1_x5
+0.01034405133574111 a1_x3
<= 2.153796

a1_act_1: 
+1.00000000000000000 a1_x1
-100.00000000000000000 a1_z1
<= 0.000000

a1_act_2: 
+1.00000000000000000 a1_x2
-100.00000000000000000 a1_z2
<= 0.000000

a2_local_1: 
+0.15549773484180060 a2_x2
+0.28614973564456536 a2_x5
+0.25934583010587481 a2_x6
<= 35.748046

a2_local_2: 
+0.30794502961675574 a2_x5
+0.23277392761240767 a2_x3
+0.15119879793137453 a2_x4
<= 24.139491

a2_local_3: 
+0.27195786488118850 a2_x3
+0.24539620759546835 a2_x1
+0.22085221988508824 a2_x2
<= 36.629718

a2_local_4: 
+0.12919267122959416 a2_x1
+0.29067584955044695 a2_x3
+0.23555800534238677 a2_x4
<= 45.739653

a2_local_5: 
+0.15631377962156742 a2_x4
+0.22345047144837188 a2_x5
+0.26969951593282115 a2_x2
<= 29.358144

a2_local_6: 
+0.15398930945176681 a2_x6
+0.18203223809216323 a2_x1
+0.20677230757795334 a2_x3
<= 20.207359

a2_local_7: 
+0.24136644458441386 a2_x4
+0.15657609303068945 a2_x6
+0.30293116805626724 a2_x2
<= 46.873655

a2_local_8: 
+0.18134795039596788 a2_x6
+0.22133022835061780 a2_x5
+0.16467418003305115 a2_x4
<= 31.067282

a2_act_1: 
+1.00000000000000000 a2_x1
-100.00000000000000000 a2_z1
<= 0.000000

a2_act_2: 
+1.00000000000000000 a2_x2
-100.00000000000000000 a2_z2
<= 0.000000

a3_local_1: 
+5.70120286635113249 a3_x4
+3.90537049740375419 a3_x1
+3.11092805286566909 a3_x5
<= 764.369738

a3_local_2: 
+2.57681403772561612 a3_x2
+2.37801877970378639 a3_x4
+6.08559451318061129 a3_x3
<= 600.936212

a3_local_3: 
+6.70042778278510198 a3_x4
+5.14065442432994768 a3_x6
+6.04614090149411876 a3_x5
<= 741.616873

a3_local_4: 
+6.72364445496217478 a3_x4
+3.01869714590011728 a3_x2
+4.54904266854170647 a3_x6
<= 832.857018

a3_local_5: 
+5.28680034545818511 a3_x3
+2.73458943894746831 a3_x4
+2.71364732374017903 a3_x2
<= 383.527316

a3_local_6: 
+6.60640111072297387 a3_x4
+6.42719102055362868 a3_x1
+4.65692158690804714 a3_x6
<= 905.529997

a3_local_7: 
+6.43393832479551442 a3_x4
+3.90632348806893814 a3_x5
+3.20696808116009757 a3_x2
<= 907.321828

a3_local_8: 
+3.14598122376469291 a3_x2
+5.15517218398808463 a3_x5
+4.54176059215327665 a3_x3
<= 674.203013

a3_act_1: 
+1.00000000000000000 a3_x1
-100.00000000000000000 a3_z1
<= 0.000000

a3_act_2: 
+1.00000000000000000 a3_x2
-100.00000000000000000 a3_z2
<= 0.000000

a4_local_1: 
+141.40868601021492168 a4_x5
+74.02989821628929690 a4_x6
+73.02348485203997086 a4_x2
<= 10168.211512

a4_local_2: 
+130.68785430691463034 a4_x5
+69.91306966130997580 a4_x4
+132.55159889234820980 a4_x1
<= 17365.449491

a4_local_3: 
+87.04259175912083890 a4_x6
+86.53003946197152629 a4_x2
+128.63043878278386956 a4_x3
<= 12836.494327

a4_local_4: 
+112.88921474436341441 a4_x2
+102.08682802230183029 a4_x6
+143.69927713617082077 a4_x4
<= 21400.241830

a4_local_5: 
+121.86004115751995869 a4_x2
+69.16035168262177990 a4_x1
+96.94988680747123055 a4_x3
<= 13161.667429

a4_local_6: 
+121.25653890802934143 a4_x3
+122.56958229952390127 a4_x5
+119.62325548837213773 a4_x2
<= 18282.443736

a4_local_7: 
+52.86561979887941476 a4_x5
+128.35579708471337312 a4_x2
+55.79554801548023590 a4_x4
<= 11549.872029

a4_local_8: 
+115.45036559333455273 a4_x1
+136.37189998905586208 a4_x5
+78.03393345213997634 a4_x4
<= 19902.277801

a4_act_1: 
+1.00000000000000000 a4_x1
-100.00000000000000000 a4_z1
<= 0.000000

a4_act_2: 
+1.00000000000000000 a4_x2
-100.00000000000000000 a4_z2
<= 0.000000

coupling_1: 
+0.00002514137991035 a1_x1
+0.00039308890075162 a2_x1
+0.01263555156100290 a3_x1
+0.32546897822232385 a4_x1
+0.00242511097575557 short_1
-0.00242511097575557 surp_1
= 9.466768

coupling_2: 
+0.00002140102284682 a1_x2
+0.00039797636390526 a2_x2
+0.01293473754332388 a3_x2
+0.28623533075081853 a4_x2
+0.00242511097575557 short_2
-0.00242511097575557 surp_2
= 20.145386

coupling_3: 
+0.00002842492908162 a1_x3
+0.00043214845716358 a2_x3
+0.01039391806238321 a3_x3
+0.17889865554917425 a4_x3
+0.00242511097575557 short_3
-0.00242511097575557 surp_3
= 9.679888

bounds
  0.000000 <= a1_x1 <= 100.000000
  0.000000 <= a1_x2 <= 100.000000
  0.000000 <= a1_x3 <= 100.000000
  0.000000 <= a1_x4 <= 100.000000
  0.000000 <= a1_x5 <= 100.000000
  0.000000 <= a1_x6 <= 100.000000
  0.000000 <= a2_x1 <= 100.000000
  0.000000 <= a2_x2 <= 100.000000
  0.000000 <= a2_x3 <= 100.000000
  0.000000 <= a2_x4 <= 100.000000
  0.000000 <= a2_x5 <= 100.000000
  0.000000 <= a2_x6 <= 100.000000
  0.000000 <= a3_x1 <= 100.000000
  0.000000 <= a3_x2 <= 100.000000
  0.000000 <= a3_x3 <= 100.000000
  0.000000 <= a3_x4 <= 100.000000
  0.000000 <= a3_x5 <= 100.000000
  0.000000 <= a3_x6 <= 100.000000
  0.000000 <= a4_x1 <= 100.000000
  0.000000 <= a4_x2 <= 100.000000
  0.000000 <= a4_x3 <= 100.000000
  0.000000 <= a4_x4 <= 100.000000
  0.000000 <= a4_x5 <= 100.000000
  0.000000 <= a4_x6 <= 100.000000
  0.000000 <= short_1 <= +inf
  0.000000 <= surp_1 <= +inf
  0.000000 <= short_2 <= +inf
  0.000000 <= surp_2 <= +inf
  0.000000 <= short_3 <= +inf
  0.000000 <= surp_3 <= +inf
 0 <= a1_z1 <= 1
 0 <= a1_z2 <= 1
 0 <= a2_z1 <= 1
 0 <= a2_z2 <= 1
 0 <= a3_z1 <= 1
 0 <= a3_z2 <= 1
 0 <= a4_z1 <= 1
 0 <= a4_z2 <= 1

binary
  a1_z1
  a1_z2
  a2_z1
  a2_z2
  a3_z1
  a3_z2
  a4_z1
  a4_z2
end
