min
obj: 
  +4.10293210566149646 a1_x1
  +3.32901181929639423 a1_x2
  +9.10176472428019245 a1_x3
  +1.02767819950250816 a1_x4
  +7.50152284301075145 a1_x5
  +9.69522117714092246 a1_x6
  +46.46239370281180214 a1_z1
  +20.97693906303189948 a1_z2
  +8.73612443817434503 a2_x1
  +2.04228756855595339 a2_x2
  +7.91416373752481395 a2_x3
  +8.85104976446995906 a2_x4
  +5.35890260317347789 a2_x5
  +4.46510259611176785 a2_x6
  +43.59910462783197715 a2_z1
  +13.73633673727412230 a2_z2
  +8.77121756982191414 a3_x1
  +5.76281450528001393 a3_x2
  +8.52709380603204359 a3_x3
  +1.13892657158295396 a3_x4
  +2.91144295006929399 a3_x5
  +3.02757282316255294 a3_x6
  +21.64888772902043002 a3_z1
  +37.44350625095739105 a3_z2
  +3.73746776663401503 a4_x1
  +6.30470396079639350 a4_x2
  +7.23244248154489888 a4_x3
  +3.53129435828251648 a4_x4
  +2.19432544763669313 a4_x5
  +2.79667117057261105 a4_x6
  +25.76781967633817416 a4_z1
  +25.23373202259198678 a4_z2
  +1000000.00000000000000000 short_1
  +1000000.00000000000000000 surp_1
  +1000000.00000000000000000 short_2
  +1000000.00000000000000000 surp_2
  +1000000.00000000000000000 short_3
  +1000000.00000000000000000 surp_3

s.t.

a1_local_1: 
+0.01082867772376031 a1_x6
+0.00754232025463794 a1_x1
+0.00746782626136541 a1_x4
<= 1.167805

a1_local_2: 
+0.00633013057214563 a1_x6
+0.00761050040015300 a1_x5
+0.01011009588243543 a1_x4
<= 1.072640

a1_local_3: 
+0.00973223732128383 a1_x1
+0.01354047148240749 a1_x5
+0.01095205801113152 a1_x6
<= 1.564536

a1_local_4: 
+0.01130554173984524 a1_x4
+0.00618344281528857 a1_x5
+0.01387825427925743 a1_x3
<= 2.151826

a1_local_5: 
+0.00561907335720915 a1_x6
+0.01165113428004809 a1_x2
+0.01009544644048880 a1_x1
<= 1.060753

a1_local_6: 
+0.01199930555273783 a1_x5
+0.00961660512662731 a1_x1
+0.01462625846964541 a1_x6
<= 2.195332

a1_local_7: 
+0.00736146849314686 a1_x5
+0.01246972154874555 a1_x1
+0.00587856908844011 a1_x3
<= 1.320228

a1_local_8: 
+0.00774471656744644 a1_x1
+0.01272287882671068 a1_x3
+0.01270966592307801 a1_x4
<= 1.870841

a1_act_1: 
+1.00000000000000000 a1_x1
-100.00000000000000000 a1_z1
<= 0.000000

a1_act_2: 
+1.00000000000000000 a1_x2
-100.00000000000000000 a1_z2
<= 0.000000

a2_local_1: 
+0.16874020838000170 a2_x4
+0.30884531729752479 a2_x5
+0.27008404501077632 a2_x1
<= 22.497814

a2_local_2: 
+0.31597937776604895 a2_x4
+0.28073068559749037 a2_x5
+0.13551394248988732 a2_x2
<= 35.153846

a2_local_3: 
+0.26349264713258014 a2_x6
+0.30310866986429025 a2_x3
+0.22415811027748173 a2_x4
<= 51.310796

a2_local_4: 
+0.20896819223075633 a2_x3
+0.18658336937596309 a2_x2
+0.24612277690297074 a2_x5
<= 28.665361

a2_local_5: 
+0.29762725754513503 a2_x3
+0.30611506670066568 a2_x4
+0.15504533221095149 a2_x5
<= 52.730708

a2_local_6: 
+0.26579963088221581 a2_x1
+0.17387445727152168 a2_x4
+0.29799893345048623 a2_x5
<= 48.641861

a2_local_7: 
+0.26770820138656631 a2_x6
+0.31743168201174288 a2_x2
+0.28999280017385132 a2_x4
<= 39.779101

a2_local_8: 
+0.31867571784930876 a2_x5
+0.26463879408644442 a2_x1
+0.18863321282450682 a2_x3
<= 28.115175

a2_act_1: 
+1.00000000000000000 a2_x1
-100.00000000000000000 a2_z1
<= 0.000000

a2_act_2: 
+1.00000000000000000 a2_x2
-100.00000000000000000 a2_z2
<= 0.000000

a3_local_1: 
+2.49506283073924884 a3_x4
+6.61195248636352506 a3_x2
+3.81177568504578090 a3_x6
<= 787.025257

a3_local_2: 
+5.65359107305931197 a3_x1
+5.00507195216197598 a3_x4
+3.46969657355277850 a3_x2
<= 908.801632

a3_local_3: 
+3.27498298765116225 a3_x3
+3.57926761762390466 a3_x6
+4.18349020550055695 a3_x5
<= 592.407682

a3_local_4: 
+2.51477844293850961 a3_x6
+4.34117093935748866 a3_x4
+5.58954085509454135 a3_x1
<= 850.398091

a3_local_5: 
+3.30833410208874446 a3_x6
+6.39207882245977110 a3_x4
+2.88005417399536645 a3_x3
<= 421.491927

a3_local_6: 
+3.72968140911799040 a3_x2
+3.35488206243248932 a3_x6
+5.64591227224811565 a3_x5
<= 649.333204

a3_local_7: 
+3.09066258498475177 a3_x3
+2.58147548949218297 a3_x4
+4.91011904556873624 a3_x5
<= 731.443489

a3_local_8: 
+3.66397195434255352 a3_x5
+6.60179621726092680 a3_x1
+5.45338377574283228 a3_x6
<= 703.068501

a3_act_1: 
+1.00000000000000000 a3_x1
-100.00000000000000000 a3_z1
<= 0.000000

a3_act_2: 
+1.00000000000000000 a3_x2
-100.00000000000000000 a3_z2
<= 0.000000

a4_local_1: 
+138.62282819263990064 a4_x5
+104.78162595376589650 a4_x2
+82.32760417079809656 a4_x1
<= 16705.647191

a4_local_2: 
+136.27381719005083482 a4_x4
+108.77655395092409663 a4_x6
+142.21902753143493214 a4_x2
<= 27062.462370

a4_local_3: 
+139.21278594327404221 a4_x3
+59.59822075729853452 a4_x6
+63.00778763279807038 a4_x4
<= 8677.902643

a4_local_4: 
+108.53606089393620948 a4_x6
+124.30817034139248278 a4_x1
+66.04424317276715328 a4_x2
<= 9346.073258

a4_local_5: 
+123.70642344216275887 a4_x5
+84.92401140349366528 a4_x6
+145.25339836563341578 a4_x1
<= 23997.920257

a4_local_6: 
+126.61144102702735381 a4_x1
+92.87661640990624790 a4_x3
+101.28172753983979248 a4_x6
<= 16433.228021

a4_local_7: 
+122.47874733283086357 a4_x1
+62.22046059340563318 a4_x3
+130.62234300634131046 a4_x6
<= 19060.668132

a4_local_8: 
+118.93236725313536795 a4_x1
+136.94514832131369531 a4_x3
+88.67543750198674957 a4_x4
<= 21623.643970

a4_act_1: 
+1.00000000000000000 a4_x1
-100.00000000000000000 a4_z1
<= 0.000000

a4_act_2: 
+1.00000000000000000 a4_x2
-100.00000000000000000 a4_z2
<= 0.000000

coupling_1: 
+6.89208317477683430 a1_x1
+252.73783104123663179 a2_x1
+2190.57930582810786291 a3_x1
+81281.74494398439128418 a4_x1
+895.21454073836207499 short_1
-895.21454073836207499 surp_1
= 3462251.514940

coupling_2: 
+5.81768544245101804 a1_x2
+209.96318805022229981 a2_x2
+2961.31903224369852978 a3_x2
+64200.74804776927339844 a4_x2
+895.21454073836207499 short_2
-895.21454073836207499 surp_2
= 3189328.824539

coupling_3: 
+8.03050477495862580 a1_x3
+216.34013087251005913 a2_x3
+2219.19264220018840206 a3_x3
+70558.64167375894612633 a4_x3
+895.21454073836207499 short_3
-895.21454073836207499 surp_3
= 2817113.972436

bounds
  0.000000 <= a1_x1 <= 100.000000
  0.000000 <= a1_x2 <= 100.000000
  0.000000 <= a1_x3 <= 100.000000
  0.000000 <= a1_x4 <= 100.000000
  0.000000 <= a1_x5 <= 100.000000
  0.000000 <= a1_x6 <= 100.000000
  0.000000 <= a2_x1 <= 100.000000
  0.000000 <= a2_x2 <= 100.000000
  0.000000 <= a2_x3 <= 100.000000
  0.000000 <= a2_x4 <= 100.000000
  0.000000 <= a2_x5 <= 100.000000
  0.000000 <= a2_x6 <= 100.000000
  0.000000 <= a3_x1 <= 100.000000
  0.000000 <= a3_x2 <= 100.000000
  0.000000 <= a3_x3 <= 100.000000
  0.000000 <= a3_x4 <= 100.000000
  0.000000 <= a3_x5 <= 100.000000
  0.000000 <= a3_x6 <= 100.000000
  0.000000 <= a4_x1 <= 100.000000
  0.000000 <= a4_x2 <= 100.000000
  0.000000 <= a4_x3 <= 100.000000
  0.000000 <= a4_x4 <= 100.000000
  0.000000 <= a4_x5 <= 100.000000
  0.000000 <= a4_x6 <= 100.000000
  0.000000 <= short_1 <= +inf
  0.000000 <= surp_1 <= +inf
  0.000000 <= short_2 <= +inf
  0.000000 <= surp_2 <= +inf
  0.000000 <= short_3 <= +inf
  0.000000 <= surp_3 <= +inf
 0 <= a1_z1 <= 1
 0 <= a1_z2 <= 1
 0 <= a2_z1 <= 1
 0 <= a2_z2 <= 1
 0 <= a3_z1 <= 1
 0 <= a3_z2 <= 1
 0 <= a4_z1 <= 1
 0 <= a4_z2 <= 1

binary
  a1_z1
  a1_z2
  a2_z1
  a2_z2
  a3_z1
  a3_z2
  a4_z1
  a4_z2
end
