min
obj: 
  +2.62040292120299334 a1_x1
  +1.02293933329670939 a1_x2
  +7.19109322240713489 a1_x3
  +4.26327457704359070 a1_x4
  +6.02462654690972954 a1_x5
  +8.55420542223946256 a1_x6
  +28.11411837117618262 a1_z1
  +36.33719979534413369 a1_z2
  +2.39250112218893918 a2_x1
  +1.83547081268154932 a2_x2
  +3.26801901615166557 a2_x3
  +8.57451293041723162 a2_x4
  +5.28554157085463672 a2_x5
  +8.07508570205658316 a2_x6
  +37.67992106218490278 a2_z1
  +30.78606331188496270 a2_z2
  +6.90983361892269166 a3_x1
  +7.22469297213641504 a3_x2
  +2.76350562177570946 a3_x3
  +4.58041526640907559 a3_x4
  +5.53917660184281146 a3_x5
  +2.52802612578793617 a3_x6
  +24.71990871554554658 a3_z1
  +39.06095262734275053 a3_z2
  +7.87721431876430422 a4_x1
  +7.82223412443215427 a4_x2
  +1.26243572521241743 a4_x3
  +2.93412910760232926 a4_x4
  +4.86803560394161750 a4_x5
  +9.50434430207515391 a4_x6
  +34.58728502900768120 a4_z1
  +29.50594267162487938 a4_z2
  +1000000.00000000000000000 short_1
  +1000000.00000000000000000 surp_1
  +1000000.00000000000000000 short_2
  +1000000.00000000000000000 surp_2
  +1000000.00000000000000000 short_3
  +1000000.00000000000000000 surp_3

s.t.

a1_local_1: 
+0.01362537162126616 a1_x3
+0.00633078164551647 a1_x5
+0.00999667591869296 a1_x4
<= 1.959912

a1_local_2: 
+0.01383362107618001 a1_x6
+0.00969831525200842 a1_x5
+0.01411280787008915 a1_x4
<= 1.994655

a1_local_3: 
+0.01449015622890241 a1_x4
+0.01064842499003934 a1_x3
+0.01404951957140155 a1_x1
<= 2.735114

a1_local_4: 
+0.00551634138173959 a1_x4
+0.00863558395082140 a1_x2
+0.01194401235928181 a1_x5
<= 1.091074

a1_local_5: 
+0.00571943876921185 a1_x2
+0.00977844737552489 a1_x4
+0.00841708436346402 a1_x3
<= 0.776894

a1_local_6: 
+0.01289646087718935 a1_x6
+0.00895699051123347 a1_x1
+0.00667578407259465 a1_x4
<= 1.756497

a1_local_7: 
+0.01469898979139514 a1_x2
+0.00786209166091289 a1_x5
+0.01398770131311635 a1_x1
<= 1.922725

a1_local_8: 
+0.01199774942846622 a1_x3
+0.01221587881614705 a1_x4
+0.00548270815771420 a1_x5
<= 0.903335

a1_act_1: 
+1.00000000000000000 a1_x1
-100.00000000000000000 a1_z1
<= 0.000000

a1_act_2: 
+1.00000000000000000 a1_x2
-100.00000000000000000 a1_z2
<= 0.000000

a2_local_1: 
+0.19775327389823391 a2_x1
+0.15865874568316388 a2_x5
+0.32156952572610370 a2_x6
<= 31.855213

a2_local_2: 
+0.23536455053351349 a2_x5
+0.11724893835949013 a2_x2
+0.27839700916158899 a2_x4
<= 36.493849

a2_local_3: 
+0.18604714376703479 a2_x4
+0.28507183284513432 a2_x5
+0.12736590262433992 a2_x1
<= 20.212210

a2_local_4: 
+0.15378435012825487 a2_x6
+0.23103952695268140 a2_x1
+0.19050854249174104 a2_x3
<= 31.053984

a2_local_5: 
+0.23179674955958429 a2_x4
+0.15679463874693714 a2_x5
+0.30887493394326648 a2_x3
<= 21.606477

a2_local_6: 
+0.12024136573207493 a2_x5
+0.10969057629122030 a2_x3
+0.10832012905446609 a2_x1
<= 22.946092

a2_local_7: 
+0.26686403271324960 a2_x3
+0.26792380827117596 a2_x1
+0.25363749939521402 a2_x4
<= 31.003209

a2_local_8: 
+0.12392552684329783 a2_x6
+0.10936647926759209 a2_x1
+0.13858567819400364 a2_x3
<= 23.182648

a2_act_1: 
+1.00000000000000000 a2_x1
-100.00000000000000000 a2_z1
<= 0.000000

a2_act_2: 
+1.00000000000000000 a2_x2
-100.00000000000000000 a2_z2
<= 0.000000

a3_local_1: 
+6.87094336512852344 a3_x2
+4.12931753903848087 a3_x1
+5.33986549102776031 a3_x3
<= 872.615489

a3_local_2: 
+3.28654874247896389 a3_x6
+2.91328919573978640 a3_x5
+5.65670124419704567 a3_x2
<= 454.933761

a3_local_3: 
+5.32074447047056776 a3_x3
+2.67266599253697912 a3_x6
+4.38264156270081795 a3_x4
<= 655.686860

a3_local_4: 
+4.96556604032955740 a3_x1
+3.67213378278989033 a3_x4
+6.00838222423320456 a3_x3
<= 708.220833

a3_local_5: 
+6.58922806750399204 a3_x1
+6.03598744495082506 a3_x2
+5.14775757577208992 a3_x3
<= 848.433240

a3_local_6: 
+2.37536200817010101 a3_x5
+6.79927849598101197 a3_x1
+4.90163425527798768 a3_x2
<= 881.954172

a3_local_7: 
+6.13666246663692672 a3_x5
+2.88845861277809313 a3_x6
+4.99255508661146497 a3_x3
<= 638.041351

a3_local_8: 
+5.39374162123451750 a3_x2
+2.48191095715459076 a3_x6
+5.91998108496878217 a3_x4
<= 585.140571

a3_act_1: 
+1.00000000000000000 a3_x1
-100.00000000000000000 a3_z1
<= 0.000000

a3_act_2: 
+1.00000000000000000 a3_x2
-100.00000000000000000 a3_z2
<= 0.000000

a4_local_1: 
+130.74359603982782119 a4_x5
+98.40107019323089332 a4_x4
+112.76050402093224534 a4_x6
<= 11136.964640

a4_local_2: 
+80.95213099642286636 a4_x6
+136.44171156052757965 a4_x4
+70.08391871167908960 a4_x2
<= 11023.701728

a4_local_3: 
+57.23423289786050105 a4_x1
+86.07371982655043041 a4_x6
+136.82131242885890288 a4_x5
<= 17844.394860

a4_local_4: 
+107.54849126130321224 a4_x3
+74.86557251036613536 a4_x5
+71.58790785714158744 a4_x4
<= 14505.758426

a4_local_5: 
+136.73089241876854771 a4_x2
+57.82045584365470603 a4_x1
+135.16439990407968708 a4_x5
<= 10705.261716

a4_local_6: 
+141.94314221294365552 a4_x6
+91.85165971158768627 a4_x5
+75.76196538500748545 a4_x4
<= 21349.901235

a4_local_7: 
+136.92673384369632572 a4_x6
+106.19080401981864270 a4_x1
+92.24103312809776867 a4_x4
<= 12960.373219

a4_local_8: 
+143.07669664222930805 a4_x6
+131.43295814786623055 a4_x1
+56.05461778561055297 a4_x2
<= 13050.111133

a4_act_1: 
+1.00000000000000000 a4_x1
-100.00000000000000000 a4_z1
<= 0.000000

a4_act_2: 
+1.00000000000000000 a4_x2
-100.00000000000000000 a4_z2
<= 0.000000

coupling_1: 
+0.24573530669464183 a1_x1
+9.48496233887642681 a2_x1
+211.53523231530854787 a3_x1
+4145.35555915715212905 a4_x1
+33.21878894272892779 short_1
-33.21878894272892779 surp_1
= 246830.383321

coupling_2: 
+0.16704306669342056 a1_x2
+8.06418377544035181 a2_x2
+105.53059129677551198 a3_x2
+3926.56688279512491135 a4_x2
+33.21878894272892779 short_2
-33.21878894272892779 surp_2
= 282744.139317

coupling_3: 
+0.39822059348117861 a1_x3
+8.79709914315586516 a2_x3
+192.16683067526884088 a3_x3
+4310.61505294180551573 a4_x3
+33.21878894272892779 short_3
-33.21878894272892779 surp_3
= 160420.447918

bounds
  0.000000 <= a1_x1 <= 100.000000
  0.000000 <= a1_x2 <= 100.000000
  0.000000 <= a1_x3 <= 100.000000
  0.000000 <= a1_x4 <= 100.000000
  0.000000 <= a1_x5 <= 100.000000
  0.000000 <= a1_x6 <= 100.000000
  0.000000 <= a2_x1 <= 100.000000
  0.000000 <= a2_x2 <= 100.000000
  0.000000 <= a2_x3 <= 100.000000
  0.000000 <= a2_x4 <= 100.000000
  0.000000 <= a2_x5 <= 100.000000
  0.000000 <= a2_x6 <= 100.000000
  0.000000 <= a3_x1 <= 100.000000
  0.000000 <= a3_x2 <= 100.000000
  0.000000 <= a3_x3 <= 100.000000
  0.000000 <= a3_x4 <= 100.000000
  0.000000 <= a3_x5 <= 100.000000
  0.000000 <= a3_x6 <= 100.000000
  0.000000 <= a4_x1 <= 100.000000
  0.000000 <= a4_x2 <= 100.000000
  0.000000 <= a4_x3 <= 100.000000
  0.000000 <= a4_x4 <= 100.000000
  0.000000 <= a4_x5 <= 100.000000
  0.000000 <= a4_x6 <= 100.000000
  0.000000 <= short_1 <= +inf
  0.000000 <= surp_1 <= +inf
  0.000000 <= short_2 <= +inf
  0.000000 <= surp_2 <= +inf
  0.000000 <= short_3 <= +inf
  0.000000 <= surp_3 <= +inf
 0 <= a1_z1 <= 1
 0 <= a1_z2 <= 1
 0 <= a2_z1 <= 1
 0 <= a2_z2 <= 1
 0 <= a3_z1 <= 1
 0 <= a3_z2 <= 1
 0 <= a4_z1 <= 1
 0 <= a4_z2 <= 1

binary
  a1_z1
  a1_z2
  a2_z1
  a2_z2
  a3_z1
  a3_z2
  a4_z1
  a4_z2
end
