min
obj: 
  +8.52421046785006808 a1_x1
  +7.69307565210918742 a1_x2
  +6.91899621560824230 a1_x3
  +9.20970734213053355 a1_x4
  +1.67836132765545631 a1_x5
  +5.99146020770216658 a1_x6
  +31.08072985890714435 a1_z1
  +20.88386702402789297 a1_z2
  +6.90777420422215815 a2_x1
  +5.08754459362986733 a2_x2
  +7.59170235780382363 a2_x3
  +8.27944903727416381 a2_x4
  +1.03512879040065853 a2_x5
  +5.78577237729060112 a2_x6
  +23.93421358976911506 a2_z1
  +21.52150514949614646 a2_z2
  +3.33875162916421697 a3_x1
  +6.11068986646011059 a3_x2
  +6.55082117265498010 a3_x3
  +5.19513264683116827 a3_x4
  +3.93701514527552376 a3_x5
  +3.37060916575937597 a3_x6
  +38.53959756350231913 a3_z1
  +26.75553244557287869 a3_z2
  +8.54382197580174818 a4_x1
  +7.14956107064012691 a4_x2
  +5.56590579337685210 a4_x3
  +2.52647125500070402 a4_x4
  +2.35011295395534869 a4_x5
  +8.78080461108212518 a4_x6
  +7.45391026181894656 a4_z1
  +36.01444945313909329 a4_z2
  +1000000.00000000000000000 short_1
  +1000000.00000000000000000 surp_1
  +1000000.00000000000000000 short_2
  +1000000.00000000000000000 surp_2
  +1000000.00000000000000000 short_3
  +1000000.00000000000000000 surp_3

s.t.

a1_local_1: 
+0.00630708143005991 a1_x6
+0.01358737841502925 a1_x2
+0.01303004382076408 a1_x4
<= 1.161303

a1_local_2: 
+0.01152781114522258 a1_x5
+0.00701766389528128 a1_x2
+0.00867594544148946 a1_x1
<= 1.062600

a1_local_3: 
+0.00850638389791281 a1_x4
+0.00565101208201029 a1_x2
+0.00800085080995588 a1_x1
<= 0.934567

a1_local_4: 
+0.00669902766800993 a1_x4
+0.01256403097436077 a1_x2
+0.00990490723403285 a1_x6
<= 1.159355

a1_local_5: 
+0.01128959656064683 a1_x5
+0.01200766114697299 a1_x2
+0.00737423207543013 a1_x1
<= 1.157838

a1_local_6: 
+0.01464402913831837 a1_x2
+0.01021874908116620 a1_x5
+0.00618576567386863 a1_x6
<= 1.041748

a1_local_7: 
+0.01155776711302704 a1_x3
+0.00878324448847401 a1_x4
+0.00854593281774452 a1_x6
<= 1.573500

a1_local_8: 
+0.00732522222347790 a1_x6
+0.00818378055381734 a1_x2
+0.00997260547768142 a1_x5
<= 1.636007

a1_act_1: 
+1.00000000000000000 a1_x1
-100.00000000000000000 a1_z1
<= 0.000000

a1_act_2: 
+1.00000000000000000 a1_x2
-100.00000000000000000 a1_z2
<= 0.000000

a2_local_1: 
+0.13669675873606688 a2_x6
+0.15446467096363120 a2_x3
+0.12817480152052171 a2_x2
<= 13.417888

a2_local_2: 
+0.18742763219773920 a2_x5
+0.28745219910292813 a2_x3
+0.22913520939376505 a2_x2
<= 47.852903

a2_local_3: 
+0.22185394724539700 a2_x3
+0.29978223631961465 a2_x5
+0.27650908147608405 a2_x4
<= 36.014075

a2_local_4: 
+0.27909633329258809 a2_x3
+0.19010807522615744 a2_x5
+0.20956619343425900 a2_x4
<= 45.086416

a2_local_5: 
+0.24112622656338359 a2_x3
+0.18055954248389533 a2_x1
+0.25328544300977085 a2_x2
<= 44.728868

a2_local_6: 
+0.17686029438442633 a2_x3
+0.21899049145634322 a2_x6
+0.16972888375810566 a2_x5
<= 22.344802

a2_local_7: 
+0.30873671389233587 a2_x4
+0.29361188992224996 a2_x5
+0.19164732368205289 a2_x2
<= 39.647087

a2_local_8: 
+0.15837007096997080 a2_x4
+0.22041508877149205 a2_x2
+0.18049878098357258 a2_x1
<= 27.070289

a2_act_1: 
+1.00000000000000000 a2_x1
-100.00000000000000000 a2_z1
<= 0.000000

a2_act_2: 
+1.00000000000000000 a2_x2
-100.00000000000000000 a2_z2
<= 0.000000

a3_local_1: 
+6.41334391594680131 a3_x6
+5.68980978179305996 a3_x1
+6.58026308208202515 a3_x5
<= 841.329190

a3_local_2: 
+3.01077887137793709 a3_x4
+4.48763242159887454 a3_x2
+3.83463293499825886 a3_x6
<= 698.956732

a3_local_3: 
+5.31114897153526577 a3_x3
+6.23318035024636607 a3_x2
+5.11767123303252003 a3_x6
<= 520.768889

a3_local_4: 
+6.43768704668541858 a3_x2
+5.78225553393596403 a3_x3
+6.54596596182830215 a3_x5
<= 1083.103084

a3_local_5: 
+5.04718697010250850 a3_x6
+2.56697959061044712 a3_x1
+6.90984189544350702 a3_x5
<= 916.242086

a3_local_6: 
+6.36937575861740335 a3_x6
+2.56172316705557224 a3_x2
+5.40468748945064892 a3_x1
<= 944.079002

a3_local_7: 
+5.53111091818735279 a3_x2
+4.96312759467119857 a3_x1
+6.94936615445570727 a3_x6
<= 912.955834

a3_local_8: 
+3.07798372493437666 a3_x1
+4.39917358974797335 a3_x5
+4.12606377655679957 a3_x4
<= 369.567311

a3_act_1: 
+1.00000000000000000 a3_x1
-100.00000000000000000 a3_z1
<= 0.000000

a3_act_2: 
+1.00000000000000000 a3_x2
-100.00000000000000000 a3_z2
<= 0.000000

a4_local_1: 
+63.98123295929527643 a4_x3
+110.65667947026361162 a4_x5
+67.23237280804892180 a4_x6
<= 10127.681960

a4_local_2: 
+146.29530018541871073 a4_x4
+101.04540539742004057 a4_x3
+140.80409358368339667 a4_x2
<= 12043.772456

a4_local_3: 
+72.03283113086669687 a4_x5
+117.00823344984270591 a4_x6
+52.49900702059926516 a4_x4
<= 13311.174696

a4_local_4: 
+89.65256641200328147 a4_x1
+70.87024352332119292 a4_x3
+123.36173012024360673 a4_x6
<= 8955.408072

a4_local_5: 
+130.14117074196286694 a4_x6
+84.73153718567508008 a4_x5
+146.69895382557047014 a4_x1
<= 22592.748383

a4_local_6: 
+52.73386134141889414 a4_x4
+96.91641477467284460 a4_x1
+146.67513313229628125 a4_x3
<= 13433.860332

a4_local_7: 
+122.48324706887530056 a4_x6
+130.32917768911806888 a4_x2
+139.12593013246680584 a4_x1
<= 20837.151705

a4_local_8: 
+57.61556020062796790 a4_x3
+136.63715836365403788 a4_x2
+113.09985776409673974 a4_x6
<= 20714.854283

a4_act_1: 
+1.00000000000000000 a4_x1
-100.00000000000000000 a4_z1
<= 0.000000

a4_act_2: 
+1.00000000000000000 a4_x2
-100.00000000000000000 a4_z2
<= 0.000000

coupling_1: 
+0.00012898525349297 a1_x1
+0.00268650726495388 a2_x1
+0.13325298529732907 a3_x1
+1.15773112072777162 a4_x1
+0.02301627134901173 short_1
-0.02301627134901173 surp_1
= 93.354529

coupling_2: 
+0.00017265668740458 a1_x2
+0.00451973985459406 a2_x2
+0.14112317828983453 a3_x2
+2.81270639020867952 a4_x2
+0.02301627134901173 short_2
-0.02301627134901173 surp_2
= 98.273085

coupling_3: 
+0.00012744009513039 a1_x3
+0.00321303410857315 a2_x3
+0.10094572520718031 a3_x3
+2.45816472925297047 a4_x3
+0.02301627134901173 short_3
-0.02301627134901173 surp_3
= 59.620469

bounds
  0.000000 <= a1_x1 <= 100.000000
  0.000000 <= a1_x2 <= 100.000000
  0.000000 <= a1_x3 <= 100.000000
  0.000000 <= a1_x4 <= 100.000000
  0.000000 <= a1_x5 <= 100.000000
  0.000000 <= a1_x6 <= 100.000000
  0.000000 <= a2_x1 <= 100.000000
  0.000000 <= a2_x2 <= 100.000000
  0.000000 <= a2_x3 <= 100.000000
  0.000000 <= a2_x4 <= 100.000000
  0.000000 <= a2_x5 <= 100.000000
  0.000000 <= a2_x6 <= 100.000000
  0.000000 <= a3_x1 <= 100.000000
  0.000000 <= a3_x2 <= 100.000000
  0.000000 <= a3_x3 <= 100.000000
  0.000000 <= a3_x4 <= 100.000000
  0.000000 <= a3_x5 <= 100.000000
  0.000000 <= a3_x6 <= 100.000000
  0.000000 <= a4_x1 <= 100.000000
  0.000000 <= a4_x2 <= 100.000000
  0.000000 <= a4_x3 <= 100.000000
  0.000000 <= a4_x4 <= 100.000000
  0.000000 <= a4_x5 <= 100.000000
  0.000000 <= a4_x6 <= 100.000000
  0.000000 <= short_1 <= +inf
  0.000000 <= surp_1 <= +inf
  0.000000 <= short_2 <= +inf
  0.000000 <= surp_2 <= +inf
  0.000000 <= short_3 <= +inf
  0.000000 <= surp_3 <= +inf
 0 <= a1_z1 <= 1
 0 <= a1_z2 <= 1
 0 <= a2_z1 <= 1
 0 <= a2_z2 <= 1
 0 <= a3_z1 <= 1
 0 <= a3_z2 <= 1
 0 <= a4_z1 <= 1
 0 <= a4_z2 <= 1

binary
  a1_z1
  a1_z2
  a2_z1
  a2_z2
  a3_z1
  a3_z2
  a4_z1
  a4_z2
end
