min
obj: 
  +1.8591431952918778 a1_x1
  +3.3231109040519993 a1_x2
  +9.2087059181463786 a1_x3
  +9.6203246603591985 a1_x4
  +2.6522167369866532 a1_x5
  +9.1942431803836406 a1_x6
  +15.231591264695247 a1_z1
  +37.870536168888826 a1_z2
  +9.5099240901526567 a2_x1
  +7.5753998333245365 a2_x2
  +7.2545869758953661 a2_x3
  +4.0776176539598987 a2_x4
  +7.0823179577413251 a2_x5
  +8.348071264940085 a2_x6
  +13.295788449057502 a2_z1
  +34.639218331961018 a2_z2
  +8.7650426689296079 a3_x1
  +7.7797720123238729 a3_x2
  +6.0483854765360672 a3_x3
  +6.4868155236610479 a3_x4
  +7.5914186799784584 a3_x5
  +2.6670787193002194 a3_x6
  +17.076428731733131 a3_z1
  +32.166931894716356 a3_z2
  +3.9578684115063361 a4_x1
  +4.7726522238702849 a4_x2
  +6.6226528859876028 a4_x3
  +9.5073045520096944 a4_x4
  +5.1085987408368467 a4_x5
  +6.1990863498809015 a4_x6
  +14.100841079092167 a4_z1
  +36.135322859790648 a4_z2
  +1000000 short_1
  +1000000 surp_1
  +1000000 short_2
  +1000000 surp_2
  +1000000 short_3
  +1000000 surp_3

s.t.

a1_local_1: 
+0.089464331444935652 a1_x5
+0.063535848743651965 a1_x4
+0.085836312455857766 a1_x3
<= 8.5262201293190572

a1_local_2: 
+0.12771120422091706 a1_x2
+0.086811311644212477 a1_x4
+0.099025782261363215 a1_x3
<= 21.114175529088151

a1_local_3: 
+0.11067179300559848 a1_x1
+0.065722297294827772 a1_x6
+0.13176736938999684 a1_x3
<= 12.783092065721602

a1_local_4: 
+0.13139489388724201 a1_x3
+0.13130321782795032 a1_x6
+0.13943613878262112 a1_x5
<= 23.954662408787129

a1_local_5: 
+0.11988124675651493 a1_x2
+0.11702439438557387 a1_x3
+0.10980022465551174 a1_x5
<= 11.522605888782223

a1_local_6: 
+0.13613608138366118 a1_x4
+0.14982391289795802 a1_x3
+0.1374714362291547 a1_x2
<= 27.664765424326404

a1_local_7: 
+0.080740616413265937 a1_x6
+0.08150040708539695 a1_x4
+0.065830459938306371 a1_x5
<= 15.232033054462315

a1_local_8: 
+0.097705757572827068 a1_x3
+0.13568482395949522 a1_x4
+0.066635491664750163 a1_x2
<= 20.597385966822117

a1_act_1: 
+1 a1_x1
-100 a1_z1
<= 0

a1_act_2: 
+1 a1_x2
-100 a1_z2
<= 0

a2_local_1: 
+0.51140652514905904 a2_x5
+0.62428331511328938 a2_x1
+0.26245015307816461 a2_x3
<= 89.962024314269996

a2_local_2: 
+0.51995823675303232 a2_x3
+0.47969357296189841 a2_x1
+0.60003905109844158 a2_x2
<= 95.76219958019729

a2_local_3: 
+0.37318171882349138 a2_x4
+0.50512066611548001 a2_x6
+0.51616734720599278 a2_x2
<= 45.903104859639768

a2_local_4: 
+0.66876191396897688 a2_x5
+0.54579570241004216 a2_x2
+0.4149875981751342 a2_x3
<= 88.612445318301411

a2_local_5: 
+0.63772816619695083 a2_x2
+0.56737692429587161 a2_x1
+0.51827546427339344 a2_x5
<= 57.279198642332446

a2_local_6: 
+0.24483118808278814 a2_x4
+0.68910359429491985 a2_x3
+0.47008426278471183 a2_x2
<= 98.065069824894692

a2_local_7: 
+0.48717608762904308 a2_x1
+0.52877324142735838 a2_x4
+0.25739550338611256 a2_x6
<= 63.895698127216548

a2_local_8: 
+0.34788775042305126 a2_x4
+0.34647969473880214 a2_x5
+0.43833459420870002 a2_x1
<= 70.264062211883299

a2_act_1: 
+1 a2_x1
-100 a2_z1
<= 0

a2_act_2: 
+1 a2_x2
-100 a2_z2
<= 0

a3_local_1: 
+2.3802879528858201 a3_x3
+1.4577620905296549 a3_x2
+1.2628755268967538 a3_x1
<= 295.61942658159137

a3_local_2: 
+2.9702312318121686 a3_x3
+1.1518802201101357 a3_x5
+2.0878910632077057 a3_x1
<= 365.15273183460795

a3_local_3: 
+1.599202588053247 a3_x1
+1.4147555487126271 a3_x6
+1.3257294516800582 a3_x5
<= 247.0773804646752

a3_local_4: 
+2.0454142921986151 a3_x4
+1.4615507424998275 a3_x5
+2.4928819453310567 a3_x3
<= 203.7960602619797

a3_local_5: 
+1.3275027410575371 a3_x5
+1.6113097670037695 a3_x2
+1.2682455528525105 a3_x3
<= 145.6957839339951

a3_local_6: 
+1.7175933153091458 a3_x1
+2.2042103224420813 a3_x4
+2.8985435695281994 a3_x6
<= 339.30085646732584

a3_local_7: 
+2.0834546074664329 a3_x2
+2.3233390543202463 a3_x6
+2.1633863516739149 a3_x3
<= 392.1621629506746

a3_local_8: 
+3.0234624072463308 a3_x4
+2.6449386501160408 a3_x3
+1.2731063561022058 a3_x1
<= 303.10991798766855

a3_act_1: 
+1 a3_x1
-100 a3_z1
<= 0

a3_act_2: 
+1 a3_x2
-100 a3_z2
<= 0

a4_local_1: 
+6.7459844590050375 a4_x4
+13.546757298857305 a4_x1
+7.5600109792124766 a4_x2
<= 977.56211538114519

a4_local_2: 
+9.2143012424365711 a4_x5
+8.472641343194427 a4_x4
+5.4062017999417957 a4_x1
<= 749.61990449357745

a4_local_3: 
+14.74917304923558 a4_x1
+6.6468936019158109 a4_x2
+8.54676615375719 a4_x4
<= 1187.8834243407628

a4_local_4: 
+12.631070872433252 a4_x6
+6.2343503429776295 a4_x3
+14.25640685331016 a4_x4
<= 1431.4559456439467

a4_local_5: 
+5.003204168375408 a4_x6
+13.723199515990121 a4_x3
+12.175659311910547 a4_x5
<= 965.02623002937423

a4_local_6: 
+7.1494825736606842 a4_x4
+7.3487750552554783 a4_x1
+10.850815552886656 a4_x5
<= 1264.3272184219095

a4_local_7: 
+5.8902308851630192 a4_x1
+5.9786498325616222 a4_x2
+13.171739841778646 a4_x3
<= 1282.3331884570616

a4_local_8: 
+7.5310121957964702 a4_x2
+10.218419378822585 a4_x3
+7.1734051653881039 a4_x4
<= 1637.5075240918188

a4_act_1: 
+1 a4_x1
-100 a4_z1
<= 0

a4_act_2: 
+1 a4_x2
-100 a4_z2
<= 0

coupling_1: 
+3.9006658844932182e-07 a1_x1
+2.3564691631380899e-06 a2_x1
+1.2915629979824889e-05 a3_x1
+6.8659425222486123e-05 a4_x1
+6.0609927206241268e-06 short_1
-6.0609927206241268e-06 surp_1
= 0.0065262536962467331

coupling_2: 
+5.7196496954702761e-07 a1_x2
+2.4633830199730032e-06 a2_x2
+1.3533485617715784e-05 a3_x2
+6.0456714158901279e-05 a4_x2
+6.0609927206241268e-06 short_2
-6.0609927206241268e-06 surp_2
= 0.0034119651207625773

coupling_3: 
+8.384468363938473e-07 a1_x3
+4.0999116472242045e-06 a2_x3
+1.1870866013529065e-05 a3_x3
+9.0665738008345489e-05 a4_x3
+6.0609927206241268e-06 short_3
-6.0609927206241268e-06 surp_3
= 0.0075192544434702158

bounds
  0 <= a1_x1 <= 100
  0 <= a1_x2 <= 100
  0 <= a1_x3 <= 100
  0 <= a1_x4 <= 100
  0 <= a1_x5 <= 100
  0 <= a1_x6 <= 100
  0 <= a2_x1 <= 100
  0 <= a2_x2 <= 100
  0 <= a2_x3 <= 100
  0 <= a2_x4 <= 100
  0 <= a2_x5 <= 100
  0 <= a2_x6 <= 100
  0 <= a3_x1 <= 100
  0 <= a3_x2 <= 100
  0 <= a3_x3 <= 100
  0 <= a3_x4 <= 100
  0 <= a3_x5 <= 100
  0 <= a3_x6 <= 100
  0 <= a4_x1 <= 100
  0 <= a4_x2 <= 100
  0 <= a4_x3 <= 100
  0 <= a4_x4 <= 100
  0 <= a4_x5 <= 100
  0 <= a4_x6 <= 100
  0 <= short_1 <= +inf
  0 <= surp_1 <= +inf
  0 <= short_2 <= +inf
  0 <= surp_2 <= +inf
  0 <= short_3 <= +inf
  0 <= surp_3 <= +inf
 0 <= a1_z1 <= 1
 0 <= a1_z2 <= 1
 0 <= a2_z1 <= 1
 0 <= a2_z2 <= 1
 0 <= a3_z1 <= 1
 0 <= a3_z2 <= 1
 0 <= a4_z1 <= 1
 0 <= a4_z2 <= 1

binary
  a1_z1
  a1_z2
  a2_z1
  a2_z2
  a3_z1
  a3_z2
  a4_z1
  a4_z2
end
