min
obj: 
  +4.6121734767481746 a1_x1
  +8.3726653944305163 a1_x2
  +3.8874111784256438 a1_x3
  +3.5735214707131471 a1_x4
  +7.9063268225890937 a1_x5
  +6.5043346512565909 a1_x6
  +46.9551209495583 a1_z1
  +19.806653497637782 a1_z2
  +7.6567171580139357 a2_x1
  +8.2043744709301158 a2_x2
  +3.6188691473828523 a2_x3
  +5.2859257046209569 a2_x4
  +3.3947769180807601 a2_x5
  +2.5210962766084055 a2_x6
  +31.130882329794158 a2_z1
  +23.010561281727053 a2_z2
  +6.9874663911383514 a3_x1
  +2.0892016241128126 a3_x2
  +9.3610808006140438 a3_x3
  +4.8509819599704116 a3_x4
  +1.7243146015797635 a3_x5
  +7.0038934437638574 a3_x6
  +33.012677472845496 a3_z1
  +8.0010596287278375 a3_z2
  +6.4216192335644386 a4_x1
  +2.3877334915960096 a4_x2
  +7.475862409648836 a4_x3
  +7.4106096914751971 a4_x4
  +8.5860247699785965 a4_x5
  +3.4325757317506875 a4_x6
  +23.317265071624306 a4_z1
  +25.042487194398138 a4_z2
  +1000000 short_1
  +1000000 surp_1
  +1000000 short_2
  +1000000 surp_2
  +1000000 short_3
  +1000000 surp_3

s.t.

a1_local_1: 
+0.12906075671666126 a1_x1
+0.11467248542671236 a1_x6
+0.12535136551582124 a1_x2
<= 22.46532698533402

a1_local_2: 
+0.10554806069745443 a1_x4
+0.079273265620465119 a1_x6
+0.072917640940800832 a1_x2
<= 9.6576027231339481

a1_local_3: 
+0.14722491353981429 a1_x2
+0.14175620560284771 a1_x1
+0.066704198182762006 a1_x5
<= 13.668465484708316

a1_local_4: 
+0.1488898757558407 a1_x1
+0.076569309833190977 a1_x2
+0.05927113466916023 a1_x4
<= 8.9888170535162164

a1_local_5: 
+0.092224108861290621 a1_x2
+0.059949888588088557 a1_x6
+0.066548486046321742 a1_x3
<= 7.6680658422657233

a1_local_6: 
+0.13144594820566921 a1_x4
+0.11225350297812919 a1_x6
+0.0966109773194892 a1_x1
<= 18.629388511440368

a1_local_7: 
+0.098248048786009415 a1_x1
+0.050034323992626355 a1_x5
+0.13055023507662786 a1_x6
<= 15.460263350586629

a1_local_8: 
+0.14330935271795203 a1_x2
+0.084067474227746353 a1_x1
+0.10553827722453196 a1_x4
<= 17.666060248468906

a1_act_1: 
+1 a1_x1
-100 a1_z1
<= 0

a1_act_2: 
+1 a1_x2
-100 a1_z2
<= 0

a2_local_1: 
+0.53762771409426813 a2_x4
+0.63805236758035289 a2_x2
+0.5092492268681158 a2_x6
<= 62.93585453876652

a2_local_2: 
+0.25654329375471274 a2_x2
+0.51304202949093014 a2_x6
+0.33776148788416915 a2_x5
<= 53.841383260039343

a2_local_3: 
+0.55237007187951215 a2_x2
+0.40854450639927925 a2_x1
+0.58208568596110666 a2_x3
<= 51.535613182559501

a2_local_4: 
+0.43374738377742261 a2_x3
+0.50261180441065423 a2_x2
+0.63896641404520371 a2_x4
<= 95.839153584984913

a2_local_5: 
+0.35902910665669163 a2_x2
+0.50031562820236541 a2_x5
+0.66549302845553282 a2_x6
<= 93.230459312090844

a2_local_6: 
+0.6659469865753288 a2_x6
+0.60656319352996069 a2_x5
+0.53408383509445312 a2_x1
<= 83.096031780394924

a2_local_7: 
+0.32994533333758369 a2_x5
+0.36454916372252538 a2_x4
+0.31642846529721641 a2_x3
<= 52.318393439937878

a2_local_8: 
+0.39023415239372405 a2_x6
+0.31807388865787833 a2_x4
+0.37228520174848773 a2_x3
<= 32.43627267853212

a2_act_1: 
+1 a2_x1
-100 a2_z1
<= 0

a2_act_2: 
+1 a2_x2
-100 a2_z2
<= 0

a3_local_1: 
+2.4039093192320662 a3_x2
+2.1205400935321292 a3_x1
+1.2500892663329879 a3_x6
<= 345.69644230103933

a3_local_2: 
+2.9878810027129661 a3_x3
+1.1884563004313804 a3_x5
+1.4725659693546218 a3_x6
<= 322.94531818630111

a3_local_3: 
+1.4874688841039212 a3_x4
+1.5630070320813967 a3_x5
+1.1528635236397975 a3_x3
<= 265.98394692450188

a3_local_4: 
+2.2133635211261615 a3_x1
+1.1391071383338554 a3_x5
+2.2540137394826685 a3_x6
<= 259.41312597123317

a3_local_5: 
+2.2201744845555105 a3_x3
+1.9213909201098502 a3_x5
+1.4911299125606046 a3_x1
<= 201.76438042198748

a3_local_6: 
+2.4507895485694067 a3_x3
+2.5664736680905693 a3_x4
+1.3008989973524463 a3_x6
<= 194.55283228249496

a3_local_7: 
+2.1285376690595892 a3_x2
+3.1164459054007305 a3_x3
+2.6003262846185939 a3_x1
<= 418.76128222549454

a3_local_8: 
+2.1873076653858194 a3_x1
+2.2020125125634804 a3_x3
+1.5494328783146119 a3_x5
<= 217.84195233638476

a3_act_1: 
+1 a3_x1
-100 a3_z1
<= 0

a3_act_2: 
+1 a3_x2
-100 a3_z2
<= 0

a4_local_1: 
+14.657794852031413 a4_x4
+12.994366992459977 a4_x2
+5.359034944583831 a4_x6
<= 2306.9988633918729

a4_local_2: 
+6.621578191334371 a4_x5
+6.1318597815332652 a4_x6
+7.2476740719273982 a4_x2
<= 952.04455254595166

a4_local_3: 
+13.506309721080566 a4_x1
+13.785670775857755 a4_x3
+9.7333837597851698 a4_x6
<= 1895.856713580444

a4_local_4: 
+11.265438555262685 a4_x5
+10.616597028209291 a4_x1
+6.2308147454909406 a4_x6
<= 1390.8637816309661

a4_local_5: 
+5.0581920929920008 a4_x5
+9.2679728276381965 a4_x1
+11.036065840089279 a4_x6
<= 1676.3061653063437

a4_local_6: 
+13.149184448795239 a4_x6
+10.843883221419119 a4_x1
+14.907222653504238 a4_x5
<= 1844.8606913460976

a4_local_7: 
+12.074929441352026 a4_x2
+14.927256867998519 a4_x6
+5.903292474421824 a4_x1
<= 1737.5446007427215

a4_local_8: 
+9.2289612476474918 a4_x2
+10.438199234269863 a4_x3
+9.8605144937270097 a4_x6
<= 1070.297134293683

a4_act_1: 
+1 a4_x1
-100 a4_z1
<= 0

a4_act_2: 
+1 a4_x2
-100 a4_z2
<= 0

coupling_1: 
+3.4192419620953565e-05 a1_x1
+0.00016929974278864494 a2_x1
+0.00072106524688924549 a3_x1
+0.0035703444958561253 a4_x1
+0.00030857733017268247 short_1
-0.00030857733017268247 surp_1
= 0.18352058203968041

coupling_2: 
+2.1266046096941198e-05 a1_x2
+0.00011369601773706494 a2_x2
+0.00054534310388671217 a3_x2
+0.0037219931117380783 a4_x2
+0.00030857733017268247 short_2
-0.00030857733017268247 surp_2
= 0.17538085996020064

coupling_3: 
+1.8532083680324607e-05 a1_x3
+0.00013267444012724191 a2_x3
+0.00048388923228568471 a3_x3
+0.0024629168240590301 a4_x3
+0.00030857733017268247 short_3
-0.00030857733017268247 surp_3
= 0.072985657708259863

bounds
  0 <= a1_x1 <= 100
  0 <= a1_x2 <= 100
  0 <= a1_x3 <= 100
  0 <= a1_x4 <= 100
  0 <= a1_x5 <= 100
  0 <= a1_x6 <= 100
  0 <= a2_x1 <= 100
  0 <= a2_x2 <= 100
  0 <= a2_x3 <= 100
  0 <= a2_x4 <= 100
  0 <= a2_x5 <= 100
  0 <= a2_x6 <= 100
  0 <= a3_x1 <= 100
  0 <= a3_x2 <= 100
  0 <= a3_x3 <= 100
  0 <= a3_x4 <= 100
  0 <= a3_x5 <= 100
  0 <= a3_x6 <= 100
  0 <= a4_x1 <= 100
  0 <= a4_x2 <= 100
  0 <= a4_x3 <= 100
  0 <= a4_x4 <= 100
  0 <= a4_x5 <= 100
  0 <= a4_x6 <= 100
  0 <= short_1 <= +inf
  0 <= surp_1 <= +inf
  0 <= short_2 <= +inf
  0 <= surp_2 <= +inf
  0 <= short_3 <= +inf
  0 <= surp_3 <= +inf
 0 <= a1_z1 <= 1
 0 <= a1_z2 <= 1
 0 <= a2_z1 <= 1
 0 <= a2_z2 <= 1
 0 <= a3_z1 <= 1
 0 <= a3_z2 <= 1
 0 <= a4_z1 <= 1
 0 <= a4_z2 <= 1

binary
  a1_z1
  a1_z2
  a2_z1
  a2_z2
  a3_z1
  a3_z2
  a4_z1
  a4_z2
end
