min
obj: 
  +1.9679731558453351 a1_x1
  +5.1245063990813229 a1_x2
  +5.3289660462088069 a1_x3
  +7.7326436197250805 a1_x4
  +5.1395422066191525 a1_x5
  +1.4920260738512641 a1_x6
  +49.872667351617643 a1_z1
  +13.869581796168557 a1_z2
  +7.5341317217871078 a2_x1
  +3.4571921689270946 a2_x2
  +4.7657113746642423 a2_x3
  +9.3861788498988687 a2_x4
  +1.7288685547688603 a2_x5
  +5.9081608215551888 a2_x6
  +23.537170412908246 a2_z1
  +38.77106799595807 a2_z2
  +4.9087522557742478 a3_x1
  +9.9244206014586318 a3_x2
  +6.7861238771840311 a3_x3
  +8.6736711514090779 a3_x4
  +9.6443958243312533 a3_x5
  +8.9768883116585663 a3_x6
  +12.682768889922908 a3_z1
  +43.15224448184653 a3_z2
  +4.1276908151999692 a4_x1
  +7.0223714932865171 a4_x2
  +1.0610858298808366 a4_x3
  +7.0927412879620659 a4_x4
  +7.9355051703127861 a4_x5
  +7.5971307832819344 a4_x6
  +17.373101516361629 a4_z1
  +10.310923678881169 a4_z2
  +1000000 short_1
  +1000000 surp_1
  +1000000 short_2
  +1000000 surp_2
  +1000000 short_3
  +1000000 surp_3

s.t.

a1_local_1: 
+0.79278419846783843 a1_x3
+1.2613773104113755 a1_x6
+0.96330083155746182 a1_x2
<= 206.83548691285401

a1_local_2: 
+1.607117086705494 a1_x4
+0.89035350617375308 a1_x6
+0.6222321996774659 a1_x2
<= 176.85440397439612

a1_local_3: 
+0.66242483450914402 a1_x4
+0.89265059993673945 a1_x5
+1.5096052380659892 a1_x2
<= 104.39430059769782

a1_local_4: 
+0.74468584340194 a1_x2
+0.93240342981612423 a1_x1
+1.3428481404073846 a1_x4
<= 202.56274212875175

a1_local_5: 
+0.98797250727600472 a1_x5
+0.94852537017777661 a1_x2
+1.0542680580199726 a1_x4
<= 168.07313294682774

a1_local_6: 
+1.378766516120733 a1_x4
+0.65224586475465796 a1_x6
+1.533164185527109 a1_x1
<= 233.25515681990115

a1_local_7: 
+1.4074893849885284 a1_x5
+0.84664723634740968 a1_x4
+0.71048493201115726 a1_x3
<= 121.34265442753258

a1_local_8: 
+1.0234609396863197 a1_x6
+1.2489100516871534 a1_x3
+0.80069817570056334 a1_x2
<= 135.90803904896484

a1_act_1: 
+0.10000000000000001 a1_x1
-10 a1_z1
<= 0

a1_act_2: 
+0.10000000000000001 a1_x2
-10 a1_z2
<= 0

a2_local_1: 
+0.58282630080425946 a2_x3
+0.58178625970216458 a2_x6
+0.52718870159965348 a2_x4
<= 99.750356855760216

a2_local_2: 
+1.5256560486761916 a2_x6
+0.89469688747149245 a2_x4
+0.65545573058075413 a2_x3
<= 205.38890852337695

a2_local_3: 
+1.2580357063192373 a2_x2
+1.2538714358264915 a2_x3
+0.79488999793638737 a2_x4
<= 201.72090440390406

a2_local_4: 
+1.0560771613205802 a2_x6
+0.67475619021874422 a2_x5
+1.4820167854641209 a2_x2
<= 184.90070146603793

a2_local_5: 
+0.96770654224011887 a2_x4
+0.71530445937690323 a2_x5
+1.398006103402589 a2_x3
<= 196.83400651691224

a2_local_6: 
+0.47158739250967924 a2_x2
+0.6135710773661317 a2_x5
+0.41529343549107611 a2_x1
<= 91.154174636098048

a2_local_7: 
+0.93390562585122416 a2_x4
+0.93597867207474383 a2_x3
+1.0707720055637666 a2_x5
<= 113.1839785214646

a2_local_8: 
+1.1872131063993434 a2_x6
+0.84230876041527591 a2_x4
+0.96435703027482411 a2_x3
<= 185.83687143875864

a2_act_1: 
+0.10000000000000001 a2_x1
-10 a2_z1
<= 0

a2_act_2: 
+0.10000000000000001 a2_x2
-10 a2_z2
<= 0

a3_local_1: 
+2.3404659314449887 a3_x1
+2.0606993085216021 a3_x3
+1.4419076973241691 a3_x4
<= 348.49735649666133

a3_local_2: 
+1.0258257735840404 a3_x1
+1.0498223704748382 a3_x6
+0.9525420948571488 a3_x5
<= 210.25608248818358

a3_local_3: 
+1.0997098889836723 a3_x6
+2.1834505093381087 a3_x2
+1.4036863331922405 a3_x3
<= 327.50092404618186

a3_local_4: 
+1.6526542171008964 a3_x1
+3.1756564550833626 a3_x6
+1.2371257935461928 a3_x2
<= 414.76719301737973

a3_local_5: 
+0.78459986633396495 a3_x4
+1.0476832783599974 a3_x6
+1.2745350119322478 a3_x3
<= 158.57641652529816

a3_local_6: 
+2.3178100548140197 a3_x6
+1.7802180548678113 a3_x3
+1.5927358692687086 a3_x1
<= 266.0003632933516

a3_local_7: 
+1.1938067986470524 a3_x6
+2.408969109726506 a3_x5
+2.2512294242920112 a3_x1
<= 294.42607776708655

a3_local_8: 
+0.81069305837257788 a3_x4
+1.233512473891716 a3_x6
+1.1614329046616549 a3_x5
<= 205.84298914074677

a3_act_1: 
+0.10000000000000001 a3_x1
-10 a3_z1
<= 0

a3_act_2: 
+0.10000000000000001 a3_x2
-10 a3_z2
<= 0

a4_local_1: 
+1.0893633554851223 a4_x4
+1.0562300897014452 a4_x1
+0.91796735677295993 a4_x5
<= 143.15638933315418

a4_local_2: 
+1.1474714861615043 a4_x4
+1.1766034482605547 a4_x1
+0.84990401947092842 a4_x6
<= 139.57441004523213

a4_local_3: 
+0.73006257958608989 a4_x3
+0.76438239092082139 a4_x5
+1.3697455916271615 a4_x1
<= 120.92433725226218

a4_local_4: 
+0.76073816140888317 a4_x3
+1.4830829460112265 a4_x5
+0.6742711206338895 a4_x6
<= 199.82614686550681

a4_local_5: 
+1.3589296617212787 a4_x4
+0.73587325979282603 a4_x5
+0.7496963329714762 a4_x6
<= 149.29031291918102

a4_local_6: 
+0.77152106304397949 a4_x5
+0.98162300975849581 a4_x2
+1.2961408934897689 a4_x1
<= 147.30367392026196

a4_local_7: 
+1.4100552997729707 a4_x2
+1.4884598465473118 a4_x3
+0.6718353889892551 a4_x1
<= 169.07953327373914

a4_local_8: 
+1.684370754474364 a4_x1
+1.153050022599488 a4_x2
+0.59369351868856601 a4_x4
<= 116.79665759973184

a4_act_1: 
+0.10000000000000001 a4_x1
-10 a4_z1
<= 0

a4_act_2: 
+0.10000000000000001 a4_x2
-10 a4_z2
<= 0

coupling_1: 
+0.0097731730534405415 a1_x1
+0.039708927315294171 a2_x1
+0.18303695562374914 a3_x1
+0.97730701432028344 a4_x1
+0.069628150974656716 short_1
-0.069628150974656716 surp_1
= 51.865863426511538

coupling_2: 
+0.0087223022011039524 a1_x2
+0.052102158584428578 a2_x2
+0.24637608780905479 a3_x2
+0.94771072907727005 a4_x2
+0.13847830852319393 short_2
-0.13847830852319393 surp_2
= 30.915232599639666

coupling_3: 
+0.018609474711726887 a1_x3
+0.054680370440775942 a2_x3
+0.23669067583380474 a3_x3
+0.95210573864009262 a4_x3
+0.13064442384073216 short_3
-0.13064442384073216 surp_3
= 67.496940718990373

bounds
  0 <= a1_x1 <= 100
  0 <= a1_x2 <= 100
  0 <= a1_x3 <= 100
  0 <= a1_x4 <= 100
  0 <= a1_x5 <= 100
  0 <= a1_x6 <= 100
  0 <= a2_x1 <= 100
  0 <= a2_x2 <= 100
  0 <= a2_x3 <= 100
  0 <= a2_x4 <= 100
  0 <= a2_x5 <= 100
  0 <= a2_x6 <= 100
  0 <= a3_x1 <= 100
  0 <= a3_x2 <= 100
  0 <= a3_x3 <= 100
  0 <= a3_x4 <= 100
  0 <= a3_x5 <= 100
  0 <= a3_x6 <= 100
  0 <= a4_x1 <= 100
  0 <= a4_x2 <= 100
  0 <= a4_x3 <= 100
  0 <= a4_x4 <= 100
  0 <= a4_x5 <= 100
  0 <= a4_x6 <= 100
  0 <= short_1 <= +inf
  0 <= surp_1 <= +inf
  0 <= short_2 <= +inf
  0 <= surp_2 <= +inf
  0 <= short_3 <= +inf
  0 <= surp_3 <= +inf
 0 <= a1_z1 <= 1
 0 <= a1_z2 <= 1
 0 <= a2_z1 <= 1
 0 <= a2_z2 <= 1
 0 <= a3_z1 <= 1
 0 <= a3_z2 <= 1
 0 <= a4_z1 <= 1
 0 <= a4_z2 <= 1

binary
  a1_z1
  a1_z2
  a2_z1
  a2_z2
  a3_z1
  a3_z2
  a4_z1
  a4_z2
end
