min
obj: 
  +4.0871141162290519 a1_x1
  +7.6613663727576089 a1_x2
  +4.8999168943267346 a1_x3
  +9.1856075433138287 a1_x4
  +7.8055232956727103 a1_x5
  +3.4861746229099309 a1_x6
  +23.402378726140935 a1_z1
  +18.267560866392444 a1_z2
  +9.867310978744726 a2_x1
  +9.2615292817302226 a2_x2
  +3.5007890513184758 a2_x3
  +7.1637373168446201 a2_x4
  +7.9245284991421201 a2_x5
  +2.4582106797035337 a2_x6
  +33.658905491272137 a2_z1
  +35.254409520378104 a2_z2
  +2.6732854397558619 a3_x1
  +9.8971817318039896 a3_x2
  +5.2211213282041085 a3_x3
  +8.0114291145185241 a3_x4
  +2.5829750625381869 a3_x5
  +9.9025128730968675 a3_x6
  +27.0926152551414 a3_z1
  +47.996135855740022 a3_z2
  +8.2046274155609638 a4_x1
  +7.1214056561276049 a4_x2
  +6.2664722965402984 a4_x3
  +7.507966634456313 a4_x4
  +5.5736057519875928 a4_x5
  +1.8081083701963157 a4_x6
  +27.561079601884479 a4_z1
  +34.985951557117836 a4_z2
  +1000000 short_1
  +1000000 surp_1
  +1000000 short_2
  +1000000 surp_2
  +1000000 short_3
  +1000000 surp_3

s.t.

a1_local_1: 
+1.0656625728124751 a1_x6
+0.59242592075137379 a1_x4
+1.6879747576400781 a1_x2
<= 231.9143535606992

a1_local_2: 
+1.3074704208161818 a1_x6
+0.77748105960196789 a1_x3
+0.76483565829026945 a1_x2
<= 88.260681169238154

a1_local_3: 
+0.81272925667282037 a1_x6
+1.0637155312011195 a1_x4
+1.2304220523496778 a1_x1
<= 165.88530776014002

a1_local_4: 
+1.5838264983709378 a1_x4
+0.63138228905032279 a1_x5
+0.8196081807118808 a1_x2
<= 202.06071595628703

a1_local_5: 
+1.0929388852522397 a1_x5
+1.1745168633437451 a1_x1
+0.8514139142737287 a1_x4
<= 211.05388730911693

a1_local_6: 
+1.0677997289476657 a1_x2
+1.3342070047296732 a1_x6
+0.74950888164660201 a1_x1
<= 154.73992443507439

a1_local_7: 
+1.3119525812591242 a1_x2
+1.300737359668805 a1_x1
+0.76222267045678349 a1_x3
<= 150.37920357473817

a1_local_8: 
+0.85159783855422333 a1_x2
+0.98699080019187468 a1_x4
+1.1742631964610462 a1_x3
<= 172.56431334433353

a1_act_1: 
+0.10000000000000001 a1_x1
-10 a1_z1
<= 0

a1_act_2: 
+0.10000000000000001 a1_x2
-10 a1_z2
<= 0

a2_local_1: 
+0.63676979229140496 a2_x6
+0.67530625543603739 a2_x2
+0.6719208674291417 a2_x4
<= 95.334311173774282

a2_local_2: 
+1.1834518572523602 a2_x2
+0.8449857878644228 a2_x3
+0.90593064778866439 a2_x6
<= 202.54371909888891

a2_local_3: 
+0.7091678211050787 a2_x4
+1.410103462452265 a2_x6
+1.1772293381441872 a2_x2
<= 100.11754694447887

a2_local_4: 
+0.57897019630146507 a2_x6
+0.6397930308376103 a2_x2
+0.62515195144137559 a2_x4
<= 100.4399969242987

a2_local_5: 
+0.80601443189449962 a2_x2
+1.3332695285547658 a2_x3
+0.75003589190550057 a2_x1
<= 161.22627103872867

a2_local_6: 
+0.46658843108408976 a2_x4
+0.53671075354728992 a2_x6
+0.51462429463162274 a2_x2
<= 95.17698831477135

a2_local_7: 
+0.64497908506506463 a2_x5
+0.62322398699758264 a2_x2
+0.44325598011732043 a2_x3
<= 115.48845990234904

a2_local_8: 
+0.66126219546857135 a2_x5
+1.3427387630091248 a2_x4
+1.5122594439130133 a2_x6
<= 153.51432140856539

a2_act_1: 
+0.10000000000000001 a2_x1
-10 a2_z1
<= 0

a2_act_2: 
+0.10000000000000001 a2_x2
-10 a2_z2
<= 0

a3_local_1: 
+0.66751899238673595 a3_x3
+0.91372985334281487 a3_x5
+1.4980847157988235 a3_x6
<= 192.95055393805711

a3_local_2: 
+1.2416279930740326 a3_x4
+0.99506386261673763 a3_x1
+0.80539421274176659 a3_x2
<= 197.98238893926091

a3_local_3: 
+0.93395598526667201 a3_x3
+1.0988740697419872 a3_x5
+0.91002238339721464 a3_x2
<= 117.11606896706779

a3_local_4: 
+2.4949303619836569 a3_x2
+1.981785058129478 a3_x6
+1.5675181516875174 a3_x4
<= 411.1942745131272

a3_local_5: 
+0.85216755892787943 a3_x2
+1.145229411499445 a3_x3
+1.1734781376307146 a3_x1
<= 179.05876134875868

a3_local_6: 
+1.0240508689938213 a3_x1
+0.8298017385434665 a3_x5
+1.2051071401167206 a3_x4
<= 136.54372721740575

a3_local_7: 
+0.67732240915929165 a3_x2
+1.4764017644731755 a3_x1
+0.82736712568288284 a3_x3
<= 114.93204658266851

a3_local_8: 
+0.88217110480703176 a3_x4
+0.92949395153058512 a3_x5
+1.1335669401898425 a3_x2
<= 162.13836792556756

a3_act_1: 
+0.10000000000000001 a3_x1
-10 a3_z1
<= 0

a3_act_2: 
+0.10000000000000001 a3_x2
-10 a3_z2
<= 0

a4_local_1: 
+1.4642131966203569 a4_x3
+0.68296065238871184 a4_x2
+0.75259185294200082 a4_x6
<= 183.99016440834524

a4_local_2: 
+1.3363971217601867 a4_x6
+1.2097494418761932 a4_x1
+0.74828056998722536 a4_x5
<= 147.90723732520118

a4_local_3: 
+0.67666482755310231 a4_x4
+1.3549827214810013 a4_x5
+1.4778365289298616 a4_x6
<= 176.64840385156808

a4_local_4: 
+0.9902700651584555 a4_x6
+1.2547350090051252 a4_x2
+0.79698103011638799 a4_x4
<= 166.44486486036124

a4_local_5: 
+0.85191403797391796 a4_x3
+0.92599852333938204 a4_x6
+1.1738273527905123 a4_x1
<= 205.02349077304117

a4_local_6: 
+0.74893010630541268 a4_x5
+1.3352380837420914 a4_x6
+0.97931843461311574 a4_x2
<= 179.52537845638156

a4_local_7: 
+1.4916943473985902 a4_x4
+0.67037862129324932 a4_x3
+1.0566028285599665 a4_x2
<= 204.93885506054454

a4_local_8: 
+1.4610694546787302 a4_x3
+0.6844301595641028 a4_x6
+1.2160415999668086 a4_x2
<= 223.83800744929005

a4_act_1: 
+0.10000000000000001 a4_x1
-10 a4_z1
<= 0

a4_act_2: 
+0.10000000000000001 a4_x2
-10 a4_z2
<= 0

coupling_1: 
+0.0058055000528806832 a1_x1
+0.03724596413619554 a2_x1
+0.2021233627135661 a3_x1
+0.97279238055130646 a4_x1
+0.075498890426891174 short_1
-0.075498890426891174 surp_1
= 72.121780053557856

coupling_2: 
+0.011155920469458789 a1_x2
+0.041367870368619684 a2_x2
+0.25314091346355272 a3_x2
+0.95999313814466192 a4_x2
+0.079047762098766169 short_2
-0.079047762098766169 surp_2
= 82.96200314777748

coupling_3: 
+0.011148428169693912 a1_x3
+0.048354410806057513 a2_x3
+0.16700798266577749 a3_x3
+0.9752571406769861 a4_x3
+0.09622735263271362 short_3
-0.09622735263271362 surp_3
= 80.102878612335587

bounds
  0 <= a1_x1 <= 100
  0 <= a1_x2 <= 100
  0 <= a1_x3 <= 100
  0 <= a1_x4 <= 100
  0 <= a1_x5 <= 100
  0 <= a1_x6 <= 100
  0 <= a2_x1 <= 100
  0 <= a2_x2 <= 100
  0 <= a2_x3 <= 100
  0 <= a2_x4 <= 100
  0 <= a2_x5 <= 100
  0 <= a2_x6 <= 100
  0 <= a3_x1 <= 100
  0 <= a3_x2 <= 100
  0 <= a3_x3 <= 100
  0 <= a3_x4 <= 100
  0 <= a3_x5 <= 100
  0 <= a3_x6 <= 100
  0 <= a4_x1 <= 100
  0 <= a4_x2 <= 100
  0 <= a4_x3 <= 100
  0 <= a4_x4 <= 100
  0 <= a4_x5 <= 100
  0 <= a4_x6 <= 100
  0 <= short_1 <= +inf
  0 <= surp_1 <= +inf
  0 <= short_2 <= +inf
  0 <= surp_2 <= +inf
  0 <= short_3 <= +inf
  0 <= surp_3 <= +inf
 0 <= a1_z1 <= 1
 0 <= a1_z2 <= 1
 0 <= a2_z1 <= 1
 0 <= a2_z2 <= 1
 0 <= a3_z1 <= 1
 0 <= a3_z2 <= 1
 0 <= a4_z1 <= 1
 0 <= a4_z2 <= 1

binary
  a1_z1
  a1_z2
  a2_z1
  a2_z2
  a3_z1
  a3_z2
  a4_z1
  a4_z2
end
