min
obj: 
  +4.6121734767481746 a1_x1
  +8.3726653944305163 a1_x2
  +3.8874111784256438 a1_x3
  +3.5735214707131471 a1_x4
  +7.9063268225890937 a1_x5
  +6.5043346512565909 a1_x6
  +46.9551209495583 a1_z1
  +19.806653497637782 a1_z2
  +7.6567171580139357 a2_x1
  +8.2043744709301158 a2_x2
  +3.6188691473828523 a2_x3
  +5.2859257046209569 a2_x4
  +3.3947769180807601 a2_x5
  +2.5210962766084055 a2_x6
  +31.130882329794158 a2_z1
  +23.010561281727053 a2_z2
  +6.9874663911383514 a3_x1
  +2.0892016241128126 a3_x2
  +9.3610808006140438 a3_x3
  +4.8509819599704116 a3_x4
  +1.7243146015797635 a3_x5
  +7.0038934437638574 a3_x6
  +33.012677472845496 a3_z1
  +8.0010596287278375 a3_z2
  +6.4216192335644386 a4_x1
  +2.3877334915960096 a4_x2
  +7.475862409648836 a4_x3
  +7.4106096914751971 a4_x4
  +8.5860247699785965 a4_x5
  +3.4325757317506875 a4_x6
  +23.317265071624306 a4_z1
  +25.042487194398138 a4_z2
  +1000000 short_1
  +1000000 surp_1
  +1000000 short_2
  +1000000 surp_2
  +1000000 short_3
  +1000000 surp_3

s.t.

a1_local_1: 
+0.60491706249635802 a1_x1
+0.5374781986268039 a1_x6
+0.58753087876439558 a1_x2
<= 105.29660567404719

a1_local_2: 
+0.6999056518027742 a1_x4
+0.52567338781966111 a1_x6
+0.48352824934302857 a1_x2
<= 64.04106986070218

a1_local_3: 
+0.68480817352744205 a1_x2
+0.65937079473179183 a1_x1
+0.31027072134633354 a1_x5
<= 63.57807696028749

a1_local_4: 
+0.8383125109308377 a1_x1
+0.43111736147704843 a1_x2
+0.33372137277960195 a1_x4
<= 50.610813906435212

a1_local_5: 
+0.71735581896345657 a1_x2
+0.46631409027284165 a1_x6
+0.5176406071902403 a1_x3
<= 59.64526759936053

a1_local_6: 
+0.66379590026935587 a1_x4
+0.56687494810541716 a1_x6
+0.4878809239928078 a1_x1
<= 94.077542040856983

a1_local_7: 
+0.57495837050331111 a1_x1
+0.29280635847224784 a1_x5
+0.76399431190709699 a1_x6
<= 90.475158880418888

a1_local_8: 
+0.72807576124488504 a1_x2
+0.42710045878697112 a1_x1
+0.53618176394916672 a1_x4
<= 89.75150623222919

a1_act_1: 
+0.0099995000374968751 a1_x1
-0.99995000374968757 a1_z1
<= 0

a1_act_2: 
+0.0099995000374968751 a1_x2
-0.99995000374968757 a1_z2
<= 0

a2_local_1: 
+0.53762771409426813 a2_x4
+0.63805236758035289 a2_x2
+0.5092492268681158 a2_x6
<= 62.93585453876652

a2_local_2: 
+0.25654329375471274 a2_x2
+0.51304202949093014 a2_x6
+0.33776148788416915 a2_x5
<= 53.841383260039343

a2_local_3: 
+0.55237007187951215 a2_x2
+0.40854450639927925 a2_x1
+0.58208568596110666 a2_x3
<= 51.535613182559501

a2_local_4: 
+0.43374738377742261 a2_x3
+0.50261180441065423 a2_x2
+0.63896641404520371 a2_x4
<= 95.839153584984913

a2_local_5: 
+0.35902910665669163 a2_x2
+0.50031562820236541 a2_x5
+0.66549302845553282 a2_x6
<= 93.230459312090844

a2_local_6: 
+0.6659469865753288 a2_x6
+0.60656319352996069 a2_x5
+0.53408383509445312 a2_x1
<= 83.096031780394924

a2_local_7: 
+0.32994533333758369 a2_x5
+0.36454916372252538 a2_x4
+0.31642846529721641 a2_x3
<= 52.318393439937878

a2_local_8: 
+0.39023415239372405 a2_x6
+0.31807388865787833 a2_x4
+0.37228520174848773 a2_x3
<= 32.43627267853212

a2_act_1: 
+0.0099995000374968751 a2_x1
-0.99995000374968757 a2_z1
<= 0

a2_act_2: 
+0.0099995000374968751 a2_x2
-0.99995000374968757 a2_z2
<= 0

a3_local_1: 
+0.69867525853724743 a3_x2
+0.61631646677939145 a3_x1
+0.3633275325164303 a3_x6
<= 100.47365317309158

a3_local_2: 
+0.84481953524521003 a3_x3
+0.33603450019529901 a3_x5
+0.41636614601401345 a3_x6
<= 91.312376019004773

a3_local_3: 
+0.60803495757039128 a3_x4
+0.63891280321225097 a3_x5
+0.47125780658131894 a3_x3
<= 108.72666958682122

a3_local_4: 
+0.65910351258831223 a3_x1
+0.33920750429114421 a3_x5
+0.67120848380091425 a3_x6
<= 77.248992724050709

a3_local_5: 
+0.67419358963411657 a3_x3
+0.58346289921379824 a3_x5
+0.45280685610676602 a3_x1
<= 61.26917178954821

a3_local_6: 
+0.64842294956242197 a3_x3
+0.67903032588375112 a3_x4
+0.34418816802873342 a3_x6
<= 51.474236711992376

a3_local_7: 
+0.46443408613077619 a3_x2
+0.67998970706036754 a3_x3
+0.56737551756471349 a3_x1
<= 91.37118700994192

a3_local_8: 
+0.63053091360848323 a3_x1
+0.63476985121754992 a3_x3
+0.44665199313257425 a3_x5
<= 62.796874624717276

a3_act_1: 
+0.0099995000374968751 a3_x1
-0.99995000374968757 a3_z1
<= 0

a3_act_2: 
+0.0099995000374968751 a3_x2
-0.99995000374968757 a3_z2
<= 0

a4_local_1: 
+0.72176661556773447 a4_x4
+0.63985752156253584 a4_x2
+0.26388502184047374 a4_x6
<= 113.59926773147566

a4_local_2: 
+0.57207320132353545 a4_x5
+0.52976383483313783 a4_x6
+0.62616493963677766 a4_x2
<= 82.252169987264097

a4_local_3: 
+0.62486109271384593 a4_x1
+0.6377855596892561 a4_x3
+0.45030899909320121 a4_x6
<= 87.710642073294608

a4_local_4: 
+0.67511563291984966 a4_x5
+0.6362318330524489 a4_x1
+0.37340050454967499 a4_x6
<= 83.351737940324682

a4_local_5: 
+0.33117753441898878 a4_x5
+0.60680660870351322 a4_x1
+0.72256984460320572 a4_x6
<= 109.75362986444468

a4_local_6: 
+0.58071136016027658 a4_x6
+0.47890165351710923 a4_x1
+0.6583521264789689 a4_x5
<= 81.475133727854782

a4_local_7: 
+0.60114033138653333 a4_x2
+0.74314108284476976 a4_x6
+0.29389051187269016 a4_x1
<= 86.502214539848126

a4_local_8: 
+0.54067744072133672 a4_x2
+0.61152048386410263 a4_x3
+0.57767690183149889 a4_x6
<= 62.703212187482009

a4_act_1: 
+0.0099995000374968751 a4_x1
-0.99995000374968757 a4_z1
<= 0

a4_act_2: 
+0.0099995000374968751 a4_x2
-0.99995000374968757 a4_z2
<= 0

coupling_1: 
+0.0093102863236221786 a1_x1
+0.04609878731459939 a2_x1
+0.1963395390257254 a3_x1
+0.97217248439529924 a4_x1
+0.084022813498872528 short_1
-0.084022813498872528 surp_1
= 49.970993103399678

coupling_2: 
+0.0056129795575276704 a1_x2
+0.030009030377407139 a2_x2
+0.14393835506615793 a3_x2
+0.98238624868068736 a4_x2
+0.081446181310820209 short_2
-0.081446181310820209 surp_2
= 46.290183762924407

coupling_3: 
+0.0072641365550979182 a1_x3
+0.052005228720107245 a2_x3
+0.18967308379880685 a3_x3
+0.96540488605755592 a4_x3
+0.12095498287446971 short_3
-0.12095498287446971 surp_3
= 28.608643976679261

bounds
  0 <= a1_x1 <= 100
  0 <= a1_x2 <= 100
  0 <= a1_x3 <= 100
  0 <= a1_x4 <= 100
  0 <= a1_x5 <= 100
  0 <= a1_x6 <= 100
  0 <= a2_x1 <= 100
  0 <= a2_x2 <= 100
  0 <= a2_x3 <= 100
  0 <= a2_x4 <= 100
  0 <= a2_x5 <= 100
  0 <= a2_x6 <= 100
  0 <= a3_x1 <= 100
  0 <= a3_x2 <= 100
  0 <= a3_x3 <= 100
  0 <= a3_x4 <= 100
  0 <= a3_x5 <= 100
  0 <= a3_x6 <= 100
  0 <= a4_x1 <= 100
  0 <= a4_x2 <= 100
  0 <= a4_x3 <= 100
  0 <= a4_x4 <= 100
  0 <= a4_x5 <= 100
  0 <= a4_x6 <= 100
  0 <= short_1 <= +inf
  0 <= surp_1 <= +inf
  0 <= short_2 <= +inf
  0 <= surp_2 <= +inf
  0 <= short_3 <= +inf
  0 <= surp_3 <= +inf
 0 <= a1_z1 <= 1
 0 <= a1_z2 <= 1
 0 <= a2_z1 <= 1
 0 <= a2_z2 <= 1
 0 <= a3_z1 <= 1
 0 <= a3_z2 <= 1
 0 <= a4_z1 <= 1
 0 <= a4_z2 <= 1

binary
  a1_z1
  a1_z2
  a2_z1
  a2_z2
  a3_z1
  a3_z2
  a4_z1
  a4_z2
end
