min
obj: 
  +5.2436233239928463 a1_x1
  +8.0695966456126804 a1_x2
  +3.4781022885686368 a1_x3
  +9.412058306823841 a1_x4
  +8.3165688602967034 a1_x5
  +6.8002801919710905 a1_x6
  +10.410503430419741 a1_z1
  +29.396440143420605 a1_z2
  +8.2806614137575387 a2_x1
  +6.0649431138157652 a2_x2
  +8.6541766135972331 a2_x3
  +4.3292904508020413 a2_x4
  +7.270244042047584 a2_x5
  +4.5318516777440347 a2_x6
  +14.3292458598275 a2_z1
  +33.495450643789965 a2_z2
  +3.4667216339522406 a3_x1
  +8.7306868906336064 a3_x2
  +5.7873163324378032 a3_x3
  +5.6599350909197002 a3_x4
  +4.8869920304691288 a3_x5
  +4.3356674135059086 a3_x6
  +5.900585939248967 a3_z1
  +40.303679684732423 a3_z2
  +4.5273516228701549 a4_x1
  +9.793261850532609 a4_x2
  +5.1742521510836195 a4_x3
  +5.4489998276629183 a4_x4
  +4.6550473123840108 a4_x5
  +5.1815797270979749 a4_x6
  +20.492987297835271 a4_z1
  +8.5742214275245221 a4_z2
  +1000000 short_1
  +1000000 surp_1
  +1000000 short_2
  +1000000 surp_2
  +1000000 short_3
  +1000000 surp_3

s.t.

a1_local_1: 
+0.71444632207427194 a1_x4
+0.43574013794578387 a1_x6
+0.54744587408942513 a1_x1
<= 111.38287801045652

a1_local_2: 
+0.51791392364174604 a1_x5
+0.285632170645788 a1_x4
+0.80633704540358753 a1_x1
<= 50.322073711188985

a1_local_3: 
+0.63777507054707416 a1_x3
+0.44182236934932351 a1_x6
+0.6309009061106382 a1_x5
<= 60.070908659970385

a1_local_4: 
+0.3392969753790126 a1_x3
+0.65123208578941427 a1_x5
+0.67880360409843354 a1_x4
<= 95.446496815210693

a1_local_5: 
+0.46140356518349446 a1_x5
+0.60766003031606719 a1_x2
+0.64641785061385582 a1_x1
<= 105.98516987854603

a1_local_6: 
+0.61634174795948904 a1_x3
+0.44824111799900018 a1_x2
+0.64745868583041488 a1_x5
<= 104.82368412884904

a1_local_7: 
+0.36500413164660628 a1_x1
+0.83300487450751204 a1_x5
+0.4157822301729967 a1_x6
<= 100.89831964908163

a1_local_8: 
+0.53847590475921814 a1_x1
+0.69184837387322595 a1_x5
+0.48102965351703048 a1_x3
<= 100.15801049819524

a1_act_1: 
+0.0099995000374968751 a1_x1
-0.99995000374968757 a1_z1
<= 0

a1_act_2: 
+0.0099995000374968751 a1_x2
-0.99995000374968757 a1_z2
<= 0

a2_local_1: 
+0.33500971416455477 a2_x2
+0.6164909170161047 a2_x5
+0.55874365309521212 a2_x6
<= 77.016831186818763

a2_local_2: 
+0.66344745442923447 a2_x5
+0.50149622458314169 a2_x3
+0.32574793535447438 a2_x4
<= 52.006957372067674

a2_local_3: 
+0.5859154583270364 a2_x3
+0.52869010244594272 a2_x1
+0.47581168389098355 a2_x2
<= 78.916334232963635

a2_local_4: 
+0.2783371725949218 a2_x1
+0.62624213382597171 a2_x3
+0.50749433822435397 a2_x4
<= 98.543096126019961

a2_local_5: 
+0.3367678293467038 a2_x4
+0.48140944719235146 a2_x5
+0.58104999301047666 a2_x2
<= 63.250204364975346

a2_local_6: 
+0.33175991017694112 a2_x6
+0.39217656844989979 a2_x1
+0.44547743238388532 a2_x3
<= 43.535436139155067

a2_local_7: 
+0.52000824122231959 a2_x4
+0.33733296645497685 a2_x6
+0.65264541715230073 a2_x2
<= 100.98622817409093

a2_local_8: 
+0.39070231529925448 a2_x6
+0.47684152191124934 a2_x5
+0.35477976601576117 a2_x4
<= 66.932430094239436

a2_act_1: 
+0.0099995000374968751 a2_x1
-0.99995000374968757 a2_z1
<= 0

a2_act_2: 
+0.0099995000374968751 a2_x2
-0.99995000374968757 a2_z2
<= 0

a3_local_1: 
+0.75228747269457885 a3_x4
+0.51532305906318088 a3_x1
+0.41049446186832872 a3_x5
<= 100.86043104916043

a3_local_2: 
+0.36688515657882681 a3_x2
+0.33858081319251004 a3_x4
+0.86646310643906144 a3_x3
<= 85.560918576777198

a3_local_3: 
+0.64511379485137166 a3_x4
+0.4949396055307575 a3_x6
+0.58211938515180939 a3_x5
<= 71.402497045085994

a3_local_4: 
+0.77630860263728119 a3_x4
+0.34853725220246684 a3_x2
+0.52523017554069162 a3_x6
<= 96.161251875074612

a3_local_5: 
+0.80818542300958562 a3_x3
+0.41803268102831465 a3_x4
+0.41483129055930273 a3_x2
<= 58.629258931026399

a3_local_6: 
+0.63974129371444322 a3_x4
+0.62238720137125625 a3_x1
+0.45096036265488565 a3_x6
<= 87.688428570645357

a3_local_7: 
+0.7863853874727561 a3_x4
+0.4774487343032856 a3_x5
+0.39197031581678965 a3_x2
<= 110.89702623898771

a3_local_8: 
+0.41632820917113472 a3_x2
+0.68221755016079444 a3_x5
+0.60104079437336 a3_x3
<= 89.221680966901303

a3_act_1: 
+0.0099995000374968751 a3_x1
-0.99995000374968757 a3_z1
<= 0

a3_act_2: 
+0.0099995000374968751 a3_x2
-0.99995000374968757 a3_z2
<= 0

a4_local_1: 
+0.80562951948429495 a4_x5
+0.42176101772950608 a4_x6
+0.41602730830953322 a4_x2
<= 57.930043658056292

a4_local_2: 
+0.65725354565990945 a4_x5
+0.35160584100609116 a4_x4
+0.66662666409908689 a4_x1
<= 87.334077911326091

a4_local_3: 
+0.48957808410464171 a4_x6
+0.48669519233211478 a4_x2
+0.72349228698392787 a4_x3
<= 72.199898606422764

a4_local_4: 
+0.539312100154695 a4_x2
+0.48770524042986796 a4_x6
+0.68650277281594219 a4_x4
<= 102.23659887745421

a4_local_5: 
+0.7151885714094115 a4_x2
+0.40589755795445531 a4_x1
+0.56899251293138686 a4_x3
<= 77.244960991650373

a4_local_6: 
+0.57783038895112515 a4_x3
+0.58408750613795568 a4_x5
+0.57004721451660034 a4_x2
<= 87.122324865516163

a4_local_7: 
+0.35335638496618882 a4_x5
+0.85793641727566383 a4_x2
+0.37294016827880677 a4_x4
<= 77.199908795297844

a4_local_8: 
+0.5921280882782135 a4_x1
+0.69943158707545405 a4_x5
+0.40022466449870348 a4_x4
<= 102.07588036749333

a4_act_1: 
+0.0099995000374968751 a4_x1
-0.99995000374968757 a4_z1
<= 0

a4_act_2: 
+0.0099995000374968751 a4_x2
-0.99995000374968757 a4_z2
<= 0

coupling_1: 
+0.0075590001395150815 a1_x1
+0.025462401223813356 a2_x1
+0.17633402206677279 a3_x1
+0.97855410505055762 a4_x1
+0.072913317683620832 short_1
-0.072913317683620832 surp_1
= 33.219817527794163

coupling_2: 
+0.0072644189219761577 a1_x2
+0.029104286939396661 a2_x2
+0.20379364541531367 a3_x2
+0.97160466007953439 a4_x2
+0.082318598443927457 short_2
-0.082318598443927457 surp_2
= 81.4832261079098

coupling_3: 
+0.01506449762315908 a1_x3
+0.049342547012590027 a2_x3
+0.25568262648807244 a3_x3
+0.94811788749516734 a4_x3
+0.12852478338735779 short_3
-0.12852478338735779 surp_3
= 64.69514571595677

bounds
  0 <= a1_x1 <= 100
  0 <= a1_x2 <= 100
  0 <= a1_x3 <= 100
  0 <= a1_x4 <= 100
  0 <= a1_x5 <= 100
  0 <= a1_x6 <= 100
  0 <= a2_x1 <= 100
  0 <= a2_x2 <= 100
  0 <= a2_x3 <= 100
  0 <= a2_x4 <= 100
  0 <= a2_x5 <= 100
  0 <= a2_x6 <= 100
  0 <= a3_x1 <= 100
  0 <= a3_x2 <= 100
  0 <= a3_x3 <= 100
  0 <= a3_x4 <= 100
  0 <= a3_x5 <= 100
  0 <= a3_x6 <= 100
  0 <= a4_x1 <= 100
  0 <= a4_x2 <= 100
  0 <= a4_x3 <= 100
  0 <= a4_x4 <= 100
  0 <= a4_x5 <= 100
  0 <= a4_x6 <= 100
  0 <= short_1 <= +inf
  0 <= surp_1 <= +inf
  0 <= short_2 <= +inf
  0 <= surp_2 <= +inf
  0 <= short_3 <= +inf
  0 <= surp_3 <= +inf
 0 <= a1_z1 <= 1
 0 <= a1_z2 <= 1
 0 <= a2_z1 <= 1
 0 <= a2_z2 <= 1
 0 <= a3_z1 <= 1
 0 <= a3_z2 <= 1
 0 <= a4_z1 <= 1
 0 <= a4_z2 <= 1

binary
  a1_z1
  a1_z2
  a2_z1
  a2_z2
  a3_z1
  a3_z2
  a4_z1
  a4_z2
end
