min
obj: 
  +5.2436233239928463 a1_x1
  +8.0695966456126804 a1_x2
  +3.4781022885686368 a1_x3
  +9.412058306823841 a1_x4
  +8.3165688602967034 a1_x5
  +6.8002801919710905 a1_x6
  +10.410503430419741 a1_z1
  +29.396440143420605 a1_z2
  +8.2806614137575387 a2_x1
  +6.0649431138157652 a2_x2
  +8.6541766135972331 a2_x3
  +4.3292904508020413 a2_x4
  +7.270244042047584 a2_x5
  +4.5318516777440347 a2_x6
  +14.3292458598275 a2_z1
  +33.495450643789965 a2_z2
  +3.4667216339522406 a3_x1
  +8.7306868906336064 a3_x2
  +5.7873163324378032 a3_x3
  +5.6599350909197002 a3_x4
  +4.8869920304691288 a3_x5
  +4.3356674135059086 a3_x6
  +5.900585939248967 a3_z1
  +40.303679684732423 a3_z2
  +4.5273516228701549 a4_x1
  +9.793261850532609 a4_x2
  +5.1742521510836195 a4_x3
  +5.4489998276629183 a4_x4
  +4.6550473123840108 a4_x5
  +5.1815797270979749 a4_x6
  +20.492987297835271 a4_z1
  +8.5742214275245221 a4_z2
  +1000000 short_1
  +1000000 surp_1
  +1000000 short_2
  +1000000 surp_2
  +1000000 short_3
  +1000000 surp_3

s.t.

a1_local_1: 
+0.13899837350269162 a1_x4
+0.08477497689183433 a1_x6
+0.10650777214201806 a1_x1
<= 21.669981916279919

a1_local_2: 
+0.09067742765808201 a1_x5
+0.050009063877707829 a1_x4
+0.14117513695807093 a1_x1
<= 8.8104914547680764

a1_local_3: 
+0.10315489260569351 a1_x3
+0.071461148554972473 a1_x6
+0.10204305282558707 a1_x5
<= 9.7159773370105373

a1_local_4: 
+0.073758039142452117 a1_x3
+0.14156802199848759 a1_x5
+0.14756165375539262 a1_x4
<= 20.748627187855863

a1_local_5: 
+0.10382173348933013 a1_x5
+0.1367313182647463 a1_x2
+0.14545232606186659 a1_x1
<= 23.848025657486641

a1_local_6: 
+0.081728509743204988 a1_x3
+0.059437931473845698 a1_x2
+0.085854696178542522 a1_x5
<= 13.899891607223042

a1_local_7: 
+0.063596028887263664 a1_x1
+0.14513754083666613 a1_x5
+0.072443286057084444 a1_x6
<= 17.57988991010102

a1_local_8: 
+0.11579374288391542 a1_x1
+0.14877492569468567 a1_x5
+0.10344051335741114 a1_x3
<= 21.537957061567074

a1_act_1: 
+1 a1_x1
-100 a1_z1
<= 0

a1_act_2: 
+1 a1_x2
-100 a1_z2
<= 0

a2_local_1: 
+0.33500971416455477 a2_x2
+0.6164909170161047 a2_x5
+0.55874365309521212 a2_x6
<= 77.016831186818763

a2_local_2: 
+0.66344745442923447 a2_x5
+0.50149622458314169 a2_x3
+0.32574793535447438 a2_x4
<= 52.006957372067674

a2_local_3: 
+0.5859154583270364 a2_x3
+0.52869010244594272 a2_x1
+0.47581168389098355 a2_x2
<= 78.916334232963635

a2_local_4: 
+0.2783371725949218 a2_x1
+0.62624213382597171 a2_x3
+0.50749433822435397 a2_x4
<= 98.543096126019961

a2_local_5: 
+0.3367678293467038 a2_x4
+0.48140944719235146 a2_x5
+0.58104999301047666 a2_x2
<= 63.250204364975346

a2_local_6: 
+0.33175991017694112 a2_x6
+0.39217656844989979 a2_x1
+0.44547743238388532 a2_x3
<= 43.535436139155067

a2_local_7: 
+0.52000824122231959 a2_x4
+0.33733296645497685 a2_x6
+0.65264541715230073 a2_x2
<= 100.98622817409093

a2_local_8: 
+0.39070231529925448 a2_x6
+0.47684152191124934 a2_x5
+0.35477976601576117 a2_x4
<= 66.932430094239436

a2_act_1: 
+1 a2_x1
-100 a2_z1
<= 0

a2_act_2: 
+1 a2_x2
-100 a2_z2
<= 0

a3_local_1: 
+2.6462639562616586 a3_x4
+1.812712409187005 a3_x1
+1.4439648912354035 a3_x5
<= 354.78900418532896

a3_local_2: 
+1.1960511263803879 a3_x2
+1.1037785413994583 a3_x4
+2.8246827538274326 a3_x3
<= 278.92988092558022

a3_local_3: 
+3.1100630777004161 a3_x4
+2.3860804173432015 a3_x6
+2.8063700094824608 a3_x5
<= 344.22805943360277

a3_local_4: 
+3.1208393023334913 a3_x4
+1.4011550964468753 a3_x2
+2.1114785653931265 a3_x6
<= 386.57798354134957

a3_local_5: 
+2.4539153449018896 a3_x3
+1.2692839804334004 a3_x4
+1.2595635116235617 a3_x2
<= 178.01761087859342

a3_local_6: 
+3.0664197625898821 a3_x4
+2.9832378072498047 a3_x1
+2.1615515236802696 a3_x6
<= 420.30979235100074

a3_local_7: 
+2.9863696284524175 a3_x4
+1.8131547482700108 a3_x5
+1.4885427235265312 a3_x2
<= 421.14148650463989

a3_local_8: 
+1.4602351318981666 a3_x2
+2.3928189644550297 a3_x5
+2.1080985249481214 a3_x3
<= 312.93731773367489

a3_act_1: 
+1 a3_x1
-100 a3_z1
<= 0

a3_act_2: 
+1 a3_x2
-100 a3_z2
<= 0

a4_local_1: 
+14.140868601021491 a4_x5
+7.40298982162893 a4_x6
+7.3023484852039982 a4_x2
<= 1016.8211511718094

a4_local_2: 
+13.068785430691463 a4_x5
+6.9913069661309981 a4_x4
+13.25515988923482 a4_x1
<= 1736.5449491253016

a4_local_3: 
+8.7042591759120835 a4_x6
+8.6530039461971526 a4_x2
+12.863043878278386 a4_x3
<= 1283.6494327441221

a4_local_4: 
+11.288921474436343 a4_x2
+10.208682802230182 a4_x6
+14.369927713617084 a4_x4
<= 2140.0241830472123

a4_local_5: 
+12.186004115751995 a4_x2
+6.9160351682621783 a4_x1
+9.6949886807471231 a4_x3
<= 1316.16674286382

a4_local_6: 
+12.125653890802933 a4_x3
+12.25695822995239 a4_x5
+11.962325548837214 a4_x2
<= 1828.2443735763754

a4_local_7: 
+5.2865619798879413 a4_x5
+12.835579708471339 a4_x2
+5.5795548015480234 a4_x4
<= 1154.9872028691084

a4_local_8: 
+11.545036559333454 a4_x1
+13.637189998905585 a4_x5
+7.8033933452139976 a4_x4
<= 1990.2277801000889

a4_act_1: 
+1 a4_x1
-100 a4_z1
<= 0

a4_act_2: 
+1 a4_x2
-100 a4_z2
<= 0

coupling_1: 
+6.0970636366218374e-07 a1_x1
+2.0537885664432197e-06 a2_x1
+1.4223041857379343e-05 a3_x1
+7.8929839135490819e-05 a4_x1
+5.8811632447301337e-06 short_1
-5.8811632447301337e-06 surp_1
= 0.0026794991100095402

coupling_2: 
+5.1899855398230386e-07 a1_x2
+2.0793243063856575e-06 a2_x2
+1.4559816609882085e-05 a3_x2
+6.9415244225283577e-05 a4_x2
+5.8811632447301337e-06 short_2
-5.8811632447301337e-06 surp_2
= 0.0058214809715728972

coupling_3: 
+6.8933607500919053e-07 a1_x3
+2.2578647187228602e-06 a2_x3
+1.1699776693540227e-05 a3_x3
+4.3384909312021754e-05 a4_x3
+5.8811632447301337e-06 short_3
-5.8811632447301337e-06 surp_3
= 0.0029603840058645909

bounds
  0 <= a1_x1 <= 100
  0 <= a1_x2 <= 100
  0 <= a1_x3 <= 100
  0 <= a1_x4 <= 100
  0 <= a1_x5 <= 100
  0 <= a1_x6 <= 100
  0 <= a2_x1 <= 100
  0 <= a2_x2 <= 100
  0 <= a2_x3 <= 100
  0 <= a2_x4 <= 100
  0 <= a2_x5 <= 100
  0 <= a2_x6 <= 100
  0 <= a3_x1 <= 100
  0 <= a3_x2 <= 100
  0 <= a3_x3 <= 100
  0 <= a3_x4 <= 100
  0 <= a3_x5 <= 100
  0 <= a3_x6 <= 100
  0 <= a4_x1 <= 100
  0 <= a4_x2 <= 100
  0 <= a4_x3 <= 100
  0 <= a4_x4 <= 100
  0 <= a4_x5 <= 100
  0 <= a4_x6 <= 100
  0 <= short_1 <= +inf
  0 <= surp_1 <= +inf
  0 <= short_2 <= +inf
  0 <= surp_2 <= +inf
  0 <= short_3 <= +inf
  0 <= surp_3 <= +inf
 0 <= a1_z1 <= 1
 0 <= a1_z2 <= 1
 0 <= a2_z1 <= 1
 0 <= a2_z2 <= 1
 0 <= a3_z1 <= 1
 0 <= a3_z2 <= 1
 0 <= a4_z1 <= 1
 0 <= a4_z2 <= 1

binary
  a1_z1
  a1_z2
  a2_z1
  a2_z2
  a3_z1
  a3_z2
  a4_z1
  a4_z2
end
