min
obj: 
  +8.0556013187453051 a1_x1
  +1.9742345173811016 a1_x2
  +4.4385591714508195 a1_x3
  +2.091774352732247 a1_x4
  +8.3606733491801819 a1_x5
  +3.1332851203907777 a1_x6
  +12.324732571684713 a1_z1
  +43.380471023797909 a1_z2
  +7.6338140335244935 a2_x1
  +9.9611693691396663 a2_x2
  +9.9407775368738864 a2_x3
  +8.2998138303753102 a2_x4
  +5.1593396215897407 a2_x5
  +2.2373011621221504 a2_x6
  +36.513419228591097 a2_z1
  +11.462176186336659 a2_z2
  +8.7735643157403977 a3_x1
  +3.6647749932252576 a3_x2
  +8.9894067496513301 a3_x3
  +1.8313374509796332 a3_x4
  +5.9661400049633215 a3_x5
  +2.3543550386909118 a3_x6
  +18.836022336426041 a3_z1
  +16.870832212175223 a3_z2
  +7.8515457332568142 a4_x1
  +9.0641405667365316 a4_x2
  +3.8803458463891136 a4_x3
  +5.5605295549433134 a4_x4
  +7.2488159045117166 a4_x5
  +9.9817052164747704 a4_x6
  +15.565550238545768 a4_z1
  +24.431792631400658 a4_z2
  +1000000 short_1
  +1000000 surp_1
  +1000000 short_2
  +1000000 surp_2
  +1000000 short_3
  +1000000 surp_3

s.t.

a1_local_1: 
+0.13625450699833155 a1_x2
+0.057355998076485643 a1_x5
+0.07280381327783586 a1_x3
<= 12.802383015296272

a1_local_2: 
+0.055215626186556989 a1_x6
+0.11014589296677813 a1_x4
+0.096053511171975206 a1_x2
<= 11.188118777624652

a1_local_3: 
+0.086628693024506639 a1_x5
+0.11610654624935744 a1_x3
+0.051633537389935841 a1_x4
<= 11.697350841717736

a1_local_4: 
+0.051986987792315878 a1_x6
+0.12581561841619035 a1_x1
+0.14957376987882973 a1_x4
<= 10.2378278289778

a1_local_5: 
+0.12853150925022228 a1_x3
+0.11652160198196732 a1_x4
+0.087611404156159201 a1_x1
<= 10.506495163431365

a1_local_6: 
+0.074751357227122936 a1_x3
+0.10524936581547828 a1_x5
+0.063218994433176162 a1_x1
<= 10.098484857147671

a1_local_7: 
+0.077708703104756888 a1_x3
+0.14720515431321471 a1_x6
+0.059498797524679028 a1_x5
<= 16.963189593832453

a1_local_8: 
+0.073383371916740561 a1_x5
+0.099916557191105981 a1_x6
+0.05267577677557958 a1_x2
<= 15.037861586289788

a1_act_1: 
+1 a1_x1
-100 a1_z1
<= 0

a1_act_2: 
+1 a1_x2
-100 a1_z2
<= 0

a2_local_1: 
+0.26797659064423018 a2_x1
+0.34218035095632082 a2_x6
+0.39626499414060323 a2_x5
<= 31.068054140181623

a2_local_2: 
+0.66975995717254755 a2_x2
+0.28384346900607854 a2_x4
+0.64537967061717549 a2_x3
<= 107.45692563018655

a2_local_3: 
+0.61303451322557734 a2_x6
+0.67357377337805568 a2_x3
+0.59055562606995238 a2_x1
<= 113.39383570188438

a2_local_4: 
+0.60820612403187646 a2_x4
+0.6321795638927119 a2_x3
+0.58803222179024772 a2_x1
<= 72.934086996551571

a2_local_5: 
+0.34356407514661369 a2_x3
+0.27228723824384471 a2_x5
+0.28582416220671775 a2_x2
<= 41.29638714733219

a2_local_6: 
+0.3581645312550133 a2_x6
+0.28479957911726389 a2_x4
+0.60851777979769506 a2_x1
<= 56.992657844192344

a2_local_7: 
+0.43239067335974063 a2_x2
+0.61975983238952714 a2_x1
+0.44948412996090192 a2_x6
<= 85.403454640382606

a2_local_8: 
+0.65595381900059357 a2_x3
+0.54071318072203889 a2_x4
+0.39678324138785931 a2_x6
<= 83.763553619009585

a2_act_1: 
+1 a2_x1
-100 a2_z1
<= 0

a2_act_2: 
+1 a2_x2
-100 a2_z2
<= 0

a3_local_1: 
+2.290900756906483 a3_x5
+1.5617427601483427 a3_x6
+1.8425877822900623 a3_x2
<= 319.36905529809161

a3_local_2: 
+2.3340186878412603 a3_x4
+1.9252257939446007 a3_x6
+2.5927808036164839 a3_x1
<= 313.85433112325694

a3_local_3: 
+1.3531254238163131 a3_x4
+1.2693061016164888 a3_x5
+2.8045078684488733 a3_x3
<= 167.35013158560051

a3_local_4: 
+2.0439695732498038 a3_x2
+1.3692221905321966 a3_x3
+2.8510606029831744 a3_x6
<= 273.34496756180226

a3_local_5: 
+1.9540446821659465 a3_x5
+2.2441143048767569 a3_x3
+1.7796280401269742 a3_x2
<= 207.81697864800566

a3_local_6: 
+3.0746310341310554 a3_x1
+2.9369420973069142 a3_x5
+2.7865423555027196 a3_x3
<= 605.25785159356667

a3_local_7: 
+2.1646164199631195 a3_x5
+2.4458114731455303 a3_x6
+2.0914146212961446 a3_x3
<= 341.25993436807255

a3_local_8: 
+1.5513398620647507 a3_x5
+2.1205018282392372 a3_x6
+1.9176423311522259 a3_x3
<= 231.62584441739909

a3_act_1: 
+1 a3_x1
-100 a3_z1
<= 0

a3_act_2: 
+1 a3_x2
-100 a3_z2
<= 0

a4_local_1: 
+12.383584975054557 a4_x2
+6.8519113522987602 a4_x5
+10.156442589550245 a4_x4
<= 1832.5885938208473

a4_local_2: 
+10.490621161313687 a4_x4
+13.264710779025389 a4_x1
+13.86718726641732 a4_x3
<= 1558.1744322279521

a4_local_3: 
+11.645687589596207 a4_x3
+7.7948066741835653 a4_x1
+10.163654791199484 a4_x6
<= 1029.2867542348554

a4_local_4: 
+10.286649802573926 a4_x2
+5.9318389520992634 a4_x3
+10.79623111051635 a4_x5
<= 982.36535464154781

a4_local_5: 
+12.778799314134304 a4_x4
+6.5291778694716252 a4_x5
+8.5933657957690528 a4_x6
<= 1619.0881071435456

a4_local_6: 
+5.1636119962206548 a4_x2
+14.464758391664567 a4_x4
+5.3289267494000807 a4_x3
<= 1423.149440896178

a4_local_7: 
+12.669083770121947 a4_x2
+9.2646305316549515 a4_x6
+10.893692632345665 a4_x1
<= 1362.5207320202367

a4_local_8: 
+10.787766288911374 a4_x5
+11.523808916613349 a4_x4
+8.9788471038916544 a4_x2
<= 1101.6807236749285

a4_act_1: 
+1 a4_x1
-100 a4_z1
<= 0

a4_act_2: 
+1 a4_x2
-100 a4_z2
<= 0

coupling_1: 
+4.2861745714169778e-05 a1_x1
+0.00035741272856177882 a2_x1
+0.0014443869428971245 a3_x1
+0.0043906230956817704 a4_x1
+0.00055311300183974292 short_1
-0.00055311300183974292 surp_1
= 0.42684288204615506

coupling_2: 
+7.3959003844646364e-05 a1_x2
+0.00017774854474089845 a2_x2
+0.0015709805237578579 a3_x2
+0.0044230644464112066 a4_x2
+0.00055311300183974292 short_2
-0.00055311300183974292 surp_2
= 0.48993570050668045

coupling_3: 
+5.5882494885611824e-05 a1_x3
+0.00018710960400418502 a2_x3
+0.0012332428525913337 a3_x3
+0.0080934329618374875 a4_x3
+0.00055311300183974292 short_3
-0.00055311300183974292 surp_3
= 0.58686033184741493

bounds
  0 <= a1_x1 <= 100
  0 <= a1_x2 <= 100
  0 <= a1_x3 <= 100
  0 <= a1_x4 <= 100
  0 <= a1_x5 <= 100
  0 <= a1_x6 <= 100
  0 <= a2_x1 <= 100
  0 <= a2_x2 <= 100
  0 <= a2_x3 <= 100
  0 <= a2_x4 <= 100
  0 <= a2_x5 <= 100
  0 <= a2_x6 <= 100
  0 <= a3_x1 <= 100
  0 <= a3_x2 <= 100
  0 <= a3_x3 <= 100
  0 <= a3_x4 <= 100
  0 <= a3_x5 <= 100
  0 <= a3_x6 <= 100
  0 <= a4_x1 <= 100
  0 <= a4_x2 <= 100
  0 <= a4_x3 <= 100
  0 <= a4_x4 <= 100
  0 <= a4_x5 <= 100
  0 <= a4_x6 <= 100
  0 <= short_1 <= +inf
  0 <= surp_1 <= +inf
  0 <= short_2 <= +inf
  0 <= surp_2 <= +inf
  0 <= short_3 <= +inf
  0 <= surp_3 <= +inf
 0 <= a1_z1 <= 1
 0 <= a1_z2 <= 1
 0 <= a2_z1 <= 1
 0 <= a2_z2 <= 1
 0 <= a3_z1 <= 1
 0 <= a3_z2 <= 1
 0 <= a4_z1 <= 1
 0 <= a4_z2 <= 1

binary
  a1_z1
  a1_z2
  a2_z1
  a2_z2
  a3_z1
  a3_z2
  a4_z1
  a4_z2
end
