min
obj: 
  +2.6204029212029933 a1_x1
  +1.0229393332967094 a1_x2
  +7.1910932224071349 a1_x3
  +4.2632745770435907 a1_x4
  +6.0246265469097295 a1_x5
  +8.5542054222394626 a1_x6
  +28.114118371176183 a1_z1
  +36.337199795344134 a1_z2
  +2.3925011221889392 a2_x1
  +1.8354708126815493 a2_x2
  +3.2680190161516656 a2_x3
  +8.5745129304172316 a2_x4
  +5.2855415708546367 a2_x5
  +8.0750857020565832 a2_x6
  +37.679921062184903 a2_z1
  +30.786063311884963 a2_z2
  +6.9098336189226917 a3_x1
  +7.224692972136415 a3_x2
  +2.7635056217757095 a3_x3
  +4.5804152664090756 a3_x4
  +5.5391766018428115 a3_x5
  +2.5280261257879362 a3_x6
  +24.719908715545547 a3_z1
  +39.060952627342751 a3_z2
  +7.8772143187643042 a4_x1
  +7.8222341244321543 a4_x2
  +1.2624357252124174 a4_x3
  +2.9341291076023293 a4_x4
  +4.8680356039416175 a4_x5
  +9.5043443020751539 a4_x6
  +34.587285029007681 a4_z1
  +29.505942671624879 a4_z2
  +1000000 short_1
  +1000000 surp_1
  +1000000 short_2
  +1000000 surp_2
  +1000000 short_3
  +1000000 surp_3

s.t.

a1_local_1: 
+1.4670520101606459 a1_x3
+0.68163909191637817 a1_x5
+1.0763481473454437 a1_x4
<= 211.02495046826519

a1_local_2: 
+1.1824451720521523 a1_x6
+0.82897500109521449 a1_x5
+1.2063089944556027 a1_x4
<= 170.49549231429987

a1_local_3: 
+1.1665244502122574 a1_x4
+0.85724735543952213 a1_x3
+1.1310511656931239 a1_x1
<= 220.18930672557426

a1_local_4: 
+0.67959542316245647 a1_x4
+1.063876022745837 a1_x2
+1.4714637060775952 a1_x5
<= 134.4168388671477

a1_local_5: 
+0.76478921693601354 a1_x2
+1.3075498161523704 a1_x4
+1.1255117187145065 a1_x3
<= 103.88439776763788

a1_local_6: 
+1.3899018468009086 a1_x6
+0.9653297731753222 a1_x1
+0.71947526532299155 a1_x4
<= 189.30457398469679

a1_local_7: 
+1.3673342509007429 a1_x2
+0.73135006991980311 a1_x5
+1.3011685407108486 a1_x1
<= 178.85635466404787

a1_local_8: 
+1.4660198982894339 a1_x3
+1.4926733989854106 a1_x4
+0.66993891676485506 a1_x5
<= 110.37961695150727

a1_act_1: 
+0.10000000000000001 a1_x1
-10 a1_z1
<= 0

a1_act_2: 
+0.10000000000000001 a1_x2
-10 a1_z2
<= 0

a2_local_1: 
+0.8754961313349785 a2_x1
+0.70241627513864757 a2_x5
+1.4236572177981117 a2_x6
<= 141.0298575145363

a2_local_2: 
+1.3027296865046969 a2_x5
+0.64896634759072602 a2_x2
+1.5409119497682415 a2_x4
<= 201.99142563315257

a2_local_3: 
+0.97638087532410778 a2_x4
+1.4960653522964651 a2_x5
+0.6684199981404535 a2_x1
<= 106.07427396536836

a2_local_4: 
+0.81585490239967073 a2_x6
+1.2257081462141171 a2_x1
+1.0106836502627077 a2_x3
<= 164.74722457283417

a2_local_5: 
+1.0532959261414332 a2_x4
+0.71248261481990205 a2_x5
+1.4035430187342539 a2_x3
<= 98.180901444866578

a2_local_6: 
+1.0535917610320984 a2_x5
+0.96114250482489272 a2_x3
+0.94913422540472414 a2_x1
<= 201.06070192809983

a2_local_7: 
+0.5749411295992285 a2_x3
+0.57722434682487278 a2_x1
+0.54644542738999002 a2_x4
<= 66.794388794179227

a2_local_8: 
+1.006605925067948 a2_x6
+0.88834761359364711 a2_x1
+1.1256854689513753 a2_x3
<= 188.30495422318131

a2_act_1: 
+0.10000000000000001 a2_x1
-10 a2_z1
<= 0

a2_act_2: 
+0.10000000000000001 a2_x2
-10 a2_z2
<= 0

a3_local_1: 
+1.2899386156101713 a3_x2
+0.77523068764553293 a3_x1
+1.0024967945448977 a3_x3
<= 163.82327089541843

a3_local_2: 
+1.5254807944214481 a3_x6
+1.3522290600030547 a3_x5
+2.6256081330148522 a3_x2
<= 211.16154668167115

a3_local_3: 
+2.4696708120643129 a3_x3
+1.2405416626936259 a3_x6
+2.0342420139159381 a3_x4
<= 304.34288088022288

a3_local_4: 
+1.0571356976342792 a3_x1
+0.78177264721633966 a3_x4
+1.2791442672760465 a3_x3
<= 150.77546422868929

a3_local_5: 
+1.1313792951047257 a3_x1
+1.0363871383368688 a3_x2
+0.88387687871505138 a3_x3
<= 145.67712498222568

a3_local_6: 
+1.102545377291037 a3_x5
+3.1559455143568962 a3_x1
+2.27513708257522 a3_x2
<= 409.36686344059927

a3_local_7: 
+2.8483863980792616 a3_x5
+1.3407037243423456 a3_x6
+2.3173387941212455 a3_x3
<= 296.15256112131783

a3_local_8: 
+2.5035530880514627 a3_x2
+1.1520010184749956 a3_x6
+2.7478118099189968 a3_x4
<= 271.59819387706983

a3_act_1: 
+0.10000000000000001 a3_x1
-10 a3_z1
<= 0

a3_act_2: 
+0.10000000000000001 a3_x2
-10 a3_z2
<= 0

a4_local_1: 
+1.1526840985477425 a4_x5
+0.86754037924171257 a4_x4
+0.99413848070664224 a4_x6
<= 98.187616336148167

a4_local_2: 
+0.82783830482285792 a4_x6
+1.395289707819892 a4_x4
+0.71669703746505586 a4_x2
<= 112.7313443034059

a4_local_3: 
+0.64677177216211057 a4_x1
+0.972670541564715 a4_x6
+1.5461404517656572 a4_x5
<= 201.64943780402334

a4_local_4: 
+1.2256947500956925 a4_x3
+0.85321828426133373 a4_x5
+0.81586381921104578 a4_x4
<= 165.31735350082005

a4_local_5: 
+1.5377741940402769 a4_x2
+0.65029053282045668 a4_x1
+1.5201562898371217 a4_x5
<= 120.39909135740263

a4_local_6: 
+1.3687735088302964 a4_x6
+0.88573577134642001 a4_x5
+0.73058105928318506 a4_x4
<= 205.8794723748106

a4_local_7: 
+1.2183779908900552 a4_x6
+0.94488880893307403 a4_x1
+0.82076334887621816 a4_x4
<= 115.32177128578986

a4_local_8: 
+1.5976393712405064 a4_x6
+1.4676217269728333 a4_x1
+0.62592348310966961 a4_x2
<= 145.72164324845949

a4_act_1: 
+0.10000000000000001 a4_x1
-10 a4_z1
<= 0

a4_act_2: 
+0.10000000000000001 a4_x2
-10 a4_z2
<= 0

coupling_1: 
+0.0057270097759501695 a1_x1
+0.047624377186353331 a2_x1
+0.22882830491107792 a3_x1
+0.96610015595288656 a4_x1
+0.077418394442047914 short_1
-0.077418394442047914 surp_1
= 70.561049108252959

coupling_2: 
+0.0041880004012229089 a1_x2
+0.043558409138850084 a2_x2
+0.12280704977896895 a3_x2
+0.98444455110223861 a4_x2
+0.083284092045328509 short_2
-0.083284092045328509 surp_2
= 80.827314444521463

coupling_3: 
+0.0089868206383460162 a1_x3
+0.042771568672152649 a2_x3
+0.20129243476052669 a3_x3
+0.97279560514675778 a4_x3
+0.074966313379643559 short_3
-0.074966313379643559 surp_3
= 43.584181477522442

bounds
  0 <= a1_x1 <= 100
  0 <= a1_x2 <= 100
  0 <= a1_x3 <= 100
  0 <= a1_x4 <= 100
  0 <= a1_x5 <= 100
  0 <= a1_x6 <= 100
  0 <= a2_x1 <= 100
  0 <= a2_x2 <= 100
  0 <= a2_x3 <= 100
  0 <= a2_x4 <= 100
  0 <= a2_x5 <= 100
  0 <= a2_x6 <= 100
  0 <= a3_x1 <= 100
  0 <= a3_x2 <= 100
  0 <= a3_x3 <= 100
  0 <= a3_x4 <= 100
  0 <= a3_x5 <= 100
  0 <= a3_x6 <= 100
  0 <= a4_x1 <= 100
  0 <= a4_x2 <= 100
  0 <= a4_x3 <= 100
  0 <= a4_x4 <= 100
  0 <= a4_x5 <= 100
  0 <= a4_x6 <= 100
  0 <= short_1 <= +inf
  0 <= surp_1 <= +inf
  0 <= short_2 <= +inf
  0 <= surp_2 <= +inf
  0 <= short_3 <= +inf
  0 <= surp_3 <= +inf
 0 <= a1_z1 <= 1
 0 <= a1_z2 <= 1
 0 <= a2_z1 <= 1
 0 <= a2_z2 <= 1
 0 <= a3_z1 <= 1
 0 <= a3_z2 <= 1
 0 <= a4_z1 <= 1
 0 <= a4_z2 <= 1

binary
  a1_z1
  a1_z2
  a2_z1
  a2_z2
  a3_z1
  a3_z2
  a4_z1
  a4_z2
end
