min
obj: 
  +4.1029321056614965 a1_x1
  +3.3290118192963942 a1_x2
  +9.1017647242801925 a1_x3
  +1.0276781995025082 a1_x4
  +7.5015228430107515 a1_x5
  +9.6952211771409225 a1_x6
  +46.462393702811802 a1_z1
  +20.976939063031899 a1_z2
  +8.736124438174345 a2_x1
  +2.0422875685559534 a2_x2
  +7.9141637375248139 a2_x3
  +8.8510497644699591 a2_x4
  +5.3589026031734779 a2_x5
  +4.4651025961117679 a2_x6
  +43.599104627831977 a2_z1
  +13.736336737274122 a2_z2
  +8.7712175698219141 a3_x1
  +5.7628145052800139 a3_x2
  +8.5270938060320436 a3_x3
  +1.138926571582954 a3_x4
  +2.911442950069294 a3_x5
  +3.0275728231625529 a3_x6
  +21.64888772902043 a3_z1
  +37.443506250957391 a3_z2
  +3.737467766634015 a4_x1
  +6.3047039607963935 a4_x2
  +7.2324424815448989 a4_x3
  +3.5312943582825165 a4_x4
  +2.1943254476366931 a4_x5
  +2.7966711705726111 a4_x6
  +25.767819676338174 a4_z1
  +25.233732022591987 a4_z2
  +1000000 short_1
  +1000000 surp_1
  +1000000 short_2
  +1000000 surp_2
  +1000000 short_3
  +1000000 surp_3

s.t.

a1_local_1: 
+0.10828677723760305 a1_x6
+0.075423202546379381 a1_x1
+0.074678262613654095 a1_x4
<= 11.678046311279205

a1_local_2: 
+0.063301305721456258 a1_x6
+0.076105004001529961 a1_x5
+0.10110095882435435 a1_x4
<= 10.726398022524732

a1_local_3: 
+0.097322373212838348 a1_x1
+0.1354047148240749 a1_x5
+0.10952058011131521 a1_x6
<= 15.645355511221529

a1_local_4: 
+0.11305541739845237 a1_x4
+0.061834428152885715 a1_x5
+0.13878254279257429 a1_x3
<= 21.518264076509418

a1_local_5: 
+0.056190733572091513 a1_x6
+0.11651134280048088 a1_x2
+0.10095446440488796 a1_x1
<= 10.60752801749056

a1_local_6: 
+0.11999305552737832 a1_x5
+0.096166051266273089 a1_x1
+0.14626258469645409 a1_x6
<= 21.953320760903594

a1_local_7: 
+0.073614684931468652 a1_x5
+0.12469721548745545 a1_x1
+0.058785690884401144 a1_x3
<= 13.20227857646716

a1_local_8: 
+0.077447165674464441 a1_x1
+0.12722878826710685 a1_x3
+0.12709665923078006 a1_x4
<= 18.708407763394462

a1_act_1: 
+1 a1_x1
-100 a1_z1
<= 0

a1_act_2: 
+1 a1_x2
-100 a1_z2
<= 0

a2_local_1: 
+0.36353975853708448 a2_x4
+0.66538706543969173 a2_x5
+0.58187843579534926 a2_x1
<= 48.470070278007604

a2_local_2: 
+0.68075693279386518 a2_x4
+0.60481592760766745 a2_x5
+0.29195593868319891 a2_x2
<= 75.736664863395575

a2_local_3: 
+0.56767769955076086 a2_x6
+0.65302783320504876 a2_x3
+0.48293400883379917 a2_x4
<= 110.54575892203712

a2_local_4: 
+0.45020832245519266 a2_x3
+0.40198168356660757 a2_x2
+0.53025544856673823 a2_x5
<= 61.75764790313783

a2_local_5: 
+0.64121848835429274 a2_x3
+0.65950491884133822 a2_x4
+0.33403504224279174 a2_x5
<= 113.60486732932422

a2_local_6: 
+0.57264794537031583 a2_x1
+0.37460116245623287 a2_x4
+0.64201923981823039 a2_x5
<= 104.79571376242772

a2_local_7: 
+0.57675983587326018 a2_x6
+0.6838858274412688 a2_x2
+0.62477054855402947 a2_x4
<= 85.701474083470288

a2_local_8: 
+0.6865660214053636 a2_x5
+0.5701469983080405 a2_x1
+0.40639793740128471 a2_x3
<= 60.572308939727876

a2_act_1: 
+1 a2_x1
-100 a2_z1
<= 0

a2_act_2: 
+1 a2_x2
-100 a2_z2
<= 0

a3_local_1: 
+1.1581055774321589 a3_x4
+3.0689964829083189 a3_x2
+1.76926954559452 a3_x6
<= 365.30476457523474

a3_local_2: 
+2.6241645194524996 a3_x1
+2.3231486084583546 a3_x4
+1.6104904871827097 a3_x2
<= 421.82835086958522

a3_local_3: 
+1.5201124465753453 a3_x3
+1.6613488606474933 a3_x6
+1.9418041423379817 a3_x5
<= 274.97128809706527

a3_local_4: 
+1.1672567539753518 a3_x6
+2.0149930556926021 a3_x4
+2.5944350418029249 a3_x1
<= 394.71982822673601

a3_local_5: 
+1.5355926626115477 a3_x6
+2.9669401685901997 a3_x4
+1.3368027294216769 a3_x3
<= 195.6392220751809

a3_local_6: 
+1.7311647581495242 a3_x2
+1.5571983119074455 a3_x6
+2.620600335842421 a3_x5
<= 301.39377500260906

a3_local_7: 
+1.4345584942930032 a3_x3
+1.1982147806272001 a3_x4
+2.2790753733621285 a3_x5
<= 339.50599303725852

a3_local_8: 
+1.700665130994679 a3_x5
+3.0642823603825406 a3_x1
+2.5312365238893029 a3_x6
<= 326.33549019253292

a3_act_1: 
+1 a3_x1
-100 a3_z1
<= 0

a3_act_2: 
+1 a3_x2
-100 a3_z2
<= 0

a4_local_1: 
+13.862282819263992 a4_x5
+10.47816259537659 a4_x2
+8.2327604170798097 a4_x1
<= 1670.5647190743321

a4_local_2: 
+13.627381719005083 a4_x4
+10.877655395092409 a4_x6
+14.221902753143494 a4_x2
<= 2706.2462369641307

a4_local_3: 
+13.921278594327404 a4_x3
+5.9598220757298535 a4_x6
+6.3007787632798076 a4_x4
<= 867.79026431858995

a4_local_4: 
+10.853606089393622 a4_x6
+12.430817034139247 a4_x1
+6.604424317276715 a4_x2
<= 934.60732580706269

a4_local_5: 
+12.370642344216275 a4_x5
+8.4924011403493651 a4_x6
+14.525339836563342 a4_x1
<= 2399.7920257136952

a4_local_6: 
+12.661144102702735 a4_x1
+9.2876616409906241 a4_x3
+10.128172753983979 a4_x6
<= 1643.3228020924046

a4_local_7: 
+12.247874733283087 a4_x1
+6.2220460593405633 a4_x3
+13.062234300634133 a4_x6
<= 1906.0668132338399

a4_local_8: 
+11.893236725313535 a4_x1
+13.69451483213137 a4_x3
+8.8675437501986742 a4_x4
<= 2162.364397022448

a4_act_1: 
+1 a4_x1
-100 a4_z1
<= 0

a4_act_2: 
+1 a4_x2
-100 a4_z2
<= 0

coupling_1: 
+61698.930740384363 a1_x1
+487450.71882354823 a2_x1
+910233.41588918061 a3_x1
+7276459.9970441656 a4_x1
+801409.07394939649 short_1
-801409.07394939649 surp_1
= 361220351.05213177

coupling_2: 
+52080.766015240428 a1_x2
+404952.06641567586 a2_x2
+1230492.560157663 a3_x2
+5747344.3178643063 a4_x2
+801409.07394939649 short_2
-801409.07394939649 surp_2
= 351929380.27047628

coupling_3: 
+71890.246440118106 a1_x3
+417251.15654323832 a2_x3
+922122.88039596763 a3_x3
+6316512.2001096765 a4_x3
+801409.07394939649 short_3
-801409.07394939649 surp_3
= 298210542.02306163

bounds
  0 <= a1_x1 <= 100
  0 <= a1_x2 <= 100
  0 <= a1_x3 <= 100
  0 <= a1_x4 <= 100
  0 <= a1_x5 <= 100
  0 <= a1_x6 <= 100
  0 <= a2_x1 <= 100
  0 <= a2_x2 <= 100
  0 <= a2_x3 <= 100
  0 <= a2_x4 <= 100
  0 <= a2_x5 <= 100
  0 <= a2_x6 <= 100
  0 <= a3_x1 <= 100
  0 <= a3_x2 <= 100
  0 <= a3_x3 <= 100
  0 <= a3_x4 <= 100
  0 <= a3_x5 <= 100
  0 <= a3_x6 <= 100
  0 <= a4_x1 <= 100
  0 <= a4_x2 <= 100
  0 <= a4_x3 <= 100
  0 <= a4_x4 <= 100
  0 <= a4_x5 <= 100
  0 <= a4_x6 <= 100
  0 <= short_1 <= +inf
  0 <= surp_1 <= +inf
  0 <= short_2 <= +inf
  0 <= surp_2 <= +inf
  0 <= short_3 <= +inf
  0 <= surp_3 <= +inf
 0 <= a1_z1 <= 1
 0 <= a1_z2 <= 1
 0 <= a2_z1 <= 1
 0 <= a2_z2 <= 1
 0 <= a3_z1 <= 1
 0 <= a3_z2 <= 1
 0 <= a4_z1 <= 1
 0 <= a4_z2 <= 1

binary
  a1_z1
  a1_z2
  a2_z1
  a2_z2
  a3_z1
  a3_z2
  a4_z1
  a4_z2
end
