min
obj: 
  +1.8591431952918778 a1_x1
  +3.3231109040519993 a1_x2
  +9.2087059181463786 a1_x3
  +9.6203246603591985 a1_x4
  +2.6522167369866532 a1_x5
  +9.1942431803836406 a1_x6
  +15.231591264695247 a1_z1
  +37.870536168888826 a1_z2
  +9.5099240901526567 a2_x1
  +7.5753998333245365 a2_x2
  +7.2545869758953661 a2_x3
  +4.0776176539598987 a2_x4
  +7.0823179577413251 a2_x5
  +8.348071264940085 a2_x6
  +13.295788449057502 a2_z1
  +34.639218331961018 a2_z2
  +8.7650426689296079 a3_x1
  +7.7797720123238729 a3_x2
  +6.0483854765360672 a3_x3
  +6.4868155236610479 a3_x4
  +7.5914186799784584 a3_x5
  +2.6670787193002194 a3_x6
  +17.076428731733131 a3_z1
  +32.166931894716356 a3_z2
  +3.9578684115063361 a4_x1
  +4.7726522238702849 a4_x2
  +6.6226528859876028 a4_x3
  +9.5073045520096944 a4_x4
  +5.1085987408368467 a4_x5
  +6.1990863498809015 a4_x6
  +14.100841079092167 a4_z1
  +36.135322859790648 a4_z2
  +1000000 short_1
  +1000000 surp_1
  +1000000 short_2
  +1000000 surp_2
  +1000000 short_3
  +1000000 surp_3

s.t.

a1_local_1: 
+1.1866305975125664 a1_x5
+0.8427222440549027 a1_x4
+1.1385095388597537 a1_x3
<= 113.08946843027314

a1_local_2: 
+1.2129037560419322 a1_x2
+0.82446772468023277 a1_x4
+0.94047146436761953 a1_x3
<= 200.52635914903735

a1_local_3: 
+1.1892595302762889 a1_x1
+0.70624019261684512 a1_x6
+1.4159488661990207 a1_x3
<= 137.36484837459525

a1_local_4: 
+0.97107579677322953 a1_x3
+0.97039826357777592 a1_x6
+1.0305047293809915 a1_x5
<= 177.03726679827494

a1_local_5: 
+1.0448982723637363 a1_x2
+1.0199976295396131 a1_x3
+0.95703096315570602 a1_x5
<= 100.43231374437178

a1_local_6: 
+0.95322638536518678 a1_x4
+1.0490687368215201 a1_x3
+0.96257655513364349 a1_x2
<= 193.70900116544291

a1_local_7: 
+1.1022972577833721 a1_x6
+1.1126701681175293 a1_x4
+0.898738933292199 a1_x5
<= 207.95268865003118

a1_local_8: 
+1.0275470468592081 a1_x3
+1.4269634014072226 a1_x4
+0.70078882122262864 a1_x2
<= 216.61756327360479

a1_act_1: 
+0.10000000000000001 a1_x1
-10 a1_z1
<= 0

a1_act_2: 
+0.10000000000000001 a1_x2
-10 a1_z2
<= 0

a2_local_1: 
+1.2634323298289092 a2_x5
+1.5422949933167265 a2_x1
+0.6483843910103646 a2_x3
<= 222.25162250789526

a2_local_2: 
+0.51995823675303232 a2_x3
+0.47969357296189841 a2_x1
+0.60003905109844158 a2_x2
<= 95.76219958019729

a2_local_3: 
+0.85028578090460416 a2_x4
+1.1509055732770219 a2_x6
+1.1760751766730912 a2_x2
<= 104.58914623303296

a2_local_4: 
+0.66876191396897688 a2_x5
+0.54579570241004216 a2_x2
+0.4149875981751342 a2_x3
<= 88.612445318301411

a2_local_5: 
+0.63772816619695083 a2_x2
+0.56737692429587161 a2_x1
+0.51827546427339344 a2_x5
<= 57.279198642332446

a2_local_6: 
+0.59606155638378677 a2_x4
+1.677679074065513 a2_x3
+1.1444585941078418 a2_x2
<= 238.7474349344169

a2_local_7: 
+1.3205375370468466 a2_x1
+1.433290614260301 a2_x4
+0.69769521271586954 a2_x6
<= 173.19542148187574

a2_local_8: 
+0.89268321571713583 a2_x4
+0.88907013168472648 a2_x5
+1.1247706613482438 a2_x1
<= 180.29823967178342

a2_act_1: 
+0.10000000000000001 a2_x1
-10 a2_z1
<= 0

a2_act_2: 
+0.10000000000000001 a2_x2
-10 a2_z2
<= 0

a3_local_1: 
+2.3802879528858201 a3_x3
+1.4577620905296549 a3_x2
+1.2628755268967538 a3_x1
<= 295.61942658159137

a3_local_2: 
+2.9702312318121686 a3_x3
+1.1518802201101357 a3_x5
+2.0878910632077057 a3_x1
<= 365.15273183460795

a3_local_3: 
+1.599202588053247 a3_x1
+1.4147555487126271 a3_x6
+1.3257294516800582 a3_x5
<= 247.0773804646752

a3_local_4: 
+2.0454142921986151 a3_x4
+1.4615507424998275 a3_x5
+2.4928819453310567 a3_x3
<= 203.7960602619797

a3_local_5: 
+1.3275027410575371 a3_x5
+1.6113097670037695 a3_x2
+1.2682455528525105 a3_x3
<= 145.6957839339951

a3_local_6: 
+0.7697864356762355 a3_x1
+0.98787716071662601 a3_x4
+1.2990616015746346 a3_x6
<= 152.06696171547796

a3_local_7: 
+0.94696891904956715 a3_x2
+1.0560008674874546 a3_x6
+0.98329938535233496 a3_x3
<= 178.24500625580521

a3_local_8: 
+3.0234624072463308 a3_x4
+2.6449386501160408 a3_x3
+1.2731063561022058 a3_x1
<= 303.10991798766855

a3_act_1: 
+0.10000000000000001 a3_x1
-10 a3_z1
<= 0

a3_act_2: 
+0.10000000000000001 a3_x2
-10 a3_z2
<= 0

a4_local_1: 
+0.70567542439175346 a4_x4
+1.4170820825479866 a4_x1
+0.79082808277754668 a4_x2
<= 102.25958343560049

a4_local_2: 
+1.3055246517385706 a4_x5
+1.2004428602721431 a4_x4
+0.76597557822312867 a4_x1
<= 106.20960168342521

a4_local_3: 
+1.489616492701165 a4_x1
+0.67131372732499128 a4_x2
+0.86319441635113603 a4_x4
<= 119.97220009538405

a4_local_4: 
+1.3397986303402845 a4_x6
+0.66128787772163222 a4_x3
+1.5122007127143315 a4_x4
<= 151.83690557479702

a4_local_5: 
+0.6038046095165206 a4_x6
+1.6561648987753204 a4_x3
+1.4694022008743077 a4_x5
<= 116.46282389976717

a4_local_6: 
+0.81171975453084677 a4_x4
+0.83434651703754104 a4_x1
+1.2319522771476403 a4_x5
<= 143.54596557308963

a4_local_7: 
+0.66872042334298265 a4_x1
+0.67875866413331765 a4_x2
+1.4953932392268303 a4_x3
<= 145.58383353219438

a4_local_8: 
+0.87962752140740263 a4_x2
+1.1935185705730329 a4_x3
+0.83785876873275567 a4_x4
<= 191.26203055504743

a4_act_1: 
+0.10000000000000001 a4_x1
-10 a4_z1
<= 0

a4_act_2: 
+0.10000000000000001 a4_x2
-10 a4_z2
<= 0

coupling_1: 
+0.075373606194027068 a1_x1
+0.45534681505748875 a2_x1
+2.4957215938877306 a3_x1
+13.267243674474001 a4_x1
+1.1711817725412312 short_1
-1.1711817725412312 surp_1
= 1261.0853905194813

coupling_2: 
+0.097266311209958323 a1_x2
+0.41891408076927794 a2_x2
+2.3014560225440635 a3_x2
+10.281051965067403 a4_x2
+1.0307106826356898 short_2
-1.0307106826356898 surp_2
= 580.22655047640853

coupling_3: 
+0.096164807082282894 a1_x3
+0.4702351961937864 a2_x3
+1.3615169030877248 a3_x3
+10.398814601108237 a4_x3
+0.69515939521316705 short_3
-0.69515939521316705 surp_3
= 862.41324025850656

bounds
  0 <= a1_x1 <= 100
  0 <= a1_x2 <= 100
  0 <= a1_x3 <= 100
  0 <= a1_x4 <= 100
  0 <= a1_x5 <= 100
  0 <= a1_x6 <= 100
  0 <= a2_x1 <= 100
  0 <= a2_x2 <= 100
  0 <= a2_x3 <= 100
  0 <= a2_x4 <= 100
  0 <= a2_x5 <= 100
  0 <= a2_x6 <= 100
  0 <= a3_x1 <= 100
  0 <= a3_x2 <= 100
  0 <= a3_x3 <= 100
  0 <= a3_x4 <= 100
  0 <= a3_x5 <= 100
  0 <= a3_x6 <= 100
  0 <= a4_x1 <= 100
  0 <= a4_x2 <= 100
  0 <= a4_x3 <= 100
  0 <= a4_x4 <= 100
  0 <= a4_x5 <= 100
  0 <= a4_x6 <= 100
  0 <= short_1 <= +inf
  0 <= surp_1 <= +inf
  0 <= short_2 <= +inf
  0 <= surp_2 <= +inf
  0 <= short_3 <= +inf
  0 <= surp_3 <= +inf
 0 <= a1_z1 <= 1
 0 <= a1_z2 <= 1
 0 <= a2_z1 <= 1
 0 <= a2_z2 <= 1
 0 <= a3_z1 <= 1
 0 <= a3_z2 <= 1
 0 <= a4_z1 <= 1
 0 <= a4_z2 <= 1

binary
  a1_z1
  a1_z2
  a2_z1
  a2_z2
  a3_z1
  a3_z2
  a4_z1
  a4_z2
end
