min
obj: 
  +4.0871141162290519 a1_x1
  +7.6613663727576089 a1_x2
  +4.8999168943267346 a1_x3
  +9.1856075433138287 a1_x4
  +7.8055232956727103 a1_x5
  +3.4861746229099309 a1_x6
  +23.402378726140935 a1_z1
  +18.267560866392444 a1_z2
  +9.867310978744726 a2_x1
  +9.2615292817302226 a2_x2
  +3.5007890513184758 a2_x3
  +7.1637373168446201 a2_x4
  +7.9245284991421201 a2_x5
  +2.4582106797035337 a2_x6
  +33.658905491272137 a2_z1
  +35.254409520378104 a2_z2
  +2.6732854397558619 a3_x1
  +9.8971817318039896 a3_x2
  +5.2211213282041085 a3_x3
  +8.0114291145185241 a3_x4
  +2.5829750625381869 a3_x5
  +9.9025128730968675 a3_x6
  +27.0926152551414 a3_z1
  +47.996135855740022 a3_z2
  +8.2046274155609638 a4_x1
  +7.1214056561276049 a4_x2
  +6.2664722965402984 a4_x3
  +7.507966634456313 a4_x4
  +5.5736057519875928 a4_x5
  +1.8081083701963157 a4_x6
  +27.561079601884479 a4_z1
  +34.985951557117836 a4_z2
  +1000000 short_1
  +1000000 surp_1
  +1000000 short_2
  +1000000 surp_2
  +1000000 short_3
  +1000000 surp_3

s.t.

a1_local_1: 
+0.51177832521965261 a1_x6
+0.28450914320719162 a1_x4
+0.81064017496474805 a1_x2
<= 111.37553526577564

a1_local_2: 
+0.76791484251516662 a1_x6
+0.4566369043133468 a1_x3
+0.44920989778057019 a1_x2
<= 51.838027079838334

a1_local_3: 
+0.44698940347279698 a1_x6
+0.58502824507983364 a1_x4
+0.67671443433832768 a1_x1
<= 91.234533704569728

a1_local_4: 
+0.83720606385463092 a1_x4
+0.33374683498921243 a1_x5
+0.43324249189076436 a1_x2
<= 106.80870463993986

a1_local_5: 
+0.60174235782026142 a1_x5
+0.64665696882494061 a1_x1
+0.46876529252393673 a1_x4
<= 116.20051723862804

a1_local_6: 
+0.57223072458145829 a1_x2
+0.71499759773355109 a1_x6
+0.40165959851624394 a1_x1
<= 82.924668999894948

a1_local_7: 
+0.65645891170005355 a1_x2
+0.65084717522053082 a1_x1
+0.38139173005852778 a1_x3
<= 75.244920991161678

a1_local_8: 
+0.48537972898295129 a1_x2
+0.56254878232091132 a1_x4
+0.66928722249994954 a1_x3
<= 98.35536899130885

a1_act_1: 
+0.0099995000374968751 a1_x1
-0.99995000374968757 a1_z1
<= 0

a1_act_2: 
+0.0099995000374968751 a1_x2
-0.99995000374968757 a1_z2
<= 0

a2_local_1: 
+0.63676979229140496 a2_x6
+0.67530625543603739 a2_x2
+0.6719208674291417 a2_x4
<= 95.334311173774282

a2_local_2: 
+0.50357863186560414 a2_x2
+0.35955563751158837 a2_x3
+0.38548869849063416 a2_x6
<= 86.185752577715434

a2_local_3: 
+0.31125431327357905 a2_x4
+0.61889551639039064 a2_x6
+0.51668688046025457 a2_x2
<= 43.941669931216111

a2_local_4: 
+0.57897019630146507 a2_x6
+0.6397930308376103 a2_x2
+0.62515195144137559 a2_x4
<= 100.4399969242987

a2_local_5: 
+0.35863055138360755 a2_x2
+0.59322906296440114 a2_x3
+0.33372328686389263 a2_x1
<= 71.736515119508994

a2_local_6: 
+0.46658843108408976 a2_x4
+0.53671075354728992 a2_x6
+0.51462429463162274 a2_x2
<= 95.17698831477135

a2_local_7: 
+0.64497908506506463 a2_x5
+0.62322398699758264 a2_x2
+0.44325598011732043 a2_x3
<= 115.48845990234904

a2_local_8: 
+0.23590559571345707 a2_x5
+0.47902267806306648 a2_x4
+0.53949925980088242 a2_x6
<= 54.766305545068718

a2_act_1: 
+0.0099995000374968751 a2_x1
-0.99995000374968757 a2_z1
<= 0

a2_act_2: 
+0.0099995000374968751 a2_x2
-0.99995000374968757 a2_z2
<= 0

a3_local_1: 
+0.35554942504552939 a3_x3
+0.48669195589681807 a3_x5
+0.79794457602964075 a3_x6
<= 102.77379265209926

a3_local_2: 
+0.6962209259674621 a3_x4
+0.55796445287334706 a3_x1
+0.45161055299312508 a3_x2
<= 111.01512121297971

a3_local_3: 
+0.54768870288172489 a3_x3
+0.64439965413949107 a3_x5
+0.53365360532899819 a3_x2
<= 68.678983711277596

a3_local_4: 
+0.70260879533184195 a3_x2
+0.55809959007910703 a3_x6
+0.44143598434639458 a3_x4
<= 115.79830774647951

a3_local_5: 
+0.46115077178689168 a3_x2
+0.61974129553870161 a3_x3
+0.63502810353902117 a3_x1
<= 96.897711167356505

a3_local_6: 
+0.5734002661364318 a3_x1
+0.46463369362578838 a3_x5
+0.67477971630920131 a3_x4
<= 76.455390934484129

a3_local_7: 
+0.37155754107264288 a3_x2
+0.8099070720602024 a3_x1
+0.45386730252235752 a3_x3
<= 63.048066978483398

a3_local_8: 
+0.5156199130326562 a3_x4
+0.54327962890760972 a3_x5
+0.66255818619816786 a3_x2
<= 94.768203938537766

a3_act_1: 
+0.0099995000374968751 a3_x1
-0.99995000374968757 a3_z1
<= 0

a3_act_2: 
+0.0099995000374968751 a3_x2
-0.99995000374968757 a3_z2
<= 0

a4_local_1: 
+0.82150988783141865 a4_x3
+0.38318117213540948 a4_x2
+0.4222483789384438 a4_x6
<= 103.22932457791136

a4_local_2: 
+0.68471316777683144 a4_x6
+0.61982427159996856 a4_x1
+0.38338720663134407 a4_x5
<= 75.781391142678245

a4_local_3: 
+0.31977066863202402 a4_x4
+0.64032252481575425 a4_x5
+0.69837939810407224 a4_x6
<= 83.478519811143627

a4_local_4: 
+0.55442971553093812 a4_x6
+0.70249763027836853 a4_x2
+0.4462115753648257 a4_x4
<= 93.188699045799453

a4_local_5: 
+0.49507287426208862 a4_x3
+0.5381255972754766 a4_x6
+0.68214638511597037 a4_x1
<= 119.14531788870916

a4_local_6: 
+0.41209631250782836 a4_x5
+0.73471033678240849 a4_x6
+0.53886672771895094 a4_x2
<= 98.783245379746447

a4_local_7: 
+0.76613397868634625 a4_x4
+0.34430635287540406 a4_x3
+0.54267104406985545 a4_x2
<= 105.2565632421782

a4_local_8: 
+0.72316651749970251 a4_x3
+0.33876348135179685 a4_x6
+0.60188827174963555 a4_x2
<= 110.79018304901125

a4_act_1: 
+0.0099995000374968751 a4_x1
-0.99995000374968757 a4_z1
<= 0

a4_act_2: 
+0.0099995000374968751 a4_x2
-0.99995000374968757 a4_z2
<= 0

coupling_1: 
+0.0058055000528806832 a1_x1
+0.03724596413619554 a2_x1
+0.2021233627135661 a3_x1
+0.97279238055130646 a4_x1
+0.075498890426891174 short_1
-0.075498890426891174 surp_1
= 72.121780053557856

coupling_2: 
+0.011155920469458789 a1_x2
+0.041367870368619684 a2_x2
+0.25314091346355272 a3_x2
+0.95999313814466192 a4_x2
+0.079047762098766169 short_2
-0.079047762098766169 surp_2
= 82.96200314777748

coupling_3: 
+0.011148428169693912 a1_x3
+0.048354410806057513 a2_x3
+0.16700798266577749 a3_x3
+0.9752571406769861 a4_x3
+0.09622735263271362 short_3
-0.09622735263271362 surp_3
= 80.102878612335587

bounds
  0 <= a1_x1 <= 100
  0 <= a1_x2 <= 100
  0 <= a1_x3 <= 100
  0 <= a1_x4 <= 100
  0 <= a1_x5 <= 100
  0 <= a1_x6 <= 100
  0 <= a2_x1 <= 100
  0 <= a2_x2 <= 100
  0 <= a2_x3 <= 100
  0 <= a2_x4 <= 100
  0 <= a2_x5 <= 100
  0 <= a2_x6 <= 100
  0 <= a3_x1 <= 100
  0 <= a3_x2 <= 100
  0 <= a3_x3 <= 100
  0 <= a3_x4 <= 100
  0 <= a3_x5 <= 100
  0 <= a3_x6 <= 100
  0 <= a4_x1 <= 100
  0 <= a4_x2 <= 100
  0 <= a4_x3 <= 100
  0 <= a4_x4 <= 100
  0 <= a4_x5 <= 100
  0 <= a4_x6 <= 100
  0 <= short_1 <= +inf
  0 <= surp_1 <= +inf
  0 <= short_2 <= +inf
  0 <= surp_2 <= +inf
  0 <= short_3 <= +inf
  0 <= surp_3 <= +inf
 0 <= a1_z1 <= 1
 0 <= a1_z2 <= 1
 0 <= a2_z1 <= 1
 0 <= a2_z2 <= 1
 0 <= a3_z1 <= 1
 0 <= a3_z2 <= 1
 0 <= a4_z1 <= 1
 0 <= a4_z2 <= 1

binary
  a1_z1
  a1_z2
  a2_z1
  a2_z2
  a3_z1
  a3_z2
  a4_z1
  a4_z2
end
