min
obj: 
  +8.0556013187453051 a1_x1
  +1.9742345173811016 a1_x2
  +4.4385591714508195 a1_x3
  +2.091774352732247 a1_x4
  +8.3606733491801819 a1_x5
  +3.1332851203907777 a1_x6
  +12.324732571684713 a1_z1
  +43.380471023797909 a1_z2
  +7.6338140335244935 a2_x1
  +9.9611693691396663 a2_x2
  +9.9407775368738864 a2_x3
  +8.2998138303753102 a2_x4
  +5.1593396215897407 a2_x5
  +2.2373011621221504 a2_x6
  +36.513419228591097 a2_z1
  +11.462176186336659 a2_z2
  +8.7735643157403977 a3_x1
  +3.6647749932252576 a3_x2
  +8.9894067496513301 a3_x3
  +1.8313374509796332 a3_x4
  +5.9661400049633215 a3_x5
  +2.3543550386909118 a3_x6
  +18.836022336426041 a3_z1
  +16.870832212175223 a3_z2
  +7.8515457332568142 a4_x1
  +9.0641405667365316 a4_x2
  +3.8803458463891136 a4_x3
  +5.5605295549433134 a4_x4
  +7.2488159045117166 a4_x5
  +9.9817052164747704 a4_x6
  +15.565550238545768 a4_z1
  +24.431792631400658 a4_z2
  +1000000 short_1
  +1000000 surp_1
  +1000000 short_2
  +1000000 surp_2
  +1000000 short_3
  +1000000 surp_3

s.t.

a1_local_1: 
+1.5412958802844954 a1_x2
+0.64880469272091867 a1_x5
+0.82354866599388232 a1_x3
<= 144.81913761239446

a1_local_2: 
+0.70802215372229949 a1_x6
+1.412385184196115 a1_x4
+1.2316805685186332 a1_x2
<= 143.46366237467919

a1_local_3: 
+1.1188386723686026 a1_x5
+1.4995550495282872 a1_x3
+0.66686448111029228 a1_x4
<= 151.07521571720909

a1_local_4: 
+0.58954859312620811 a1_x6
+1.42678820182639 a1_x1
+1.6962130207067156 a1_x4
<= 116.10014831700502

a1_local_5: 
+1.2112240432534866 a1_x3
+1.0980479938519656 a1_x4
+0.8256110878660281 a1_x1
<= 99.00855927475645

a1_local_6: 
+0.91640098371995959 a1_x3
+1.290285901781725 a1_x5
+0.77502203086860355 a1_x1
<= 123.80058102561657

a1_local_7: 
+0.83033636448900061 a1_x3
+1.5729228230936054 a1_x6
+0.63575910103027955 a1_x5
<= 181.25580037660251

a1_local_8: 
+1.0115176344685197 a1_x5
+1.3772515071787008 a1_x6
+0.72608379427262315 a1_x2
<= 207.28213738239043

a1_act_1: 
+0.10000000000000001 a1_x1
-10 a1_z1
<= 0

a1_act_2: 
+0.10000000000000001 a1_x2
-10 a1_z2
<= 0

a2_local_1: 
+0.82234787478925853 a2_x1
+1.0500592000483819 a2_x6
+1.216030381614676 a2_x5
<= 95.339478103648574

a2_local_2: 
+1.5361022895780365 a2_x2
+0.65099831357890736 a2_x4
+1.4801858174192994 a2_x3
<= 246.45371483297166

a2_local_3: 
+0.61303451322557734 a2_x6
+0.67357377337805568 a2_x3
+0.59055562606995238 a2_x1
<= 113.39383570188438

a2_local_4: 
+0.60820612403187646 a2_x4
+0.6321795638927119 a2_x3
+0.58803222179024772 a2_x1
<= 72.934086996551571

a2_local_5: 
+1.1232856976590595 a2_x3
+0.89024546656653047 a2_x5
+0.9345045558537457 a2_x2
<= 135.0188928449345

a2_local_6: 
+0.86035218936046809 a2_x6
+0.68412117906788994 a2_x4
+1.4617293406447267 a2_x1
<= 136.90288589411128

a2_local_7: 
+0.43239067335974063 a2_x2
+0.61975983238952714 a2_x1
+0.44948412996090192 a2_x6
<= 85.403454640382606

a2_local_8: 
+0.65595381900059357 a2_x3
+0.54071318072203889 a2_x4
+0.39678324138785931 a2_x6
<= 83.763553619009585

a2_act_1: 
+0.10000000000000001 a2_x1
-10 a2_z1
<= 0

a2_act_2: 
+0.10000000000000001 a2_x2
-10 a2_z2
<= 0

a3_local_1: 
+2.290900756906483 a3_x5
+1.5617427601483427 a3_x6
+1.8425877822900623 a3_x2
<= 319.36905529809161

a3_local_2: 
+1.0446735328653607 a3_x4
+0.86170365395995119 a3_x6
+1.1604917716253251 a3_x1
<= 140.47672994550024

a3_local_3: 
+1.3531254238163131 a3_x4
+1.2693061016164888 a3_x5
+2.8045078684488733 a3_x3
<= 167.35013158560051

a3_local_4: 
+2.0439695732498038 a3_x2
+1.3692221905321966 a3_x3
+2.8510606029831744 a3_x6
<= 273.34496756180226

a3_local_5: 
+1.9540446821659465 a3_x5
+2.2441143048767569 a3_x3
+1.7796280401269742 a3_x2
<= 207.81697864800566

a3_local_6: 
+1.0504216851970543 a3_x1
+1.003381424610899 a3_x5
+0.95199862502115473 a3_x3
<= 206.78122525662474

a3_local_7: 
+0.95708253145273703 a3_x5
+1.0814125840430218 a3_x6
+0.92471644472764625 a3_x3
<= 150.88766714333369

a3_local_8: 
+1.5513398620647507 a3_x5
+2.1205018282392372 a3_x6
+1.9176423311522259 a3_x3
<= 231.62584441739909

a3_act_1: 
+0.10000000000000001 a3_x1
-10 a3_z1
<= 0

a3_act_2: 
+0.10000000000000001 a3_x2
-10 a3_z2
<= 0

a4_local_1: 
+1.3443654000705547 a4_x2
+0.74384538604423922 a4_x5
+1.1025862084928424 a4_x4
<= 198.9463231414411

a4_local_2: 
+0.86977398108841164 a4_x4
+1.0997728470841588 a4_x1
+1.1497239762778682 a4_x3
<= 129.18773429231041

a4_local_3: 
+1.2223058590821614 a4_x3
+0.81812583370164593 a4_x1
+1.0667549430116869 a4_x6
<= 108.03168303268446

a4_local_4: 
+1.2854144948413511 a4_x2
+0.74123955966548294 a4_x3
+1.3490915142889759 a4_x5
<= 122.75587196234146

a4_local_5: 
+1.3989937520565126 a4_x4
+0.71479947535863264 a4_x5
+0.94078205329664621 a4_x6
<= 177.25406669603635

a4_local_6: 
+0.59747702325111229 a4_x2
+1.6737045293534447 a4_x4
+0.61660544860557898 a4_x3
<= 164.67137581415551

a4_local_7: 
+1.1693877811240618 a4_x2
+0.855148323029988 a4_x6
+1.005514785972847 a4_x1
<= 125.76403506860233

a4_local_8: 
+1.0605306314575178 a4_x5
+1.132889981097748 a4_x4
+0.88269824668324814 a4_x2
<= 108.30473355216247

a4_act_1: 
+0.10000000000000001 a4_x1
-10 a4_z1
<= 0

a4_act_2: 
+0.10000000000000001 a4_x2
-10 a4_z2
<= 0

coupling_1: 
+0.098803390728721491 a1_x1
+0.82389526798563173 a2_x1
+3.3295500475928854 a3_x1
+10.121110142319305 a4_x1
+1.275016664098249 short_1
-1.275016664098249 surp_1
= 983.94321910779252

coupling_2: 
+0.12931053032914344 a1_x2
+0.31077701687220394 a2_x2
+2.7467152625608144 a3_x2
+7.7333222395316747 a4_x2
+0.9670673194852526 short_2
-0.9670673194852526 surp_2
= 856.60760646230915

coupling_3: 
+0.08309435223637604 a1_x3
+0.27822221204972897 a2_x3
+1.83376773345533 a3_x3
+12.034512251269854 a4_x3
+0.82245015537458521 short_3
-0.82245015537458521 surp_3
= 872.63067312768089

bounds
  0 <= a1_x1 <= 100
  0 <= a1_x2 <= 100
  0 <= a1_x3 <= 100
  0 <= a1_x4 <= 100
  0 <= a1_x5 <= 100
  0 <= a1_x6 <= 100
  0 <= a2_x1 <= 100
  0 <= a2_x2 <= 100
  0 <= a2_x3 <= 100
  0 <= a2_x4 <= 100
  0 <= a2_x5 <= 100
  0 <= a2_x6 <= 100
  0 <= a3_x1 <= 100
  0 <= a3_x2 <= 100
  0 <= a3_x3 <= 100
  0 <= a3_x4 <= 100
  0 <= a3_x5 <= 100
  0 <= a3_x6 <= 100
  0 <= a4_x1 <= 100
  0 <= a4_x2 <= 100
  0 <= a4_x3 <= 100
  0 <= a4_x4 <= 100
  0 <= a4_x5 <= 100
  0 <= a4_x6 <= 100
  0 <= short_1 <= +inf
  0 <= surp_1 <= +inf
  0 <= short_2 <= +inf
  0 <= surp_2 <= +inf
  0 <= short_3 <= +inf
  0 <= surp_3 <= +inf
 0 <= a1_z1 <= 1
 0 <= a1_z2 <= 1
 0 <= a2_z1 <= 1
 0 <= a2_z2 <= 1
 0 <= a3_z1 <= 1
 0 <= a3_z2 <= 1
 0 <= a4_z1 <= 1
 0 <= a4_z2 <= 1

binary
  a1_z1
  a1_z2
  a2_z1
  a2_z2
  a3_z1
  a3_z2
  a4_z1
  a4_z2
end
