min
obj: 
  +5.2436233239928463 a1_x1
  +8.0695966456126804 a1_x2
  +3.4781022885686368 a1_x3
  +9.412058306823841 a1_x4
  +8.3165688602967034 a1_x5
  +6.8002801919710905 a1_x6
  +10.410503430419741 a1_z1
  +29.396440143420605 a1_z2
  +8.2806614137575387 a2_x1
  +6.0649431138157652 a2_x2
  +8.6541766135972331 a2_x3
  +4.3292904508020413 a2_x4
  +7.270244042047584 a2_x5
  +4.5318516777440347 a2_x6
  +14.3292458598275 a2_z1
  +33.495450643789965 a2_z2
  +3.4667216339522406 a3_x1
  +8.7306868906336064 a3_x2
  +5.7873163324378032 a3_x3
  +5.6599350909197002 a3_x4
  +4.8869920304691288 a3_x5
  +4.3356674135059086 a3_x6
  +5.900585939248967 a3_z1
  +40.303679684732423 a3_z2
  +4.5273516228701549 a4_x1
  +9.793261850532609 a4_x2
  +5.1742521510836195 a4_x3
  +5.4489998276629183 a4_x4
  +4.6550473123840108 a4_x5
  +5.1815797270979749 a4_x6
  +20.492987297835271 a4_z1
  +8.5742214275245221 a4_z2
  +1000000 short_1
  +1000000 surp_1
  +1000000 short_2
  +1000000 surp_2
  +1000000 short_3
  +1000000 surp_3

s.t.

a1_local_1: 
+1.2804747506447107 a1_x4
+0.78096034263581249 a1_x6
+0.98116625064417273 a1_x1
<= 199.6272617548766

a1_local_2: 
+1.0791845523965877 a1_x5
+0.59517578531382465 a1_x4
+1.6801758819417012 a1_x1
<= 104.85681522484602

a1_local_3: 
+1.2014616684302912 a1_x3
+0.83231952069390547 a1_x6
+1.1885118912215646 a1_x5
<= 113.16355479498876

a1_local_4: 
+0.70699757526425777 a1_x3
+1.3569808722081538 a1_x5
+1.4144320079545187 a1_x4
<= 198.88312219831153

a1_local_5: 
+0.84485815904631634 a1_x5
+1.1126626954750423 a1_x2
+1.183630635855857 a1_x1
<= 194.06533080035823

a1_local_6: 
+1.1440887329125138 a1_x3
+0.83205074851504601 a1_x2
+1.2018497691212844 a1_x5
<= 194.57970574156059

a1_local_7: 
+0.66194989686676675 a1_x1
+1.5106883538064424 a1_x5
+0.75403805195422213 a1_x6
<= 182.98322264035295

a1_local_8: 
+0.93341524033849188 a1_x1
+1.1992770901521326 a1_x5
+0.83383565667309301 a1_x3
<= 173.61782136343155

a1_act_1: 
+0.10000000000000001 a1_x1
-10 a1_z1
<= 0

a1_act_2: 
+0.10000000000000001 a1_x2
-10 a1_z2
<= 0

a2_local_1: 
+0.73716610651001835 a2_x2
+1.3565463620327336 a2_x5
+1.2294774326665212 a2_x6
<= 169.47030244573563

a2_local_2: 
+1.4271263673444434 a2_x5
+1.0787568487123211 a2_x3
+0.70070879697974586 a2_x4
<= 111.87095474635342

a2_local_3: 
+0.5859154583270364 a2_x3
+0.52869010244594272 a2_x1
+0.47581168389098355 a2_x2
<= 78.916334232963635

a2_local_4: 
+0.66667545155617869 a2_x1
+1.4999802342590576 a2_x3
+1.2155545518539843 a2_x4
<= 236.03122247407958

a2_local_5: 
+0.76130476611049103 a2_x4
+1.0882847904716024 a2_x5
+1.3135344010901233 a2_x2
<= 142.98480390460617

a2_local_6: 
+0.86297675635168558 a2_x6
+1.0201330919625757 a2_x1
+1.1587797616097946 a2_x3
<= 113.24475415274358

a2_local_7: 
+1.1082613491614992 a2_x4
+0.71893685308000665 a2_x6
+1.3909427451324652 a2_x2
<= 215.22569184648773

a2_local_8: 
+0.94990359360639498 a2_x6
+1.1593314334400684 a2_x5
+0.86256610590874216 a2_x4
<= 162.73094216661832

a2_act_1: 
+0.10000000000000001 a2_x1
-10 a2_z1
<= 0

a2_act_2: 
+0.10000000000000001 a2_x2
-10 a2_z2
<= 0

a3_local_1: 
+2.6462639562616586 a3_x4
+1.812712409187005 a3_x1
+1.4439648912354035 a3_x5
<= 354.78900418532896

a3_local_2: 
+1.1960511263803879 a3_x2
+1.1037785413994583 a3_x4
+2.8246827538274326 a3_x3
<= 278.92988092558022

a3_local_3: 
+1.1416738678502341 a3_x4
+0.87590688388356897 a3_x6
+1.0301911000833301 a3_x5
<= 126.36276828401927

a3_local_4: 
+1.4924252835179557 a3_x4
+0.67005029400385974 a3_x2
+1.009736064988259 a3_x6
<= 184.86653774743024

a3_local_5: 
+2.4539153449018896 a3_x3
+1.2692839804334004 a3_x4
+1.2595635116235617 a3_x2
<= 178.01761087859342

a3_local_6: 
+1.1910582635709721 a3_x4
+1.1587487420578075 a3_x1
+0.83958948993968552 a3_x6
<= 163.25666092650121

a3_local_7: 
+1.416416991687977 a3_x4
+0.85996829379096373 a3_x5
+0.70600678039612963 a3_x2
<= 199.74485130932248

a3_local_8: 
+1.4602351318981666 a3_x2
+2.3928189644550297 a3_x5
+2.1080985249481214 a3_x3
<= 312.93731773367489

a3_act_1: 
+0.10000000000000001 a3_x1
-10 a3_z1
<= 0

a3_act_2: 
+0.10000000000000001 a3_x2
-10 a3_z2
<= 0

a4_local_1: 
+1.3915754745989481 a4_x5
+0.72851388165365538 a4_x6
+0.71860996277488998 a4_x2
<= 100.06339892882858

a4_local_2: 
+1.3575741401073618 a4_x5
+0.72625092768622512 a4_x4
+1.3769345578475425 a4_x1
<= 180.39078907287791

a4_local_3: 
+0.8250428169438162 a4_x6
+0.82018453340095765 a4_x2
+1.2192378169500753 a4_x3
<= 121.6721288458839

a4_local_4: 
+0.93205234921750735 a4_x2
+0.84286411326198851 a4_x6
+1.1864308662162351 a4_x4
<= 176.68778826287502

a4_local_5: 
+1.3274007654088607 a4_x2
+0.75335198386147084 a4_x1
+1.0560586779073002 a4_x3
<= 143.36781157203063

a4_local_6: 
+1.001396354502069 a4_x3
+1.01224011499026 a4_x5
+0.98790789378034294 a4_x2
<= 150.9854451830366

a4_local_7: 
+0.64176927340222001 a4_x5
+1.558192393192473 a4_x2
+0.67733752947946035 a4_x4
<= 140.21121870775494

a4_local_8: 
+1.1191572627626902 a4_x1
+1.3219672499530883 a4_x5
+0.75644839161899535 a4_x4
<= 192.92947780666685

a4_act_1: 
+0.10000000000000001 a4_x1
-10 a4_z1
<= 0

a4_act_2: 
+0.10000000000000001 a4_x2
-10 a4_z2
<= 0

coupling_1: 
+0.0075590001395150815 a1_x1
+0.025462401223813356 a2_x1
+0.17633402206677279 a3_x1
+0.97855410505055762 a4_x1
+0.072913317683620832 short_1
-0.072913317683620832 surp_1
= 33.219817527794163

coupling_2: 
+0.0072644189219761577 a1_x2
+0.029104286939396661 a2_x2
+0.20379364541531367 a3_x2
+0.97160466007953439 a4_x2
+0.082318598443927457 short_2
-0.082318598443927457 surp_2
= 81.4832261079098

coupling_3: 
+0.01506449762315908 a1_x3
+0.049342547012590027 a2_x3
+0.25568262648807244 a3_x3
+0.94811788749516734 a4_x3
+0.12852478338735779 short_3
-0.12852478338735779 surp_3
= 64.69514571595677

bounds
  0 <= a1_x1 <= 100
  0 <= a1_x2 <= 100
  0 <= a1_x3 <= 100
  0 <= a1_x4 <= 100
  0 <= a1_x5 <= 100
  0 <= a1_x6 <= 100
  0 <= a2_x1 <= 100
  0 <= a2_x2 <= 100
  0 <= a2_x3 <= 100
  0 <= a2_x4 <= 100
  0 <= a2_x5 <= 100
  0 <= a2_x6 <= 100
  0 <= a3_x1 <= 100
  0 <= a3_x2 <= 100
  0 <= a3_x3 <= 100
  0 <= a3_x4 <= 100
  0 <= a3_x5 <= 100
  0 <= a3_x6 <= 100
  0 <= a4_x1 <= 100
  0 <= a4_x2 <= 100
  0 <= a4_x3 <= 100
  0 <= a4_x4 <= 100
  0 <= a4_x5 <= 100
  0 <= a4_x6 <= 100
  0 <= short_1 <= +inf
  0 <= surp_1 <= +inf
  0 <= short_2 <= +inf
  0 <= surp_2 <= +inf
  0 <= short_3 <= +inf
  0 <= surp_3 <= +inf
 0 <= a1_z1 <= 1
 0 <= a1_z2 <= 1
 0 <= a2_z1 <= 1
 0 <= a2_z2 <= 1
 0 <= a3_z1 <= 1
 0 <= a3_z2 <= 1
 0 <= a4_z1 <= 1
 0 <= a4_z2 <= 1

binary
  a1_z1
  a1_z2
  a2_z1
  a2_z2
  a3_z1
  a3_z2
  a4_z1
  a4_z2
end
