min
obj: 
  +8.5242104678500681 a1_x1
  +7.6930756521091874 a1_x2
  +6.9189962156082423 a1_x3
  +9.2097073421305335 a1_x4
  +1.6783613276554563 a1_x5
  +5.9914602077021666 a1_x6
  +31.080729858907144 a1_z1
  +20.883867024027893 a1_z2
  +6.9077742042221582 a2_x1
  +5.0875445936298673 a2_x2
  +7.5917023578038236 a2_x3
  +8.2794490372741638 a2_x4
  +1.0351287904006585 a2_x5
  +5.7857723772906011 a2_x6
  +23.934213589769115 a2_z1
  +21.521505149496146 a2_z2
  +3.338751629164217 a3_x1
  +6.1106898664601106 a3_x2
  +6.5508211726549801 a3_x3
  +5.1951326468311683 a3_x4
  +3.9370151452755238 a3_x5
  +3.370609165759376 a3_x6
  +38.539597563502319 a3_z1
  +26.755532445572879 a3_z2
  +8.5438219758017482 a4_x1
  +7.1495610706401269 a4_x2
  +5.5659057933768521 a4_x3
  +2.526471255000704 a4_x4
  +2.3501129539553487 a4_x5
  +8.7808046110821252 a4_x6
  +7.4539102618189466 a4_z1
  +36.014449453139093 a4_z2
  +1000000 short_1
  +1000000 surp_1
  +1000000 short_2
  +1000000 surp_2
  +1000000 short_3
  +1000000 surp_3

s.t.

a1_local_1: 
+0.6813125418103172 a1_x6
+1.4677551617395705 a1_x2
+1.4075499696442433 a1_x4
<= 125.44792113980844

a1_local_2: 
+1.2816727312149629 a1_x5
+0.7802303783525526 a1_x2
+0.96459965814708037 a1_x1
<= 118.14080501464849

a1_local_3: 
+1.2269005791638705 a1_x4
+0.81506196751614324 a1_x2
+1.1539860662704373 a1_x1
<= 134.79527653790549

a1_local_4: 
+0.73019925673316299 a1_x4
+1.3694892055545196 a1_x2
+1.079642637518808 a1_x6
<= 126.370587607234

a1_local_5: 
+1.1997501419662155 a1_x5
+1.2760591654780682 a1_x2
+0.78366272274323245 a1_x1
<= 123.04391431181587

a1_local_6: 
+1.5386277469601002 a1_x2
+1.0736697344014476 a1_x5
+0.64992978449512662 a1_x6
<= 109.45502016664757

a1_local_7: 
+1.1629397961082457 a1_x3
+0.88376798517439958 a1_x4
+0.8598897409362718 a1_x6
<= 158.32521474464545

a1_local_8: 
+0.85704984940830453 a1_x6
+0.95750103918481122 a1_x2
+1.1667932742656524 a1_x5
<= 191.41258785284256

a1_act_1: 
+0.10000000000000001 a1_x1
-10 a1_z1
<= 0

a1_act_2: 
+0.10000000000000001 a1_x2
-10 a1_z2
<= 0

a2_local_1: 
+0.97149888919247918 a2_x6
+1.0977747947220067 a2_x3
+0.91093364942236033 a2_x2
<= 95.36044116259724

a2_local_2: 
+0.40380059267734619 a2_x5
+0.61929698947330036 a2_x3
+0.49365684382564706 a2_x2
<= 103.09595432854144

a2_local_3: 
+0.47796984006598681 a2_x3
+0.64586124938231404 a2_x5
+0.59572075724092799 a2_x4
<= 77.589973317090369

a2_local_4: 
+1.2116488739475069 a2_x3
+0.82532161049433195 a2_x5
+0.90979569418380712 a2_x4
<= 195.73494370994572

a2_local_5: 
+1.1275326115402597 a2_x3
+0.84431617156280259 a2_x1
+1.1843904377065662 a2_x2
<= 209.15707882093915

a2_local_6: 
+0.91736007905954431 a2_x3
+1.1358860124874326 a2_x6
+0.88037002745560611 a2_x5
<= 115.9006841360291

a2_local_7: 
+0.66515308649609706 a2_x4
+0.63256764105431829 a2_x5
+0.41289164239238374 a2_x2
<= 85.417059847685081

a2_local_8: 
+0.84764868967032581 a2_x4
+1.1797340244682359 a2_x2
+0.96608882126994355 a2_x1
<= 144.88908534958625

a2_act_1: 
+0.10000000000000001 a2_x1
-10 a2_z1
<= 0

a2_act_2: 
+0.10000000000000001 a2_x2
-10 a2_z2
<= 0

a3_local_1: 
+1.04812728607051 a3_x6
+0.92988072416007139 a3_x1
+1.0754067419810911 a3_x5
<= 137.49770667530461

a3_local_2: 
+1.397479758986512 a3_x4
+2.0829744537452011 a3_x2
+1.7798789412091718 a3_x6
<= 324.42697627112528

a3_local_3: 
+0.94036714089829343 a3_x3
+1.1036176947923666 a3_x2
+0.90611087944556623 a3_x6
<= 92.204898433924626

a3_local_4: 
+1.0463918515653412 a3_x2
+0.93985697510636623 a3_x3
+1.063991677975074 a3_x5
<= 176.04929117585351

a3_local_5: 
+2.3426966681583719 a3_x6
+1.1914863803889355 a3_x1
+3.2072644983920346 a3_x5
<= 425.2819033867936

a3_local_6: 
+2.9564023398282466 a3_x6
+1.1890465647012307 a3_x2
+2.508633710020082 a3_x1
<= 438.20265553090746

a3_local_7: 
+0.94180729507703098 a3_x2
+0.84509420335242735 a3_x1
+1.183300034520498 a3_x6
<= 155.45312277543562

a3_local_8: 
+1.4286734887697272 a3_x1
+2.0419155011298442 a3_x5
+1.9151491552040214 a3_x4
<= 171.53795028772791

a3_act_1: 
+0.10000000000000001 a3_x1
-10 a3_z1
<= 0

a3_act_2: 
+0.10000000000000001 a3_x2
-10 a3_z2
<= 0

a4_local_1: 
+0.76039190621515773 a4_x3
+1.3151113153971992 a4_x5
+0.79903043055460909 a4_x6
<= 120.36353528485766

a4_local_2: 
+1.2032528579603108 a4_x4
+0.83108051095357127 a4_x3
+1.1580886590502004 a4_x2
<= 99.057889141679382

a4_local_3: 
+0.9190660601250833 a4_x5
+1.4929066986631574 a4_x6
+0.6698342239976971 a4_x4
<= 169.83712415042606

a4_local_4: 
+0.95882762460478621 a4_x1
+0.75795205839786073 a4_x3
+1.3193446589666555 a4_x6
<= 95.777432738404642

a4_local_5: 
+1.1672897130918265 a4_x6
+0.75999202379546937 a4_x5
+1.3158032830475099 a4_x1
<= 202.64365709613827

a4_local_6: 
+0.59960678824137326 a4_x4
+1.1019815107919566 a4_x1
+1.6677596378335988 a4_x3
<= 152.74879636095619

a4_local_7: 
+0.93828398815112524 a4_x6
+0.99838780846361863 a4_x2
+1.0657754076891852 a4_x1
<= 159.62318334585032

a4_local_8: 
+0.64935992640976525 a4_x3
+1.5399779988409241 a4_x2
+1.2746993183596318 a4_x6
<= 233.46811531378546

a4_act_1: 
+0.10000000000000001 a4_x1
-10 a4_z1
<= 0

a4_act_2: 
+0.10000000000000001 a4_x2
-10 a4_z2
<= 0

coupling_1: 
+0.0095287309412733119 a1_x1
+0.042757898823551514 a2_x1
+0.45691836774237315 a3_x1
+0.85526895928107249 a4_x1
+0.17003172922246065 short_1
-0.17003172922246065 surp_1
= 98.454060091853378

coupling_2: 
+0.0059374213006582344 a1_x2
+0.033485842778894534 a2_x2
+0.22525761284617352 a3_x2
+0.9672502747947318 a4_x2
+0.079149728761522167 short_2
-0.079149728761522167 surp_2
= 40.920999205326204

coupling_3: 
+0.0050481656661918641 a1_x3
+0.027420551226393485 a2_x3
+0.18560176883823357 a3_x3
+0.97372987483741702 a4_x3
+0.091172209710730229 short_3
-0.091172209710730229 surp_3
= 27.729583273517704

bounds
  0 <= a1_x1 <= 100
  0 <= a1_x2 <= 100
  0 <= a1_x3 <= 100
  0 <= a1_x4 <= 100
  0 <= a1_x5 <= 100
  0 <= a1_x6 <= 100
  0 <= a2_x1 <= 100
  0 <= a2_x2 <= 100
  0 <= a2_x3 <= 100
  0 <= a2_x4 <= 100
  0 <= a2_x5 <= 100
  0 <= a2_x6 <= 100
  0 <= a3_x1 <= 100
  0 <= a3_x2 <= 100
  0 <= a3_x3 <= 100
  0 <= a3_x4 <= 100
  0 <= a3_x5 <= 100
  0 <= a3_x6 <= 100
  0 <= a4_x1 <= 100
  0 <= a4_x2 <= 100
  0 <= a4_x3 <= 100
  0 <= a4_x4 <= 100
  0 <= a4_x5 <= 100
  0 <= a4_x6 <= 100
  0 <= short_1 <= +inf
  0 <= surp_1 <= +inf
  0 <= short_2 <= +inf
  0 <= surp_2 <= +inf
  0 <= short_3 <= +inf
  0 <= surp_3 <= +inf
 0 <= a1_z1 <= 1
 0 <= a1_z2 <= 1
 0 <= a2_z1 <= 1
 0 <= a2_z2 <= 1
 0 <= a3_z1 <= 1
 0 <= a3_z2 <= 1
 0 <= a4_z1 <= 1
 0 <= a4_z2 <= 1

binary
  a1_z1
  a1_z2
  a2_z1
  a2_z2
  a3_z1
  a3_z2
  a4_z1
  a4_z2
end
