min
obj: 
  +1.5770974257819579 a1_x1
  +5.2436233239928463 a1_x2
  +8.0695966456126804 a1_x3
  +3.4781022885686368 a1_x4
  +9.412058306823841 a1_x5
  +8.3165688602967034 a1_x6
  +34.001400959855452 a1_z1
  +10.410503430419741 a1_z2
  +6.4773554290647395 a2_x1
  +9.5833935756226563 a2_x2
  +2.026827474230366 a2_x3
  +2.5146383338919818 a2_x4
  +5.9719159164755045 a2_x5
  +2.1752834405324757 a2_x6
  +46.820939487606068 a2_z1
  +31.119838842287344 a2_z2
  +4.2898026117145012 a3_x1
  +6.2971939246586208 a3_x2
  +7.0812452369118279 a3_x3
  +4.947199835085236 a3_x4
  +8.0650994710678727 a3_x5
  +5.8436848317688934 a3_x6
  +45.408472421232204 a3_z1
  +47.685437857449642 a3_z2
  +7.6745490131872192 a4_x1
  +9.5447276615633179 a4_x2
  +6.4685946234911675 a4_x3
  +6.1047180091187832 a4_x4
  +9.0091726197219533 a4_x5
  +9.2042443028710519 a4_x6
  +10.38795682780167 a4_z1
  +22.655186795949191 a4_z2
  +1000000 short_1
  +1000000 surp_1
  +1000000 short_2
  +1000000 surp_2
  +1000000 short_3
  +1000000 surp_3

s.t.

a1_local_1: 
+2.9855907340797008 a1_x1
+3.0522321731648119 a1_x6
+1.8615535234557949 a1_x5
<= 415.53175828502555

a1_local_2: 
+9.2162568380511496e-05 a1_x5
+5.0828126561481945e-05 a1_x4
+0.00014348734353809853 a1_x1
<= 0.0089547921918096268

a1_local_3: 
+0.00077491337424903434 a1_x2
+0.0011065386994573558 a1_x3
+0.0006809648302352287 a1_x5
<= 0.1008048781942284

a1_local_4: 
+2.1485246084692169 a1_x2
+1.7172438929723348 a1_x4
+0.78724048331670138 a1_x1
<= 233.95491992384083

a1_local_5: 
+6.3604717020937125 a1_x1
+4.0518322353876188 a1_x3
+7.2659357489064043 a1_x2
<= 686.31404142441897

a1_local_6: 
+0.092294774680391642 a1_x3
+0.07377210287518858 a1_x4
+0.063206480780389998 a1_x2
<= 9.6249382025955335

a1_local_7: 
+0.91867646843279493 a1_x1
+0.5729964722097235 a1_x4
+0.79147608089396959 a1_x3
<= 126.54793799476873

a1_local_8: 
+0.0002368004271083729 a1_x3
+0.00015253845502222896 a1_x2
+0.00020983720002596234 a1_x5
<= 0.027380620469269187

a1_act_1: 
+6.3007669899451679 a1_x1
-630.07669899451685 a1_z1
<= 0

a1_act_2: 
+3.0471840436015678 a1_x2
-304.7184043601568 a1_z2
<= 0

a2_local_1: 
+0.22330067590539446 a2_x3
+0.3846809343728505 a2_x6
+0.38470940982278451 a2_x4
<= 55.155036683371094

a2_local_2: 
+290.1028118207376 a2_x6
+119.99167915911768 a2_x4
+269.97416298155724 a2_x2
<= 36543.173766397776

a2_local_3: 
+2.8424755080191093 a2_x4
+4.0633173472294768 a2_x5
+4.9043294226498251 a2_x2
<= 533.86084155786205

a2_local_4: 
+0.001031650059406531 a2_x6
+0.0011718620044017614 a2_x5
+0.00083115100628687534 a2_x1
<= 0.10093226578797687

a2_local_5: 
+0.74469744263230053 a2_x6
+0.75311335905949461 a2_x5
+0.71254803014984103 a2_x2
<= 87.037182772011761

a2_local_6: 
+0.30815616091133247 a2_x1
+0.2131781435301211 a2_x6
+0.37425280676304618 a2_x3
<= 45.922985800979838

a2_local_7: 
+3.2315590997059576 a2_x2
+3.5762973967232652 a2_x4
+4.9923700445453392 a2_x5
<= 621.63991445464183

a2_local_8: 
+0.00024994052486865145 a2_x4
+0.00025500599262559797 a2_x3
+0.00031292739683220518 a2_x2
<= 0.026340700997913594

a2_act_1: 
+73.554552429711464 a2_x1
-7355.4552429711466 a2_z1
<= 0

a2_act_2: 
+4.6193210606044612 a2_x2
-461.93210606044613 a2_z2
<= 0

a3_local_1: 
+0.017478091947853963 a3_x3
+0.015402962845505805 a3_x4
+0.020035897564225275 a3_x2
<= 2.940079856509608

a3_local_2: 
+3.924613546051801 a3_x3
+4.7277552320730729 a3_x4
+6.9148854149073422 a3_x6
<= 1017.9093315363135

a3_local_3: 
+1418.8763149038277 a3_x2
+2262.9959424589051 a3_x3
+1373.9631555627136 a3_x5
<= 190285.53268014482

a3_local_4: 
+0.70684448663599753 a3_x2
+1.1582729764517443 a3_x5
+1.0204506021630046 a3_x3
<= 151.48109566105916

a3_local_5: 
+1201.8696810117456 a3_x2
+591.41228432984701 a3_x5
+1285.4655794038913 a3_x3
<= 192376.29607530363

a3_local_6: 
+513.65422534469269 a3_x5
+440.80237645275912 a3_x6
+495.50231879065791 a3_x1
<= 76500.709070898971

a3_local_7: 
+22.058231081657826 a3_x3
+25.490147643079709 a3_x5
+21.6439790927855 a3_x2
<= 4072.0179430181711

a3_local_8: 
+25.391465948107708 a3_x5
+38.774033919058517 a3_x3
+25.897403732787517 a3_x2
<= 5016.1490273481777

a3_act_1: 
+1.3341654239270746 a3_x1
-133.41654239270747 a3_z1
<= 0

a3_act_2: 
+418.75174341166411 a3_x2
-41875.174341166414 a3_z2
<= 0

a4_local_1: 
+0.16879406184972415 a4_x6
+0.18825265834841493 a4_x1
+0.16762614232950149 a4_x3
<= 19.598870887972819

a4_local_2: 
+11877.298568964197 a4_x2
+19809.710710931606 a4_x4
+13171.149816747595 a4_x6
<= 2520137.9379870119

a4_local_3: 
+264.14875323950815 a4_x3
+200.51653800428193 a4_x2
+393.23721233170187 a4_x1
<= 25897.240956613434

a4_local_4: 
+821.18807977878191 a4_x3
+1238.8240969272654 a4_x5
+1272.4535243832865 a4_x2
<= 204931.78023181242

a4_local_5: 
+283.72901260289473 a4_x3
+292.63795968183689 a4_x2
+229.09403284980917 a4_x1
<= 44422.939247512084

a4_local_6: 
+9399.7167123276286 a4_x5
+3431.6329678339948 a4_x1
+8597.2745523288613 a4_x6
<= 1019182.8836628908

a4_local_7: 
+2023.6234381039403 a4_x6
+1091.6312514615047 a4_x3
+1708.5296960674898 a4_x2
<= 322131.20943095651

a4_local_8: 
+0.48751508369058344 a4_x2
+0.57804359929800875 a4_x6
+0.85124112225802451 a4_x5
<= 97.310778744165162

a4_act_1: 
+160.28468589001915 a4_x1
-16028.468589001915 a4_z1
<= 0

a4_act_2: 
+0.061864422839029161 a4_x2
-6.1864422839029158 a4_z2
<= 0

coupling_1: 
+0.055628339391204755 a1_x1
+1.7803690936396377 a2_x1
+33.714211112784781 a3_x1
+782.46345961243958 a4_x1
+5.5727221892727243 short_1
-5.5727221892727243 surp_1
= 60329.649534574943

coupling_2: 
+4.1918384480700059e-05 a1_x2
+0.00074885344102826291 a2_x2
+0.026087296650970971 a3_x2
+0.51844970085123643 a4_x2
+0.0046162717346045724 short_2
-0.0046162717346045724 surp_2
= 19.643906465671343

coupling_3: 
+0.00010315445273171684 a1_x3
+0.0014693023037599875 a2_x3
+0.025419843247813621 a3_x3
+0.7104715231019807 a4_x3
+0.0083092361634340191 short_3
-0.0083092361634340191 surp_3
= 43.04714294466369

bounds
  0 <= a1_x1 <= 100
  0 <= a1_x2 <= 100
  0 <= a1_x3 <= 100
  0 <= a1_x4 <= 100
  0 <= a1_x5 <= 100
  0 <= a1_x6 <= 100
  0 <= a2_x1 <= 100
  0 <= a2_x2 <= 100
  0 <= a2_x3 <= 100
  0 <= a2_x4 <= 100
  0 <= a2_x5 <= 100
  0 <= a2_x6 <= 100
  0 <= a3_x1 <= 100
  0 <= a3_x2 <= 100
  0 <= a3_x3 <= 100
  0 <= a3_x4 <= 100
  0 <= a3_x5 <= 100
  0 <= a3_x6 <= 100
  0 <= a4_x1 <= 100
  0 <= a4_x2 <= 100
  0 <= a4_x3 <= 100
  0 <= a4_x4 <= 100
  0 <= a4_x5 <= 100
  0 <= a4_x6 <= 100
  0 <= short_1 <= +inf
  0 <= surp_1 <= +inf
  0 <= short_2 <= +inf
  0 <= surp_2 <= +inf
  0 <= short_3 <= +inf
  0 <= surp_3 <= +inf
 0 <= a1_z1 <= 1
 0 <= a1_z2 <= 1
 0 <= a2_z1 <= 1
 0 <= a2_z2 <= 1
 0 <= a3_z1 <= 1
 0 <= a3_z2 <= 1
 0 <= a4_z1 <= 1
 0 <= a4_z2 <= 1

binary
  a1_z1
  a1_z2
  a2_z1
  a2_z2
  a3_z1
  a3_z2
  a4_z1
  a4_z2
end
