min
obj: 
  +9.9278906915658744 a1_x1
  +4.1029321056614965 a1_x2
  +3.3290118192963942 a1_x3
  +9.1017647242801925 a1_x4
  +1.0276781995025082 a1_x5
  +7.5015228430107515 a1_x6
  +48.476105885704612 a1_z1
  +46.462393702811802 a1_z2
  +3.1850077691017789 a2_x1
  +1.0794293017939207 a2_x2
  +3.499564475939096 a2_x3
  +4.2123952542391079 a2_x4
  +5.825176560091875 a2_x5
  +3.8934254066749405 a2_x6
  +48.499085817086311 a2_z1
  +41.1366386984797 a2_z2
  +2.6719241979528361 a3_x1
  +3.8682188322270532 a3_x2
  +5.9140343670384405 a3_x3
  +8.8118059009872773 a3_x4
  +5.9790956134935263 a3_x5
  +2.6868556403382673 a3_x6
  +5.1863767770133045 a3_z1
  +6.8806666184499186 a3_z2
  +1.2856225251920637 a4_x1
  +5.2994894770405514 a4_x2
  +9.0295106348529277 a4_x3
  +3.0822666442565567 a4_x4
  +2.1929853575171814 a4_x5
  +7.0676293507155048 a4_x6
  +41.576942647234446 a4_z1
  +44.440960753164354 a4_z2
  +1000000 short_1
  +1000000 surp_1
  +1000000 short_2
  +1000000 surp_2
  +1000000 short_3
  +1000000 surp_3

s.t.

a1_local_1: 
+1.2150186794697522 a1_x4
+1.1816463149053791 a1_x6
+0.82303261414582618 a1_x1
<= 128.37354550348243

a1_local_2: 
+0.7912772818185142 a1_x6
+0.95132572721491082 a1_x5
+1.2637794904231283 a1_x4
<= 134.0818325030215

a1_local_3: 
+1.2314885684734134 a1_x3
+0.99607567280722853 a1_x1
+0.81202540210310448 a1_x6
<= 180.52106698494029

a1_local_4: 
+1.2928577326049486 a1_x5
+1.36477642842819 a1_x2
+0.73272074397687093 a1_x4
<= 142.91338333331132

a1_local_5: 
+0.71301792026251276 a1_x4
+1.4024892945633525 a1_x2
+0.86469824810218687 a1_x5
<= 177.74214838946799

a1_local_6: 
+1.4259813184398664 a1_x3
+1.3454616734476366 a1_x4
+0.70127145921804712 a1_x1
<= 133.7248437874282

a1_local_7: 
+1.1577714136341215 a1_x1
+0.86372835624012034 a1_x2
+0.99437982447742601 a1_x5
<= 159.20056922293952

a1_local_8: 
+1.7772514307991742 a1_x5
+1.9231300137749856 a1_x2
+1.3793824662808649 a1_x4
<= 230.62359783737793

a1_act_1: 
+0.10000000000000001 a1_x1
-10 a1_z1
<= 0

a1_act_2: 
+0.099999999999999992 a1_x2
-9.9999999999999982 a1_z2
<= 0

a2_local_1: 
+1.0681034847569864 a2_x6
+0.65113718282470345 a2_x4
+1.5357746821674225 a2_x1
<= 215.73015475075721

a2_local_2: 
+1.0769540369010855 a2_x2
+1.0399443164295963 a2_x1
+0.92854473425577255 a2_x4
<= 169.61908749502481

a2_local_3: 
+1.3661582270586312 a2_x3
+1.4051186717543704 a2_x4
+0.7116836606771747 a2_x5
<= 242.04265309659417

a2_local_4: 
+1.5072536085813841 a2_x4
+2.583242960725638 a2_x3
+2.6118198441415954 a2_x2
<= 248.11337162960089

a2_local_5: 
+1.6494560456934819 a2_x1
+1.0861844591893342 a2_x4
+1.7455194078554943 a2_x2
<= 194.50719935143101

a2_local_6: 
+0.69602168714649226 a2_x3
+1.4367368409161787 a2_x5
+1.0845074479843733 a2_x1
<= 204.14759172879508

a2_local_7: 
+0.80721460123616007 a2_x3
+1.0370496967943299 a2_x6
+1.2388279380335911 a2_x4
<= 202.91017335852422

a2_local_8: 
+0.45417675825293097 a2_x1
+0.8311954884109799 a2_x6
+0.78494687134830554 a2_x5
<= 121.57156279646388

a2_act_1: 
+0.10000000000000001 a2_x1
-10 a2_z1
<= 0

a2_act_2: 
+0.10000000000000001 a2_x2
-10 a2_z2
<= 0

a3_local_1: 
+1.5351660412828598 a3_x1
+1.3591369364393542 a3_x4
+0.65139533647080361 a3_x2
<= 136.54611506689665

a3_local_2: 
+0.74418733476839061 a3_x6
+1.3437476738450871 a3_x4
+1.1501622935844498 a3_x1
<= 125.99921405949327

a3_local_3: 
+1.3962420443705423 a3_x2
+0.85747778462066959 a3_x3
+0.71620819902384669 a3_x5
<= 155.36918079975095

a3_local_4: 
+0.74498068518282523 a3_x5
+1.3423166800016979 a3_x1
+1.1088145958657547 a3_x6
<= 142.95209130377998

a3_local_5: 
+1.0530529378288005 a3_x6
+0.73385772437237728 a3_x3
+1.3626619531125568 a3_x1
<= 119.95744514390124

a3_local_6: 
+0.90186303545680035 a3_x2
+1.1088158186830359 a3_x6
+0.94211412005498962 a3_x4
<= 121.81862817287376

a3_local_7: 
+1.4123031394288177 a3_x2
+0.66640384915273365 a3_x5
+1.5005915726198169 a3_x4
<= 189.93885819847259

a3_local_8: 
+1.1519545091647601 a3_x2
+1.2402672083296455 a3_x1
+0.80627786761110121 a3_x5
<= 198.72861027724042

a3_act_1: 
+0.099999999999999992 a3_x1
-10 a3_z1
<= 0

a3_act_2: 
+0.10000000000000001 a3_x2
-10.000000000000002 a3_z2
<= 0

a4_local_1: 
+1.4926136450452159 a4_x2
+0.66996573649151303 a4_x6
+1.4440750339305359 a4_x5
<= 237.10847516680192

a4_local_2: 
+0.6282334357944982 a4_x3
+1.5917650080743402 a4_x5
+1.2851473160769953 a4_x1
<= 201.80157071851761

a4_local_3: 
+0.83522432276703862 a4_x4
+1.1972831402790944 a4_x3
+1.0462431312050045 a4_x6
<= 188.99023877330134

a4_local_4: 
+1.2359350453004121 a4_x5
+0.80910400898692492 a4_x1
+0.81419027416480216 a4_x4
<= 137.88152348163104

a4_local_5: 
+0.76408964291946735 a4_x5
+1.3705629837085012 a4_x6
+0.72962717648639308 a4_x1
<= 176.37369760672306

a4_local_6: 
+1.0761206922296818 a4_x4
+1.0759171606021947 a4_x3
+0.92926379654315294 a4_x2
<= 128.63783926236405

a4_local_7: 
+0.903074992008286 a4_x3
+1.4413667018637968 a4_x6
+0.69378597320648783 a4_x1
<= 184.74101657474728

a4_local_8: 
+0.94438556672081353 a4_x3
+0.97891764358082112 a4_x2
+1.0588895417708428 a4_x6
<= 113.36400182943726

a4_act_1: 
+0.099999999999999992 a4_x1
-10 a4_z1
<= 0

a4_act_2: 
+0.10000000000000001 a4_x2
-10 a4_z2
<= 0

coupling_1: 
+4.281922530552967e-05 a1_x1
+0.0011854235816260246 a2_x1
+0.022762112245123589 a3_x1
+0.50590635464652078 a4_x1
+0.0044043565705409252 short_1
-0.0044043565705409252 surp_1
= 15.469946128607607

coupling_2: 
+0.00012935937464519289 a1_x2
+0.0021397975108925042 a2_x2
+0.10715363045609239 a3_x2
+0.99391305499049087 a4_x2
+0.018032514138538371 short_2
-0.018032514138538371 surp_2
= 62.032401950540788

coupling_3: 
+5.3696601465402212e-05 a1_x3
+0.00086200777755901568 a2_x3
+0.032191037828523887 a3_x3
+0.99943339857216718 a4_x3
+0.0069236175976320358 short_3
-0.0069236175976320358 surp_3
= 36.619783081078076

bounds
  0 <= a1_x1 <= 100
  0 <= a1_x2 <= 100
  0 <= a1_x3 <= 100
  0 <= a1_x4 <= 100
  0 <= a1_x5 <= 100
  0 <= a1_x6 <= 100
  0 <= a2_x1 <= 100
  0 <= a2_x2 <= 100
  0 <= a2_x3 <= 100
  0 <= a2_x4 <= 100
  0 <= a2_x5 <= 100
  0 <= a2_x6 <= 100
  0 <= a3_x1 <= 100
  0 <= a3_x2 <= 100
  0 <= a3_x3 <= 100
  0 <= a3_x4 <= 100
  0 <= a3_x5 <= 100
  0 <= a3_x6 <= 100
  0 <= a4_x1 <= 100
  0 <= a4_x2 <= 100
  0 <= a4_x3 <= 100
  0 <= a4_x4 <= 100
  0 <= a4_x5 <= 100
  0 <= a4_x6 <= 100
  0 <= short_1 <= +inf
  0 <= surp_1 <= +inf
  0 <= short_2 <= +inf
  0 <= surp_2 <= +inf
  0 <= short_3 <= +inf
  0 <= surp_3 <= +inf
 0 <= a1_z1 <= 1
 0 <= a1_z2 <= 1
 0 <= a2_z1 <= 1
 0 <= a2_z2 <= 1
 0 <= a3_z1 <= 1
 0 <= a3_z2 <= 1
 0 <= a4_z1 <= 1
 0 <= a4_z2 <= 1

binary
  a1_z1
  a1_z2
  a2_z1
  a2_z2
  a3_z1
  a3_z2
  a4_z1
  a4_z2
end
