min
obj: 
  +1.5869078218103445 a1_x1
  +1.8591431952918778 a1_x2
  +3.3231109040519993 a1_x3
  +9.2087059181463786 a1_x4
  +9.6203246603591985 a1_x5
  +2.6522167369866532 a1_x6
  +45.971215901918207 a1_z1
  +15.231591264695247 a1_z2
  +7.3851642913844699 a2_x1
  +8.184615433312981 a2_x2
  +6.3286902635835114 a2_x3
  +1.720840343178456 a2_x4
  +2.5195780412124975 a2_x5
  +8.1969421632275719 a2_x6
  +32.909722818284479 a2_z1
  +29.006081337850453 a2_z2
  +9.6251817518945995 a3_x1
  +3.9009418953480735 a3_x2
  +1.3219510135661245 a3_x3
  +4.7485775019531236 a3_x4
  +3.5558983548633152 a3_x5
  +8.1243659823807501 a3_x6
  +20.822115549059351 a3_z1
  +25.222874624514855 a3_z2
  +3.9740281273618923 a4_x1
  +5.8725760658506196 a4_x2
  +8.5449306619724936 a4_x3
  +7.8945369096479574 a4_x4
  +2.7042977066829055 a4_x5
  +9.2622687133164359 a4_x6
  +13.310232891557296 a4_z1
  +27.542990425232677 a4_z2
  +1000000 short_1
  +1000000 surp_1
  +1000000 short_2
  +1000000 surp_2
  +1000000 short_3
  +1000000 surp_3

s.t.

a1_local_1: 
+4.9415753771742039e-05 a1_x4
+6.4046812528856687e-05 a1_x1
+4.5484815318282059e-05 a1_x3
<= 0.0070468566612602928

a1_local_2: 
+0.92429768641700294 a1_x2
+0.62828860628994887 a1_x4
+0.71668967494412572 a1_x3
<= 152.81183597940191

a1_local_3: 
+1.7514583968055795e-05 a1_x6
+3.5115185415354435e-05 a1_x4
+2.0974260403371259e-05 a1_x1
<= 0.003178678913501543

a1_local_4: 
+0.00022862101089172871 a1_x6
+0.00020318393823300543 a1_x2
+0.00018713366153100714 a1_x1
<= 0.024246964930533344

a1_local_5: 
+0.0011647055162815126 a1_x1
+0.0016969015783308832 a1_x2
+0.0019734320551971817 a1_x5
<= 0.25235460273031296

a1_local_6: 
+2.2335188253172259e-05 a1_x1
+3.5339994187751623e-05 a1_x2
+3.1463794338863525e-05 a1_x6
<= 0.0032326777798489924

a1_local_7: 
+1.5200434972812672e-05 a1_x5
+3.2336470691119304e-05 a1_x2
+2.7855431030129818e-05 a1_x4
<= 0.0049942198330512359

a1_local_8: 
+0.00015256550584030992 a1_x1
+0.00010749674283466432 a1_x2
+0.00015012168257176484 a1_x3
<= 0.025701343530888054

a1_act_1: 
+8.9514992083703593 a1_x1
-895.14992083703589 a1_z1
<= 0

a1_act_2: 
+21.19826434477331 a1_x2
-2119.8264344773311 a1_z2
<= 0

a2_local_1: 
+0.53414568675018748 a2_x1
+1.3594891499725241 a2_x5
+0.81447931545808461 a2_x3
<= 144.9652948582937

a2_local_2: 
+0.59598573706145574 a2_x4
+1.4084243656039972 a2_x2
+1.1494553590142265 a2_x5
<= 144.32891672980222

a2_local_3: 
+0.056569785480318359 a2_x2
+0.050329266598502245 a2_x1
+0.045973713233490303 a2_x5
<= 5.0809610605792033

a2_local_4: 
+0.018387557528494025 a2_x6
+0.012543399130050531 a2_x2
+0.018530242524507599 a2_x4
<= 2.3108298479325349

a2_local_5: 
+0.0023225933333703192 a2_x1
+0.0042070967398712125 a2_x6
+0.0036649133003809034 a2_x2
<= 0.48327029407522049

a2_local_6: 
+1.2747440959783818 a2_x4
+1.3354785074376827 a2_x6
+1.2281973652987124 a2_x5
<= 201.27625960769089

a2_local_7: 
+0.97331577736427399 a2_x4
+0.67170539681421759 a2_x6
+1.3040025365436458 a2_x3
<= 181.4255865536588

a2_local_8: 
+0.00043985435377488926 a2_x5
+0.00038346659936248814 a2_x1
+0.00029352767906754153 a2_x4
<= 0.072758632524766692

a2_act_1: 
+0.65264814334906707 a2_x1
-65.264814334906703 a2_z1
<= 0

a2_act_2: 
+20.898288642579875 a2_x2
-2089.8288642579873 a2_z2
<= 0

a3_local_1: 
+0.16967131260914084 a3_x3
+0.19674190943172731 a3_x5
+0.087378887467279051 a3_x4
<= 15.722484210957264

a3_local_2: 
+582.19759620734033 a3_x3
+647.28659877379209 a3_x5
+437.08122759468171 a3_x2
<= 84868.431027728308

a3_local_3: 
+99.89986602966836 a3_x5
+127.45183829670232 a3_x6
+142.12636665971044 a3_x2
<= 18535.310705267904

a3_local_4: 
+0.61059069376005559 a3_x4
+0.53414751294956686 a3_x3
+0.25710486472056515 a3_x1
<= 61.213294620787174

a3_local_5: 
+0.073533404422340146 a3_x1
+0.062576997638979004 a3_x4
+0.03402654768725967 a3_x5
<= 9.7612035339202787

a3_local_6: 
+0.010862213019302472 a3_x5
+0.019721610932585201 a3_x4
+0.015334169552925095 a3_x6
<= 1.857116885143749

a3_local_7: 
+137.32697290543032 a3_x5
+105.39758811927372 a3_x4
+123.0538179222644 a3_x2
<= 22206.507353420959

a3_local_8: 
+210.16589445726356 a3_x6
+96.036352003682296 a3_x2
+159.22926739735962 a3_x3
<= 25395.223912633268

a3_act_1: 
+0.0055031354937043996 a3_x1
-0.55031354937043997 a3_z1
<= 0

a3_act_2: 
+357.96792309383454 a3_x2
-35796.792309383454 a3_z2
<= 0

a4_local_1: 
+0.3275959581705406 a4_x3
+0.27465605418401834 a4_x2
+0.44270675371125706 a4_x4
<= 61.850567096709241

a4_local_2: 
+187.95722809870404 a4_x5
+95.138231826284411 a4_x4
+199.32667367380057 a4_x1
<= 19356.729222606427

a4_local_3: 
+44.924375032635751 a4_x3
+54.391894330757836 a4_x2
+59.486377226680403 a4_x6
<= 9104.2714528314445

a4_local_4: 
+17474.938574043466 a4_x1
+20683.627767453596 a4_x6
+19906.500559167987 a4_x5
<= 2682472.0852648253

a4_local_5: 
+42.012257417325515 a4_x1
+46.536600570182664 a4_x2
+39.583492753809622 a4_x6
<= 5040.4098810093674

a4_local_6: 
+115.38416155273055 a4_x6
+338.96645644098095 a4_x3
+193.26325116276158 a4_x5
<= 26559.301635544161

a4_local_7: 
+12.326789977579537 a4_x1
+12.942295363307363 a4_x4
+17.988030293915596 a4_x5
<= 1392.8781604235385

a4_local_8: 
+0.2922280258582014 a4_x5
+0.25746241706096146 a4_x1
+0.39557214141718355 a4_x6
<= 53.935018367545972

a4_act_1: 
+182.44207332917603 a4_x1
-18244.207332917602 a4_z1
<= 0

a4_act_2: 
+91.098046211945132 a4_x2
-9109.8046211945129 a4_z2
<= 0

coupling_1: 
+0.014206713219505817 a1_x1
+0.20724985584029326 a2_x1
+3.2172604964241742 a3_x1
+136.36815645053628 a4_x1
+0.9669061135007514 short_1
-0.9669061135007514 surp_1
= 8309.8479458946822

coupling_2: 
+0.95063749748486259 a1_x2
+9.9749254657557653 a2_x2
+534.94004989468954 a3_x2
+7250.4752305950478 a4_x2
+84.080693403938184 short_2
-84.080693403938184 surp_2
= 606011.06148999487

coupling_3: 
+1.1876709685365631e-05 a1_x3
+0.00022694220026798253 a2_x3
+0.010005516910223923 a3_x3
+0.15316870558218859 a4_x3
+0.0018022163461375836 short_3
-0.0018022163461375836 surp_3
= 8.3307825975680849

bounds
  0 <= a1_x1 <= 100
  0 <= a1_x2 <= 100
  0 <= a1_x3 <= 100
  0 <= a1_x4 <= 100
  0 <= a1_x5 <= 100
  0 <= a1_x6 <= 100
  0 <= a2_x1 <= 100
  0 <= a2_x2 <= 100
  0 <= a2_x3 <= 100
  0 <= a2_x4 <= 100
  0 <= a2_x5 <= 100
  0 <= a2_x6 <= 100
  0 <= a3_x1 <= 100
  0 <= a3_x2 <= 100
  0 <= a3_x3 <= 100
  0 <= a3_x4 <= 100
  0 <= a3_x5 <= 100
  0 <= a3_x6 <= 100
  0 <= a4_x1 <= 100
  0 <= a4_x2 <= 100
  0 <= a4_x3 <= 100
  0 <= a4_x4 <= 100
  0 <= a4_x5 <= 100
  0 <= a4_x6 <= 100
  0 <= short_1 <= +inf
  0 <= surp_1 <= +inf
  0 <= short_2 <= +inf
  0 <= surp_2 <= +inf
  0 <= short_3 <= +inf
  0 <= surp_3 <= +inf
 0 <= a1_z1 <= 1
 0 <= a1_z2 <= 1
 0 <= a2_z1 <= 1
 0 <= a2_z2 <= 1
 0 <= a3_z1 <= 1
 0 <= a3_z2 <= 1
 0 <= a4_z1 <= 1
 0 <= a4_z2 <= 1

binary
  a1_z1
  a1_z2
  a2_z1
  a2_z2
  a3_z1
  a3_z2
  a4_z1
  a4_z2
end
