min
obj: 
  +7.7820756929973847 a1_x1
  +2.6204029212029933 a1_x2
  +1.0229393332967094 a1_x3
  +7.1910932224071349 a1_x4
  +4.2632745770435907 a1_x5
  +6.0246265469097295 a1_x6
  +42.771027111197313 a1_z1
  +28.114118371176183 a1_z2
  +5.7911212590182997 a2_x1
  +5.4348931719458209 a2_x2
  +9.4259627235885386 a2_x3
  +8.9213052519907556 a2_x4
  +6.1484548986939966 a2_x5
  +2.146409388681831 a2_x6
  +31.660946131309107 a2_z1
  +6.9899613369063101 a2_z2
  +2.8186252614454075 a3_x1
  +1.3641205917884647 a3_x2
  +2.33366974601915 a3_x3
  +2.4556775991065138 a3_x4
  +5.2278265061317715 a3_x5
  +6.6696189442115292 a3_x6
  +49.857919593613119 a3_z1
  +30.640944798186169 a3_z2
  +7.0994894146457632 a4_x1
  +9.5674915626052641 a4_x2
  +9.235478138695818 a4_x3
  +8.9478139676632793 a4_x4
  +7.4338997063934436 a4_x5
  +1.7960169742966061 a4_x6
  +7.4304140982629434 a4_z1
  +14.530204301669533 a4_z2
  +1000000 short_1
  +1000000 surp_1
  +1000000 short_2
  +1000000 surp_2
  +1000000 short_3
  +1000000 surp_3

s.t.

a1_local_1: 
+1.8315397585984925 a1_x4
+2.814121727773105 a1_x6
+1.3075305890834499 a1_x3
<= 297.58044819477124

a1_local_2: 
+0.0030215162932061908 a1_x6
+0.002118289736954786 a1_x5
+0.0030824958040659334 a1_x4
<= 0.43566917107184633

a1_local_3: 
+0.81859749366799972 a1_x4
+1.0800565829356825 a1_x2
+1.149175388253431 a1_x3
<= 176.79672985553736

a1_local_4: 
+0.0015812442142170121 a1_x4
+0.0010528198933176087 a1_x5
+0.0016558879683768069 a1_x2
<= 0.2186054353255738

a1_local_5: 
+0.083341270753576155 a1_x2
+0.20280013439404482 a1_x5
+0.098912853309351817 a1_x4
<= 21.30130458640873

a1_local_6: 
+0.88251366933261954 a1_x2
+1.0177165459804138 a1_x3
+0.51921984215153683 a1_x1
<= 131.14350084545279

a1_local_7: 
+2.5011437902441775 a1_x5
+5.2242597235925601 a1_x2
+2.5138391647970946 a1_x6
<= 561.84378229237984

a1_local_8: 
+0.17121502323958712 a1_x5
+0.30545688584125491 a1_x1
+0.22225361669884044 a1_x6
<= 42.945356858929195

a1_act_1: 
+2.742469301660408 a1_x1
-274.24693016604078 a1_z1
<= 0

a1_act_2: 
+365.62834758840654 a1_x2
-36562.834758840654 a1_z2
<= 0

a2_local_1: 
+0.00044155448648515797 a2_x6
+0.00065911529780534239 a2_x4
+0.00065569808525498224 a2_x3
<= 0.11052375031669757

a2_local_2: 
+0.43785517794419615 a2_x5
+0.60711463376105013 a2_x4
+0.91210502026520601 a2_x6
<= 88.793449849903581

a2_local_3: 
+0.037058029440376845 a2_x4
+0.025067220958953248 a2_x5
+0.049380745921640747 a2_x3
<= 3.4542910932497537

a2_local_4: 
+0.1127372405249627 a2_x5
+0.11132872901029492 a2_x6
+0.32016886413033185 a2_x4
<= 20.333208374368873

a2_local_5: 
+1.4758706106802064 a2_x4
+0.91900060824219409 a2_x2
+1.8412050572352734 a2_x3
<= 201.74983697533665

a2_local_6: 
+0.068714114175949303 a2_x5
+0.060740466495809484 a2_x4
+0.062577643216867346 a2_x3
<= 7.2660774117240452

a2_local_7: 
+130.82585728155289 a2_x1
+209.84945897053632 a2_x6
+140.20282169785332 a2_x4
<= 33578.505053003872

a2_local_8: 
+0.0014491805070150901 a2_x4
+0.0013459956287592116 a2_x3
+0.00090514034510734138 a2_x5
<= 0.14180581677098977

a2_act_1: 
+20.520882562507481 a2_x1
-2052.0882562507481 a2_z1
<= 0

a2_act_2: 
+0.018008567277550406 a2_x2
-1.8008567277550407 a2_z2
<= 0

a3_local_1: 
+283.61839392671953 a3_x6
+433.94525749026508 a3_x2
+357.43784184859021 a3_x1
<= 71793.1643020138

a3_local_2: 
+9.2374815912364632 a3_x1
+6.2149256526314778 a3_x6
+5.1508669564886196 a3_x2
<= 1413.2693520438204

a3_local_3: 
+0.54493461211124372 a3_x6
+1.3045755563595121 a3_x5
+0.61404917123484837 a3_x3
<= 130.62908962014237

a3_local_4: 
+207.34792054440379 a3_x2
+95.410405629439367 a3_x6
+227.57778437105256 a3_x4
<= 22494.158798868106

a3_local_5: 
+0.010274108097079447 a3_x1
+0.013700159498771031 a3_x5
+0.0091765314267959891 a3_x3
<= 1.6433487153902406

a3_local_6: 
+628.53567129821647 a3_x5
+744.01648375495427 a3_x2
+615.56533507053132 a3_x3
<= 102446.8786374289

a3_local_7: 
+2.824941455921576 a3_x2
+2.3100530886539685 a3_x3
+3.3607746334083619 a3_x1
<= 453.72049510708143

a3_local_8: 
+16.82395148884007 a3_x6
+7.8210314288196612 a3_x1
+13.698990923740698 a3_x2
<= 1744.2920531476748

a3_act_1: 
+0.031040903281888039 a3_x1
-3.1040903281888039 a3_z1
<= 0

a3_act_2: 
+0.019736696890857077 a3_x2
-1.9736696890857077 a3_z2
<= 0

a4_local_1: 
+9740.7935076016802 a4_x1
+22380.831328580476 a4_x6
+11811.662777743108 a4_x5
<= 2775106.4976552804

a4_local_2: 
+9138.2860808117202 a4_x2
+4343.7383697412924 a4_x5
+8519.1575858186588 a4_x4
<= 1479154.3995590825

a4_local_3: 
+8205.3432798387839 a4_x6
+6382.4734404148357 a4_x2
+3759.3184946306897 a4_x5
<= 1068462.0058259794

a4_local_4: 
+1756.0239277621679 a4_x6
+1066.6330864439715 a4_x3
+1842.1133318081836 a4_x4
<= 295374.74908728409

a4_local_5: 
+328.137029205597 a4_x5
+333.8094373443767 a4_x2
+571.96452815413841 a4_x3
<= 49439.320896597783

a4_local_6: 
+6683.8685981915578 a4_x1
+5699.8870657214366 a4_x5
+6842.476692374179 a4_x4
<= 1060223.8634001832

a4_local_7: 
+0.5010726892531403 a4_x6
+0.96469772413972676 a4_x3
+0.79866208517819992 a4_x2
<= 136.15036575631783

a4_local_8: 
+1149.3329899153862 a4_x3
+1821.2600410668654 a4_x6
+913.74688236565657 a4_x4
<= 139995.44951739933

a4_act_1: 
+16.452275127318458 a4_x1
-1645.2275127318458 a4_z1
<= 0

a4_act_2: 
+0.91457746355283298 a4_x2
-91.457746355283291 a4_z2
<= 0

coupling_1: 
+0.5454446767003035 a1_x1
+14.696726212475676 a2_x1
+254.83520269270639 a3_x1
+3598.8593836281161 a4_x1
+55.380691546077642 short_1
-55.380691546077642 surp_1
= 273973.85619337996

coupling_2: 
+0.00083921667154561962 a1_x2
+0.016072963605016075 a2_x2
+0.3642520277857812 a3_x2
+5.9289016415780287 a4_x2
+0.06007188281603628 short_2
-0.06007188281603628 surp_2
= 176.69729483615529

coupling_3: 
+0.012349391554591645 a1_x3
+0.18728409011113303 a2_x3
+2.5870607376306185 a3_x3
+55.068533258950346 a4_x3
+1.0561545889259496 short_3
-1.0561545889259496 surp_3
= 1297.5409225082615

bounds
  0 <= a1_x1 <= 100
  0 <= a1_x2 <= 100
  0 <= a1_x3 <= 100
  0 <= a1_x4 <= 100
  0 <= a1_x5 <= 100
  0 <= a1_x6 <= 100
  0 <= a2_x1 <= 100
  0 <= a2_x2 <= 100
  0 <= a2_x3 <= 100
  0 <= a2_x4 <= 100
  0 <= a2_x5 <= 100
  0 <= a2_x6 <= 100
  0 <= a3_x1 <= 100
  0 <= a3_x2 <= 100
  0 <= a3_x3 <= 100
  0 <= a3_x4 <= 100
  0 <= a3_x5 <= 100
  0 <= a3_x6 <= 100
  0 <= a4_x1 <= 100
  0 <= a4_x2 <= 100
  0 <= a4_x3 <= 100
  0 <= a4_x4 <= 100
  0 <= a4_x5 <= 100
  0 <= a4_x6 <= 100
  0 <= short_1 <= +inf
  0 <= surp_1 <= +inf
  0 <= short_2 <= +inf
  0 <= surp_2 <= +inf
  0 <= short_3 <= +inf
  0 <= surp_3 <= +inf
 0 <= a1_z1 <= 1
 0 <= a1_z2 <= 1
 0 <= a2_z1 <= 1
 0 <= a2_z2 <= 1
 0 <= a3_z1 <= 1
 0 <= a3_z2 <= 1
 0 <= a4_z1 <= 1
 0 <= a4_z2 <= 1

binary
  a1_z1
  a1_z2
  a2_z1
  a2_z2
  a3_z1
  a3_z2
  a4_z1
  a4_z2
end
