min
obj: 
  +1.5770974257819579 a1_x1
  +5.2436233239928463 a1_x2
  +8.0695966456126804 a1_x3
  +3.4781022885686368 a1_x4
  +9.412058306823841 a1_x5
  +8.3165688602967034 a1_x6
  +34.001400959855452 a1_z1
  +10.410503430419741 a1_z2
  +6.4773554290647395 a2_x1
  +9.5833935756226563 a2_x2
  +2.026827474230366 a2_x3
  +2.5146383338919818 a2_x4
  +5.9719159164755045 a2_x5
  +2.1752834405324757 a2_x6
  +46.820939487606068 a2_z1
  +31.119838842287344 a2_z2
  +4.2898026117145012 a3_x1
  +6.2971939246586208 a3_x2
  +7.0812452369118279 a3_x3
  +4.947199835085236 a3_x4
  +8.0650994710678727 a3_x5
  +5.8436848317688934 a3_x6
  +45.408472421232204 a3_z1
  +47.685437857449642 a3_z2
  +7.6745490131872192 a4_x1
  +9.5447276615633179 a4_x2
  +6.4685946234911675 a4_x3
  +6.1047180091187832 a4_x4
  +9.0091726197219533 a4_x5
  +9.2042443028710519 a4_x6
  +10.38795682780167 a4_z1
  +22.655186795949191 a4_z2
  +1000000 short_1
  +1000000 surp_1
  +1000000 short_2
  +1000000 surp_2
  +1000000 short_3
  +1000000 surp_3

s.t.

a1_local_1: 
+1.2525172836979446 a1_x1
+1.2804747506447109 a1_x6
+0.78096034263581249 a1_x5
<= 174.32419763247339

a1_local_2: 
+1.0791845523965875 a1_x5
+0.59517578531382465 a1_x4
+1.6801758819417012 a1_x1
<= 104.85681522484602

a1_local_3: 
+0.89270406332237739 a1_x2
+1.2747380882235062 a1_x3
+0.78447487310402308 a1_x5
<= 116.12772131325382

a1_local_4: 
+2.1485246084692169 a1_x2
+1.7172438929723348 a1_x4
+0.78724048331670138 a1_x1
<= 233.95491992384083

a1_local_5: 
+1.1722434656335712 a1_x1
+0.74675811547327609 a1_x3
+1.3391217039084011 a1_x2
<= 126.48859834837602

a1_local_6: 
+1.2083917506497222 a1_x3
+0.9658791719375619 a1_x4
+0.82754619887327507 a1_x2
<= 126.01684076705148

a1_local_7: 
+0.91867646843279493 a1_x1
+0.5729964722097235 a1_x4
+0.79147608089396959 a1_x3
<= 126.54793799476873

a1_local_8: 
+1.2459527386243721 a1_x3
+0.80259866124944457 a1_x2
+1.1040826118019007 a1_x5
<= 144.06629023227057

a1_act_1: 
+0.099999999999999992 a1_x1
-10 a1_z1
<= 0

a1_act_2: 
+0.099999999999999992 a1_x2
-10 a1_z2
<= 0

a2_local_1: 
+0.76186603796907804 a2_x3
+1.3124695577592136 a2_x6
+1.3125667114204491 a2_x4
<= 188.18012575027751

a2_local_2: 
+1.5548926250266668 a2_x6
+0.64313122585094873 a2_x4
+1.4470071225202901 a2_x2
<= 195.86404912045776

a2_local_3: 
+0.76130476611049103 a2_x4
+1.0882847904716022 a2_x5
+1.3135344010901233 a2_x2
<= 142.98480390460614

a2_local_4: 
+1.0453318990184333 a2_x6
+1.1874033479468107 a2_x5
+0.84217380869705505 a2_x1
<= 102.27083894036093

a2_local_5: 
+0.74469744263230053 a2_x6
+0.75311335905949461 a2_x5
+0.71254803014984103 a2_x2
<= 87.037182772011761

a2_local_6: 
+1.090980489507771 a2_x1
+0.7547251195401834 a2_x6
+1.3249857121613369 a2_x3
<= 162.58341673469664

a2_local_7: 
+0.80454931070370916 a2_x2
+0.89037752881170618 a2_x4
+1.2429318957781936 a2_x5
<= 154.76738912987946

a2_local_8: 
+0.89370985112736967 a2_x4
+0.91182239385060437 a2_x3
+1.1189313833103112 a2_x2
<= 94.18618281211954

a2_act_1: 
+0.099999999999999992 a2_x1
-10 a2_z1
<= 0

a2_act_2: 
+0.099999999999999992 a2_x2
-10 a2_z2
<= 0

a3_local_1: 
+0.99491844976276544 a3_x3
+0.87679432982304129 a3_x4
+1.1405183245218122 a3_x2
<= 167.36035613867077

a3_local_2: 
+0.75336589426491984 a3_x3
+0.9075363743417536 a3_x4
+1.3273762558308109 a3_x6
<= 195.3971174066115

a3_local_3: 
+0.80466499375644929 a3_x2
+1.2833772731155852 a3_x3
+0.77919410055653737 a3_x5
<= 107.9136393762339

a3_local_4: 
+0.70684448663599753 a3_x2
+1.1582729764517443 a3_x5
+1.0204506021630046 a3_x3
<= 151.48109566105916

a3_local_5: 
+1.378421323965157 a3_x2
+0.67828926617813468 a3_x5
+1.4742972502492417 a3_x3
<= 220.63589166539728

a3_local_6: 
+1.0794771875715234 a3_x5
+0.92637437040210047 a3_x6
+1.041329795670169 a3_x1
<= 160.77113007230636

a3_local_7: 
+0.93910889416367205 a3_x3
+1.0852195843150181 a3_x5
+0.92147249685987909 a3_x2
<= 173.3624175631322

a3_local_8: 
+0.80923264578732945 a3_x5
+1.2357385792648872 a3_x3
+0.82535701501189307 a3_x2
<= 159.86597848900561

a3_act_1: 
+0.10000000000000001 a3_x1
-10.000000000000002 a3_z1
<= 0

a3_act_2: 
+0.10000000000000001 a3_x2
-10.000000000000002 a3_z2
<= 0

a4_local_1: 
+0.95020154027090098 a4_x6
+1.0597408698062436 a4_x1
+0.94362690775796321 a4_x3
<= 110.32898374056592

a4_local_2: 
+0.77431874008728185 a4_x2
+1.2914578302564121 a4_x4
+0.85866900393110535 a4_x6
<= 164.29578002588187

a4_local_3: 
+0.94068920870850503 a4_x3
+0.7140815209420599 a4_x2
+1.4004003333971435 a4_x1
<= 92.225516132273455

a4_local_4: 
+0.80334177925406469 a4_x3
+1.2119016078222347 a4_x5
+1.2448001906841453 a4_x2
<= 200.47814259734085

a4_local_5: 
+1.0958005848874759 a4_x3
+1.1302081674264524 a4_x2
+0.8847927566096575 a4_x1
<= 171.5675191735676

a4_local_6: 
+1.6550341780681221 a4_x5
+0.60421712932072114 a4_x1
+1.5137459625436032 a4_x6
<= 179.45035555719605

a4_local_7: 
+1.3615289192489259 a4_x6
+0.73446842432964266 a4_x3
+1.1495283889235044 a4_x2
<= 216.73546035018404

a4_local_8: 
+0.48751508369058344 a4_x2
+0.57804359929800875 a4_x6
+0.85124112225802451 a4_x5
<= 97.310778744165162

a4_act_1: 
+0.099999999999999992 a4_x1
-10 a4_z1
<= 0

a4_act_2: 
+0.061864422839029161 a4_x2
-6.1864422839029158 a4_z2
<= 0

coupling_1: 
+0.0084317168738967177 a1_x1
+0.26985468724919331 a2_x1
+5.1101414466225936 a3_x1
+118.59980772075544 a4_x1
+0.84467047247969029 short_1
-0.84467047247969029 surp_1
= 9144.3053944079657

coupling_2: 
+0.0089918479456677133 a1_x2
+0.16063539563211071 a2_x2
+5.5959457337164071 a3_x2
+111.21184500031514 a4_x2
+0.99022932366488081 short_2
-0.99022932366488081 surp_2
= 4213.7840517103268

coupling_3: 
+0.01204954511254144 a1_x3
+0.17163024885762848 a2_x3
+2.9693099992966663 a3_x3
+82.990684765284414 a4_x3
+0.97060779588891521 short_3
-0.97060779588891521 surp_3
= 5028.3674348675122

bounds
  0 <= a1_x1 <= 100
  0 <= a1_x2 <= 100
  0 <= a1_x3 <= 100
  0 <= a1_x4 <= 100
  0 <= a1_x5 <= 100
  0 <= a1_x6 <= 100
  0 <= a2_x1 <= 100
  0 <= a2_x2 <= 100
  0 <= a2_x3 <= 100
  0 <= a2_x4 <= 100
  0 <= a2_x5 <= 100
  0 <= a2_x6 <= 100
  0 <= a3_x1 <= 100
  0 <= a3_x2 <= 100
  0 <= a3_x3 <= 100
  0 <= a3_x4 <= 100
  0 <= a3_x5 <= 100
  0 <= a3_x6 <= 100
  0 <= a4_x1 <= 100
  0 <= a4_x2 <= 100
  0 <= a4_x3 <= 100
  0 <= a4_x4 <= 100
  0 <= a4_x5 <= 100
  0 <= a4_x6 <= 100
  0 <= short_1 <= +inf
  0 <= surp_1 <= +inf
  0 <= short_2 <= +inf
  0 <= surp_2 <= +inf
  0 <= short_3 <= +inf
  0 <= surp_3 <= +inf
 0 <= a1_z1 <= 1
 0 <= a1_z2 <= 1
 0 <= a2_z1 <= 1
 0 <= a2_z2 <= 1
 0 <= a3_z1 <= 1
 0 <= a3_z2 <= 1
 0 <= a4_z1 <= 1
 0 <= a4_z2 <= 1

binary
  a1_z1
  a1_z2
  a2_z1
  a2_z2
  a3_z1
  a3_z2
  a4_z1
  a4_z2
end
