min
obj: 
  +9.9278906915658744 a1_x1
  +4.1029321056614965 a1_x2
  +3.3290118192963942 a1_x3
  +9.1017647242801925 a1_x4
  +1.0276781995025082 a1_x5
  +7.5015228430107515 a1_x6
  +48.476105885704612 a1_z1
  +46.462393702811802 a1_z2
  +3.1850077691017789 a2_x1
  +1.0794293017939207 a2_x2
  +3.499564475939096 a2_x3
  +4.2123952542391079 a2_x4
  +5.825176560091875 a2_x5
  +3.8934254066749405 a2_x6
  +48.499085817086311 a2_z1
  +41.1366386984797 a2_z2
  +2.6719241979528361 a3_x1
  +3.8682188322270532 a3_x2
  +5.9140343670384405 a3_x3
  +8.8118059009872773 a3_x4
  +5.9790956134935263 a3_x5
  +2.6868556403382673 a3_x6
  +5.1863767770133045 a3_z1
  +6.8806666184499186 a3_z2
  +1.2856225251920637 a4_x1
  +5.2994894770405514 a4_x2
  +9.0295106348529277 a4_x3
  +3.0822666442565567 a4_x4
  +2.1929853575171814 a4_x5
  +7.0676293507155048 a4_x6
  +41.576942647234446 a4_z1
  +44.440960753164354 a4_z2
  +1000000 short_1
  +1000000 surp_1
  +1000000 short_2
  +1000000 surp_2
  +1000000 short_3
  +1000000 surp_3

s.t.

a1_local_1: 
+0.0021185123557558127 a1_x4
+0.0020603241419735636 a1_x6
+0.0014350435855182636 a1_x1
<= 0.22383272528780823

a1_local_2: 
+4.7749044367553246 a1_x6
+5.74070498427354 a1_x5
+7.626184189230675 a1_x4
<= 809.1069358589308

a1_local_3: 
+0.070888383895069865 a1_x3
+0.057337271729634598 a1_x1
+0.046742754996248331 a1_x6
<= 10.391364585250994

a1_local_4: 
+0.0040640340670915825 a1_x5
+0.0042901069152599123 a1_x2
+0.0023032712649571963 a1_x4
<= 0.44924112209906147

a1_local_5: 
+6.898961202616003 a1_x4
+13.570092637664048 a1_x2
+8.3665774675490354 a1_x5
<= 1719.7831232026974

a1_local_6: 
+4.0417115018398819 a1_x3
+3.8134916990410535 a1_x4
+1.9876395896508674 a1_x1
<= 379.02126222012072

a1_local_7: 
+0.0028162620719915155 a1_x1
+0.0021010066249151152 a1_x2
+0.0024188144152213001 a1_x5
<= 0.38725306192756975

a1_local_8: 
+1.7772514307991742 a1_x5
+1.9231300137749856 a1_x2
+1.3793824662808649 a1_x4
<= 230.62359783737793

a1_act_1: 
+0.014616550732594802 a1_x1
-1.4616550732594802 a1_z1
<= 0

a1_act_2: 
+0.0031090511783047211 a1_x2
-0.31090511783047209 a1_z2
<= 0

a2_local_1: 
+0.3204446450632033 a2_x6
+0.19534944545676564 a2_x4
+0.46075195891357151 a2_x1
<= 64.721793211136827

a2_local_2: 
+0.034370085009965044 a2_x2
+0.033188950815547277 a2_x1
+0.029633726564374734 a2_x4
<= 5.4132509436446368

a2_local_3: 
+0.11391043021403806 a2_x3
+0.11715895657703264 a2_x4
+0.059340265540529707 a2_x5
<= 20.181544273785605

a2_local_4: 
+1.5072536085813841 a2_x4
+2.583242960725638 a2_x3
+2.6118198441415954 a2_x2
<= 248.11337162960089

a2_local_5: 
+1.6494560456934819 a2_x1
+1.0861844591893342 a2_x4
+1.7455194078554943 a2_x2
<= 194.50719935143101

a2_local_6: 
+0.00017613340799024164 a2_x3
+0.00036357682648247567 a2_x5
+0.00027444258753978111 a2_x1
<= 0.051661049832525112

a2_local_7: 
+0.00026876776792823521 a2_x3
+0.00034529297637979757 a2_x6
+0.00041247645823370819 a2_x4
<= 0.067560366598902424

a2_local_8: 
+0.45417675825293097 a2_x1
+0.8311954884109799 a2_x6
+0.78494687134830554 a2_x5
<= 121.57156279646388

a2_act_1: 
+0.030559116714418619 a2_x1
-3.0559116714418617 a2_z1
<= 0

a2_act_2: 
+140.83022265586752 a2_x2
-14083.022265586751 a2_z2
<= 0

a3_local_1: 
+1051.5076964558843 a3_x1
+930.93705226125985 a3_x4
+446.17141814975599 a3_x2
<= 93526.880515159603

a3_local_2: 
+47.956164171699712 a3_x6
+86.592422420505457 a3_x4
+74.117590018380099 a3_x1
<= 8119.5133438044186

a3_local_3: 
+3713.2939709251973 a3_x2
+2280.4549545488562 a3_x3
+1904.7496801039272 a3_x5
<= 413203.02927233215

a3_local_4: 
+0.24486722064174715 a3_x5
+0.44120520328981389 a3_x1
+0.3644555539450231 a3_x6
<= 46.986830636946642

a3_local_5: 
+2807.1334958014822 a3_x6
+1956.2516994499485 a3_x3
+3632.4612701079636 a3_x1
<= 319771.73249096313

a3_local_6: 
+0.0084945619965844914 a3_x2
+0.010443830542212977 a3_x6
+0.0088736831270740044 a3_x4
<= 1.1473980512231754

a3_local_7: 
+0.16854152872179065 a3_x2
+0.079527348163873593 a3_x5
+0.17907769980506161 a3_x4
<= 22.666936460531371

a3_local_8: 
+19.04689457398052 a3_x2
+20.507093442212607 a3_x1
+13.331333329175759 a3_x5
<= 3285.8614282683288

a3_act_1: 
+28.740228751541256 a3_x1
-2874.0228751541258 a3_z1
<= 0

a3_act_2: 
+0.0091760250473212814 a3_x2
-0.91760250473212812 a3_z2
<= 0

a4_local_1: 
+2589.1800013379298 a4_x2
+1162.16402835639 a4_x6
+2504.9819226133841 a4_x5
<= 411303.03483927838

a4_local_2: 
+9741.4269108838089 a4_x3
+24682.007677367172 a4_x5
+19927.574586109255 a4_x1
<= 3129147.7652250188

a4_local_3: 
+73.634512829901453 a4_x4
+105.55411085471431 a4_x3
+92.238218126460282 a4_x6
<= 16661.636619459794

a4_local_4: 
+26.252527818737907 a4_x5
+17.186198890426859 a4_x1
+17.294236378791179 a4_x4
<= 2928.7449568287402

a4_local_5: 
+839.34297299862556 a4_x5
+1505.5463977137115 a4_x6
+801.48638208570492 a4_x1
<= 193744.31400791835

a4_local_6: 
+1497.0168452834096 a4_x4
+1496.7337076417898 a4_x3
+1292.7207581658513 a4_x2
<= 178951.12853709233

a4_local_7: 
+4.3253235109329502 a4_x3
+6.9034989769600026 a4_x6
+3.3229231326538451 a4_x1
<= 884.82647564785691

a4_local_8: 
+89862.027847955251 a4_x3
+93147.891759680089 a4_x2
+100757.53468037721 a4_x6
<= 10787033.864489518

a4_act_1: 
+0.39517173651570631 a4_x1
-39.51717365157063 a4_z1
<= 0

a4_act_2: 
+881.82468353754609 a4_x2
-88182.468353754608 a4_z2
<= 0

coupling_1: 
+4.281922530552967e-05 a1_x1
+0.0011854235816260246 a2_x1
+0.022762112245123589 a3_x1
+0.50590635464652078 a4_x1
+0.0044043565705409252 short_1
-0.0044043565705409252 surp_1
= 15.469946128607607

coupling_2: 
+2.7822069725313221 a1_x2
+46.021864058474137 a2_x2
+2304.6151746224709 a3_x2
+21376.663572076188 a4_x2
+387.8357228157447 short_2
-387.8357228157447 surp_2
= 1334166.78693007

coupling_3: 
+0.029601225665352875 a1_x3
+0.47519742502241052 a2_x3
+17.745893579093924 a3_x3
+550.95579163770981 a4_x3
+3.8167698017195 short_3
-3.8167698017195 surp_3
= 20187.319741226078

bounds
  0 <= a1_x1 <= 100
  0 <= a1_x2 <= 100
  0 <= a1_x3 <= 100
  0 <= a1_x4 <= 100
  0 <= a1_x5 <= 100
  0 <= a1_x6 <= 100
  0 <= a2_x1 <= 100
  0 <= a2_x2 <= 100
  0 <= a2_x3 <= 100
  0 <= a2_x4 <= 100
  0 <= a2_x5 <= 100
  0 <= a2_x6 <= 100
  0 <= a3_x1 <= 100
  0 <= a3_x2 <= 100
  0 <= a3_x3 <= 100
  0 <= a3_x4 <= 100
  0 <= a3_x5 <= 100
  0 <= a3_x6 <= 100
  0 <= a4_x1 <= 100
  0 <= a4_x2 <= 100
  0 <= a4_x3 <= 100
  0 <= a4_x4 <= 100
  0 <= a4_x5 <= 100
  0 <= a4_x6 <= 100
  0 <= short_1 <= +inf
  0 <= surp_1 <= +inf
  0 <= short_2 <= +inf
  0 <= surp_2 <= +inf
  0 <= short_3 <= +inf
  0 <= surp_3 <= +inf
 0 <= a1_z1 <= 1
 0 <= a1_z2 <= 1
 0 <= a2_z1 <= 1
 0 <= a2_z2 <= 1
 0 <= a3_z1 <= 1
 0 <= a3_z2 <= 1
 0 <= a4_z1 <= 1
 0 <= a4_z2 <= 1

binary
  a1_z1
  a1_z2
  a2_z1
  a2_z2
  a3_z1
  a3_z2
  a4_z1
  a4_z2
end
