min
obj: 
  +1.5770974257819579 a1_x1
  +5.2436233239928463 a1_x2
  +8.0695966456126804 a1_x3
  +3.4781022885686368 a1_x4
  +9.412058306823841 a1_x5
  +8.3165688602967034 a1_x6
  +34.001400959855452 a1_z1
  +10.410503430419741 a1_z2
  +6.4773554290647395 a2_x1
  +9.5833935756226563 a2_x2
  +2.026827474230366 a2_x3
  +2.5146383338919818 a2_x4
  +5.9719159164755045 a2_x5
  +2.1752834405324757 a2_x6
  +46.820939487606068 a2_z1
  +31.119838842287344 a2_z2
  +4.2898026117145012 a3_x1
  +6.2971939246586208 a3_x2
  +7.0812452369118279 a3_x3
  +4.947199835085236 a3_x4
  +8.0650994710678727 a3_x5
  +5.8436848317688934 a3_x6
  +45.408472421232204 a3_z1
  +47.685437857449642 a3_z2
  +7.6745490131872192 a4_x1
  +9.5447276615633179 a4_x2
  +6.4685946234911675 a4_x3
  +6.1047180091187832 a4_x4
  +9.0091726197219533 a4_x5
  +9.2042443028710519 a4_x6
  +10.38795682780167 a4_z1
  +22.655186795949191 a4_z2
  +1000000 short_1
  +1000000 surp_1
  +1000000 short_2
  +1000000 surp_2
  +1000000 short_3
  +1000000 surp_3

s.t.

a1_local_1: 
+0.64098504467401407 a1_x1
+0.65529248652179217 a1_x6
+0.39966226943800787 a1_x5
<= 89.211705947332462

a1_local_2: 
+0.51791392364174604 a1_x5
+0.28563217064578794 a1_x4
+0.80633704540358753 a1_x1
<= 50.322073711188978

a1_local_3: 
+0.51223022241792826 a1_x2
+0.73143990408782489 a1_x3
+0.450128721533822 a1_x5
<= 66.633648216849224

a1_local_4: 
+0.75099222928415799 a1_x2
+0.60024298270744103 a1_x4
+0.27517091645972563 a1_x1
<= 81.776269246822181

a1_local_5: 
+0.60736785680026173 a1_x1
+0.38691354606789707 a1_x3
+0.69383153170998357 a1_x2
<= 65.536819901998797

a1_local_6: 
+0.68877257932184777 a1_x3
+0.55054256056530115 a1_x4
+0.47169399294514086 a1_x2
<= 71.82848145598814

a1_local_7: 
+0.91867646843279493 a1_x1
+0.5729964722097235 a1_x4
+0.79147608089396959 a1_x3
<= 126.54793799476873

a1_local_8: 
+0.6741717186608206 a1_x3
+0.43427756292491171 a1_x2
+0.59740730837336986 a1_x5
<= 77.952730850940938

a1_act_1: 
+0.0099995000374968751 a1_x1
-0.99995000374968757 a1_z1
<= 0

a1_act_2: 
+0.0099995000374968751 a1_x2
-0.99995000374968757 a1_z2
<= 0

a2_local_1: 
+0.22330067590539446 a2_x3
+0.3846809343728505 a2_x6
+0.38470940982278451 a2_x4
<= 55.155036683371094

a2_local_2: 
+0.70063395603317591 a2_x6
+0.28979465704822432 a2_x4
+0.65202079445337002 a2_x2
<= 88.256257294672736

a2_local_3: 
+0.40755672572156976 a2_x4
+0.58260213990676435 a2_x5
+0.70318721681723706 a2_x2
<= 76.54545341286412

a2_local_4: 
+0.5832745751592584 a2_x6
+0.66254764057874027 a2_x5
+0.46991636908744822 a2_x1
<= 57.065110315807992

a2_local_5: 
+0.74469744263230053 a2_x6
+0.75311335905949461 a2_x5
+0.71254803014984103 a2_x2
<= 87.037182772011761

a2_local_6: 
+0.30815616091133247 a2_x1
+0.2131781435301211 a2_x6
+0.37425280676304618 a2_x3
<= 45.922985800979838

a2_local_7: 
+0.46567618922908594 a2_x2
+0.51535388704713048 a2_x4
+0.71941369036910185 a2_x5
<= 89.579951195159296

a2_local_8: 
+0.52642759393292116 a2_x4
+0.53709654009455499 a2_x3
+0.65909126451839239 a2_x2
<= 55.479085899036356

a2_act_1: 
+0.0099995000374968768 a2_x1
-0.99995000374968768 a2_z1
<= 0

a2_act_2: 
+0.0099995000374968751 a2_x2
-0.99995000374968757 a2_z2
<= 0

a3_local_1: 
+0.56881157551933204 a3_x3
+0.50127803366394641 a3_x4
+0.65205346753255045 a3_x2
<= 95.682724425718575

a3_local_2: 
+0.42426419607962779 a3_x3
+0.51108656922784357 a3_x4
+0.74752284960382298 a3_x6
<= 110.03949284654108

a3_local_3: 
+0.47237822426315723 a3_x2
+0.75340605349799239 a3_x3
+0.4574255478157801 a3_x5
<= 63.350653673085212

a3_local_4: 
+0.70684448663599753 a3_x2
+1.1582729764517443 a3_x5
+1.0204506021630046 a3_x3
<= 151.48109566105916

a3_local_5: 
+0.64737635948030336 a3_x2
+0.31855893998348123 a3_x5
+0.6924045428379495 a3_x3
<= 103.62177211983263

a3_local_6: 
+0.61233116492222839 a3_x5
+0.52548391379954906 a3_x6
+0.59069213707556223 a3_x1
<= 91.197085493310368

a3_local_7: 
+0.55063473608792679 a3_x3
+0.63630490896256409 a3_x5
+0.54029385545601216 a3_x2
<= 101.64888186630589

a3_local_8: 
+0.47824837657156016 a3_x5
+0.73030910514649916 a3_x3
+0.48777771704618378 a3_x2
<= 94.479189735362979

a3_act_1: 
+0.0099995000374968751 a3_x1
-0.99995000374968757 a3_z1
<= 0

a3_act_2: 
+0.0099995000374968734 a3_x2
-0.99995000374968745 a3_z2
<= 0

a4_local_1: 
+0.5564097865601414 a4_x6
+0.62055276295368056 a4_x1
+0.55255987712704147 a4_x3
<= 64.605374431390558

a4_local_2: 
+0.44669998527998567 a4_x2
+0.74503452376760715 a4_x4
+0.49536116273405534 a4_x6
<= 94.78128155706591

a4_local_3: 
+0.51349915663727075 a4_x3
+0.38979958032837597 a4_x2
+0.76444417932811393 a4_x1
<= 50.34364624994263

a4_local_4: 
+0.4197076256498754 a4_x3
+0.63316057931486325 a4_x5
+0.65034851408534078 a4_x2
<= 104.74023310770232

a4_local_5: 
+0.6068140382902889 a4_x3
+0.62586769129634823 a4_x2
+0.48996566810870612 a4_x1
<= 95.007778408741956

a4_local_6: 
+0.71250079101605179 a4_x5
+0.26011860558008487 a4_x1
+0.65167548199435343 a4_x6
<= 77.254308084356197

a4_local_7: 
+0.70643084178072268 a4_x6
+0.3810797845900839 a4_x3
+0.59643412340153257 a4_x2
<= 112.45344225473656

a4_local_8: 
+0.48751508369058344 a4_x2
+0.57804359929800875 a4_x6
+0.85124112225802451 a4_x5
<= 97.310778744165162

a4_act_1: 
+0.0099995000374968751 a4_x1
-0.99995000374968745 a4_z1
<= 0

a4_act_2: 
+0.0099995000374968768 a4_x2
-0.99995000374968757 a4_z2
<= 0

coupling_1: 
+7.1024168391154458e-05 a1_x1
+0.0022731081978884524 a2_x1
+0.043045034841143373 a3_x1
+0.99901987231036804 a4_x1
+0.0071150417844507395 short_1
-0.0071150417844507395 surp_1
= 77.026624098731432

coupling_2: 
+4.1918384480700059e-05 a1_x2
+0.00074885344102826291 a2_x2
+0.026087296650970971 a3_x2
+0.51844970085123643 a4_x2
+0.0046162717346045724 short_2
-0.0046162717346045724 surp_2
= 19.643906465671343

coupling_3: 
+0.00010315445273171684 a1_x3
+0.0014693023037599875 a2_x3
+0.025419843247813621 a3_x3
+0.7104715231019807 a4_x3
+0.0083092361634340191 short_3
-0.0083092361634340191 surp_3
= 43.04714294466369

bounds
  0 <= a1_x1 <= 100
  0 <= a1_x2 <= 100
  0 <= a1_x3 <= 100
  0 <= a1_x4 <= 100
  0 <= a1_x5 <= 100
  0 <= a1_x6 <= 100
  0 <= a2_x1 <= 100
  0 <= a2_x2 <= 100
  0 <= a2_x3 <= 100
  0 <= a2_x4 <= 100
  0 <= a2_x5 <= 100
  0 <= a2_x6 <= 100
  0 <= a3_x1 <= 100
  0 <= a3_x2 <= 100
  0 <= a3_x3 <= 100
  0 <= a3_x4 <= 100
  0 <= a3_x5 <= 100
  0 <= a3_x6 <= 100
  0 <= a4_x1 <= 100
  0 <= a4_x2 <= 100
  0 <= a4_x3 <= 100
  0 <= a4_x4 <= 100
  0 <= a4_x5 <= 100
  0 <= a4_x6 <= 100
  0 <= short_1 <= +inf
  0 <= surp_1 <= +inf
  0 <= short_2 <= +inf
  0 <= surp_2 <= +inf
  0 <= short_3 <= +inf
  0 <= surp_3 <= +inf
 0 <= a1_z1 <= 1
 0 <= a1_z2 <= 1
 0 <= a2_z1 <= 1
 0 <= a2_z2 <= 1
 0 <= a3_z1 <= 1
 0 <= a3_z2 <= 1
 0 <= a4_z1 <= 1
 0 <= a4_z2 <= 1

binary
  a1_z1
  a1_z2
  a2_z1
  a2_z2
  a3_z1
  a3_z2
  a4_z1
  a4_z2
end
