min
obj: 
  +3.043052453503527 a1_x1
  +8.5242104678500681 a1_x2
  +7.6930756521091874 a1_x3
  +6.9189962156082423 a1_x4
  +9.2097073421305335 a1_x5
  +1.6783613276554563 a1_x6
  +29.957301038510835 a1_z1
  +31.080729858907144 a1_z2
  +3.9982275243752419 a2_x1
  +4.0716566341487717 a2_x2
  +8.3479540678562252 a2_x3
  +4.8717105490747867 a2_x4
  +6.0061452108085005 a2_x5
  +2.7882654202354971 a2_x6
  +21.648290212377919 a2_z1
  +42.54057128991149 a2_z2
  +2.9928805955584821 a3_x1
  +5.5354110864277946 a3_x2
  +5.213896919227734 a3_x3
  +2.0650047465660801 a3_x4
  +6.4105355661416237 a3_x5
  +2.6598622040549174 a3_x6
  +31.217971703687525 a3_z1
  +44.913093336265895 a3_z2
  +1.3478391985630118 a4_x1
  +6.3176473690479504 a4_x2
  +9.9894359630934186 a4_x3
  +5.7054129264347031 a4_x4
  +4.4415295718065089 a4_x5
  +5.0613340194576661 a4_x6
  +15.238383211322466 a4_z1
  +39.666499040349478 a4_z2
  +1000000 short_1
  +1000000 surp_1
  +1000000 short_2
  +1000000 surp_2
  +1000000 short_3
  +1000000 surp_3

s.t.

a1_local_1: 
+0.32057420966845829 a1_x4
+0.39881655547319067 a1_x3
+0.85917258520971362 a1_x1
<= 98.060632019235257

a1_local_2: 
+0.7185121068370055 a1_x5
+0.43740103016539977 a1_x2
+0.54075936528080104 a1_x1
<= 66.230322801693347

a1_local_3: 
+0.44583703621762522 a1_x1
+0.63122774479384314 a1_x5
+0.63465019604437412 a1_x4
<= 98.355344486032948

a1_local_4: 
+0.41224393941978749 a1_x4
+0.30952442232658023 a1_x1
+0.33189248862992005 a1_x2
<= 44.305143947567643

a1_local_5: 
+0.41293992751723851 a1_x4
+0.84403856159986135 a1_x6
+0.34216885129201191 a1_x3
<= 109.63031681764571

a1_local_6: 
+0.45432171448337549 a1_x5
+0.77608570160407864 a1_x1
+0.43735884981853451 a1_x6
<= 90.231901379691877

a1_local_7: 
+0.6213838201716545 a1_x1
+0.65116963280946349 a1_x2
+0.43572956903986843 a1_x4
<= 97.324577902703425

a1_local_8: 
+0.66009330918955356 a1_x3
+0.70102273254504965 a1_x6
+0.26989618674271099 a1_x5
<= 83.622159165741266

a1_act_1: 
+0.0099995000374968751 a1_x1
-0.99995000374968757 a1_z1
<= 0

a1_act_2: 
+0.0099995000374968734 a1_x2
-0.99995000374968734 a1_z2
<= 0

a2_local_1: 
+0.46725481970829108 a2_x5
+0.56948691451308953 a2_x3
+0.67628218049696809 a2_x6
<= 112.47481234761733

a2_local_2: 
+0.4683005803784383 a2_x4
+0.73025412611403573 a2_x3
+0.49741680481327116 a2_x6
<= 82.947938463106198

a2_local_3: 
+0.61266458497935949 a2_x3
+0.45877397385008228 a2_x1
+0.64355928027639642 a2_x2
<= 113.64916063605173

a2_local_4: 
+0.6856053297728506 a2_x4
+0.53137936056987278 a2_x5
+0.49757542839997004 a2_x1
<= 53.689308615720179

a2_local_5: 
+0.61830245895774449 a2_x1
+0.69392124773728792 a2_x6
+0.3690194726373287 a2_x2
<= 101.6131387576882

a2_local_6: 
+0.5909341882479634 a2_x1
+0.46771691553338895 a2_x5
+0.65729572650645851 a2_x3
<= 93.811356005131131

a2_local_7: 
+0.4295347526076676 a2_x3
+0.80579608405734904 a2_x6
+0.40766722608042893 a2_x1
<= 75.769273710694449

a2_local_8: 
+0.36140821265773371 a2_x4
+0.63378927037520971 a2_x1
+0.68388249325509254 a2_x6
<= 60.356386437449864

a2_act_1: 
+0.0099995000374968751 a2_x1
-0.99995000374968757 a2_z1
<= 0

a2_act_2: 
+0.0099995000374968751 a2_x2
-0.99995000374968757 a2_z2
<= 0

a3_local_1: 
+0.7758759347049129 a3_x4
+0.30046593902603058 a3_x2
+0.55474025762602042 a3_x5
<= 87.255291197984022

a3_local_2: 
+0.60028845242800899 a3_x1
+0.5535554215551971 a3_x6
+0.57726091947093905 a3_x3
<= 55.52736922416986

a3_local_3: 
+0.6580352043409412 a3_x2
+0.56043963372902372 a3_x6
+0.50288874196352162 a3_x5
<= 120.30235159497801

a3_local_4: 
+0.45456016235262342 a3_x1
+0.64967499502156911 a3_x5
+0.60934182496007983 a3_x4
<= 54.578123794802011

a3_local_5: 
+0.69562191725744782 a3_x4
+0.39214676980554591 a3_x2
+0.60193941486012414 a3_x6
<= 68.46122431187932

a3_local_6: 
+0.5253032889703465 a3_x5
+0.45420843915298609 a3_x2
+0.71954926752734905 a3_x1
<= 84.74375346708932

a3_local_7: 
+0.68508900262603045 a3_x2
+0.64609933940739339 a3_x4
+0.33646500872780316 a3_x5
<= 107.04916499438184

a3_local_8: 
+0.84399194227668461 a3_x3
+0.91662895211566975 a3_x5
+1.4353921347187184 a3_x6
<= 158.11233418985273

a3_act_1: 
+0.017873706055158502 a3_x1
-1.7873706055158503 a3_z1
<= 0

a3_act_2: 
+0.0099995000374968768 a3_x2
-0.99995000374968768 a3_z2
<= 0

a4_local_1: 
+0.44906980633884047 a4_x6
+0.70565496272732209 a4_x2
+0.54807607374624401 a4_x1
<= 52.557536770630811

a4_local_2: 
+0.55870470512122916 a4_x1
+0.66882405949111434 a4_x6
+0.49043188102041935 a4_x5
<= 56.77211245663328

a4_local_3: 
+0.6123487918544509 a4_x6
+0.49429505297309512 a4_x3
+0.61701001427911961 a4_x2
<= 74.022542328070244

a4_local_4: 
+0.45184677256682365 a4_x4
+0.65485140171962763 a4_x6
+0.6058086626871424 a4_x2
<= 66.464620063352655

a4_local_5: 
+0.57687461060536016 a4_x5
+0.25040907216197128 a4_x6
+0.36189816963162635 a4_x1
<= 43.476269341230129

a4_local_6: 
+0.67476592541544211 a4_x5
+0.58004673672683371 a4_x1
+0.45632962769339619 a4_x2
<= 111.46986493253718

a4_local_7: 
+0.71020750681948652 a4_x4
+0.5915424113603599 a4_x2
+0.38168425801861355 a4_x5
<= 80.641054102426281

a4_local_8: 
+0.71280416022467408 a4_x3
+0.36265918395011681 a4_x1
+0.6003237005674793 a4_x2
<= 107.13320848834

a4_act_1: 
+0.0099995000374968751 a4_x1
-0.99995000374968745 a4_z1
<= 0

a4_act_2: 
+0.0099995000374968734 a4_x2
-0.99995000374968734 a4_z2
<= 0

coupling_1: 
+0.00013216291965693707 a1_x1
+0.0039283709871229576 a2_x1
+0.051744514447876984 a3_x1
+0.99847074462518348 a4_x1
+0.013476419898016741 short_1
-0.013476419898016741 surp_1
= 60.263903516382349

coupling_2: 
+7.9859919097854487e-05 a1_x2
+0.002107206480890877 a2_x2
+0.021589326154401987 a3_x2
+0.9997090073594268 a4_x2
+0.0074617325021930844 short_2
-0.0074617325021930844 surp_2
= 73.150358597456844

coupling_3: 
+0.00010358752297348338 a1_x3
+0.0012577658870274466 a2_x3
+0.051147852459862621 a3_x3
+0.99861748874762135 a4_x3
+0.008526888375523848 short_3
-0.008526888375523848 surp_3
= 25.835192753355138

bounds
  0 <= a1_x1 <= 100
  0 <= a1_x2 <= 100
  0 <= a1_x3 <= 100
  0 <= a1_x4 <= 100
  0 <= a1_x5 <= 100
  0 <= a1_x6 <= 100
  0 <= a2_x1 <= 100
  0 <= a2_x2 <= 100
  0 <= a2_x3 <= 100
  0 <= a2_x4 <= 100
  0 <= a2_x5 <= 100
  0 <= a2_x6 <= 100
  0 <= a3_x1 <= 100
  0 <= a3_x2 <= 100
  0 <= a3_x3 <= 100
  0 <= a3_x4 <= 100
  0 <= a3_x5 <= 100
  0 <= a3_x6 <= 100
  0 <= a4_x1 <= 100
  0 <= a4_x2 <= 100
  0 <= a4_x3 <= 100
  0 <= a4_x4 <= 100
  0 <= a4_x5 <= 100
  0 <= a4_x6 <= 100
  0 <= short_1 <= +inf
  0 <= surp_1 <= +inf
  0 <= short_2 <= +inf
  0 <= surp_2 <= +inf
  0 <= short_3 <= +inf
  0 <= surp_3 <= +inf
 0 <= a1_z1 <= 1
 0 <= a1_z2 <= 1
 0 <= a2_z1 <= 1
 0 <= a2_z2 <= 1
 0 <= a3_z1 <= 1
 0 <= a3_z2 <= 1
 0 <= a4_z1 <= 1
 0 <= a4_z2 <= 1

binary
  a1_z1
  a1_z2
  a2_z1
  a2_z2
  a3_z1
  a3_z2
  a4_z1
  a4_z2
end
