min
obj: 
  +2.370294118728955 a1_x1
  +4.0871141162290519 a1_x2
  +7.6613663727576089 a1_x3
  +4.8999168943267346 a1_x4
  +9.1856075433138287 a1_x5
  +7.8055232956727103 a1_x6
  +17.430873114549655 a1_z1
  +23.402378726140935 a1_z2
  +7.7696749959897602 a2_x1
  +1.8033642153830525 a2_x2
  +9.5715816001394138 a2_x3
  +5.6582749389411147 a2_x4
  +2.4417372334426313 a2_x5
  +7.2729933705310286 a2_x6
  +31.321727314252385 a2_z1
  +17.358761230317288 a2_z2
  +2.3493759750782877 a3_x1
  +3.4440486133066264 a3_x2
  +8.9723629811002734 a3_x3
  +1.1828241076108115 a3_x4
  +8.9432908674835829 a3_x5
  +1.7190508218957756 a3_x6
  +16.001764697499688 a3_z1
  +34.61198408971174 a3_z2
  +6.5610669509273256 a4_x1
  +3.9905359855651432 a4_x2
  +4.1004087373899605 a4_x3
  +4.8874480478433391 a4_x4
  +2.9132673248674479 a4_x5
  +5.3684179760125765 a4_x6
  +43.700484803270278 a4_z1
  +7.0959851654145574 a4_z2
  +1000000 short_1
  +1000000 surp_1
  +1000000 short_2
  +1000000 surp_2
  +1000000 short_3
  +1000000 surp_3

s.t.

a1_local_1: 
+10.372523503706267 a1_x3
+7.454429063124044 a1_x2
+4.1440856740815475 a1_x1
<= 1536.8415857053133

a1_local_2: 
+5.052053876242808e-05 a1_x6
+3.0041797797731672e-05 a1_x3
+2.955318063518407e-05 a1_x2
<= 0.0034103847346889176

a1_local_3: 
+2.4218771161057853 a1_x4
+2.8014360271422758 a1_x3
+2.0293179282498808 a1_x6
<= 223.22649601612005

a1_local_4: 
+0.21909009371186064 a1_x5
+0.41373480370974458 a1_x3
+0.19914106129079623 a1_x6
<= 44.866797833654303

a1_local_5: 
+0.28190231970192003 a1_x3
+0.21344802495614859 a1_x5
+0.11303680127603979 a1_x4
<= 36.878102179283253

a1_local_6: 
+0.017740123501992805 a1_x3
+0.012800643599073128 a1_x1
+0.0097302258842427627 a1_x6
<= 2.0048277974245665

a1_local_7: 
+0.034749955519298076 a1_x6
+0.040781257661203774 a1_x1
+0.039209655719358395 a1_x4
<= 5.2810063156433733

a1_local_8: 
+0.051533765988775584 a1_x3
+0.078497229301395327 a1_x2
+0.084097517278571191 a1_x4
<= 7.8116086386479155

a1_act_1: 
+10.812379224557572 a1_x1
-1081.2379224557571 a1_z1
<= 0

a1_act_2: 
+170.48682286075174 a1_x2
-17048.682286075174 a1_z2
<= 0

a2_local_1: 
+1.1860266216883466 a2_x3
+1.3869777619144068 a2_x2
+0.68990752197238225 a2_x1
<= 206.65586904389943

a2_local_2: 
+0.53239001145274056 a2_x6
+1.2588687680656883 a2_x2
+1.3911173143154025 a2_x1
<= 203.27096977972118

a2_local_3: 
+0.033290458726023341 a2_x2
+0.055067443527892897 a2_x3
+0.030978401768598118 a2_x1
<= 6.6590575914997796

a2_local_4: 
+0.18753896544707421 a2_x1
+0.179821453494766 a2_x4
+0.21369079119591688 a2_x5
<= 32.953428087722656

a2_local_5: 
+0.38950225548877837 a2_x1
+0.58610481589364227 a2_x6
+0.52496074757086875 a2_x3
<= 46.438367634377009

a2_local_6: 
+8.5635325470219552 a2_x1
+6.9806081269431077 a2_x6
+15.149222660739815 a2_x2
<= 1496.6249471808828

a2_local_7: 
+0.0012510487145301187 a2_x3
+0.0011252694090967276 a2_x2
+0.0014869823919496502 a2_x4
<= 0.15887593373188585

a2_local_8: 
+0.3466310938186995 a2_x4
+0.17853930108521282 a2_x3
+0.30607765462647835 a2_x1
<= 50.248568040043587

a2_act_1: 
+0.08103809945015665 a2_x1
-8.1038099450156658 a2_z1
<= 0

a2_act_2: 
+182.88117749700692 a2_x2
-18288.11774970069 a2_z2
<= 0

a3_local_1: 
+42.314007053109265 a3_x5
+28.433605149519053 a3_x4
+74.831615653755179 a3_x2
<= 6534.5468208189068

a3_local_2: 
+3454.8781272247843 a3_x4
+2498.5753887571782 a3_x5
+3537.0420586028017 a3_x3
<= 477717.70098791824

a3_local_3: 
+0.11151742591355045 a3_x4
+0.059041067674592648 a3_x3
+0.12869548580172346 a3_x6
<= 12.685087488740253

a3_local_4: 
+243.90085050587268 a3_x4
+256.9845737216296 a3_x5
+313.40625340264313 a3_x2
<= 44827.682091594179

a3_local_5: 
+0.013371446968759153 a3_x4
+0.0052500403802679682 a3_x6
+0.011479670610521759 a3_x5
<= 1.2387372485840096

a3_local_6: 
+6.1346745953629771 a3_x1
+5.8790009736309008 a3_x5
+6.6254492027824217 a3_x3
<= 617.47713160950912

a3_local_7: 
+0.20327185542650766 a3_x6
+0.15920445290164806 a3_x4
+0.278104086581687 a3_x1
<= 24.150136250551217

a3_local_8: 
+8.5678383498628641 a3_x4
+4.1866091250353445 a3_x2
+8.0445326721784909 a3_x1
<= 1315.5171835222238

a3_act_1: 
+61.655601583946897 a3_x1
-6165.56015839469 a3_z1
<= 0

a3_act_2: 
+0.088720732042829403 a3_x2
-8.8720732042829411 a3_z2
<= 0

a4_local_1: 
+739.15926097776116 a4_x5
+928.00227799950733 a4_x2
+697.93475896643042 a4_x1
<= 158237.54451625212

a4_local_2: 
+0.56531192863894686 a4_x4
+0.31002426732168697 a4_x2
+0.64543540506299346 a4_x6
<= 94.933736559444654

a4_local_3: 
+406.8020939496987 a4_x1
+290.4484694635554 a4_x3
+307.1288139642412 a4_x6
<= 49755.049697431459

a4_local_4: 
+1007.8874785800613 a4_x3
+1328.7539305858008 a4_x4
+1085.6346131249934 a4_x1
<= 206588.02779404321

a4_local_5: 
+8.3781821072257703 a4_x6
+8.6554597978936467 a4_x3
+4.5795776923687024 a4_x4
<= 1033.857948543802

a4_local_6: 
+18.991593543757286 a4_x5
+40.676792310535042 a4_x4
+20.208084958661441 a4_x2
<= 4472.9866768729889

a4_local_7: 
+26684.200365515244 a4_x6
+19352.708161670998 a4_x2
+20778.471056224418 a4_x4
<= 4522036.4321165159

a4_local_8: 
+116.45819342492003 a4_x6
+191.51896522747711 a4_x2
+188.07137906820097 a4_x1
<= 17926.483019125913

a4_act_1: 
+0.0047583988237079105 a4_x1
-0.47583988237079106 a4_z1
<= 0

a4_act_2: 
+626.4391985946537 a4_x2
-62643.919859465372 a4_z2
<= 0

coupling_1: 
+0.00019791081258341972 a1_x1
+0.0069203937901549367 a2_x1
+0.13028326186225161 a3_x1
+3.1248842378674619 a4_x1
+0.023194753697511176 short_1
-0.023194753697511176 surp_1
= 68.295412744183992

coupling_2: 
+0.031550376595250298 a1_x2
+0.98993921277386099 a2_x2
+18.2923235361244 a3_x2
+425.53378226611233 a4_x2
+3.2871468437309543 short_2
-3.2871468437309543 surp_2
= 34937.062755293438

coupling_3: 
+6.9017895194492529e-05 a1_x3
+0.0015959860152212437 a2_x3
+0.069350270021069818 a3_x3
+1.349331086651044 a4_x3
+0.011394379666510142 short_3
-0.011394379666510142 surp_3
= 78.95811611758333

bounds
  0 <= a1_x1 <= 100
  0 <= a1_x2 <= 100
  0 <= a1_x3 <= 100
  0 <= a1_x4 <= 100
  0 <= a1_x5 <= 100
  0 <= a1_x6 <= 100
  0 <= a2_x1 <= 100
  0 <= a2_x2 <= 100
  0 <= a2_x3 <= 100
  0 <= a2_x4 <= 100
  0 <= a2_x5 <= 100
  0 <= a2_x6 <= 100
  0 <= a3_x1 <= 100
  0 <= a3_x2 <= 100
  0 <= a3_x3 <= 100
  0 <= a3_x4 <= 100
  0 <= a3_x5 <= 100
  0 <= a3_x6 <= 100
  0 <= a4_x1 <= 100
  0 <= a4_x2 <= 100
  0 <= a4_x3 <= 100
  0 <= a4_x4 <= 100
  0 <= a4_x5 <= 100
  0 <= a4_x6 <= 100
  0 <= short_1 <= +inf
  0 <= surp_1 <= +inf
  0 <= short_2 <= +inf
  0 <= surp_2 <= +inf
  0 <= short_3 <= +inf
  0 <= surp_3 <= +inf
 0 <= a1_z1 <= 1
 0 <= a1_z2 <= 1
 0 <= a2_z1 <= 1
 0 <= a2_z2 <= 1
 0 <= a3_z1 <= 1
 0 <= a3_z2 <= 1
 0 <= a4_z1 <= 1
 0 <= a4_z2 <= 1

binary
  a1_z1
  a1_z2
  a2_z1
  a2_z2
  a3_z1
  a3_z2
  a4_z1
  a4_z2
end
