min
obj: 
  +4.0092711480649195 a1_x1
  +1.9679731558453351 a1_x2
  +5.1245063990813229 a1_x3
  +5.3289660462088069 a1_x4
  +7.7326436197250805 a1_x5
  +5.1395422066191525 a1_x6
  +7.4601303692563201 a1_z1
  +49.872667351617643 a1_z2
  +9.3684343534405965 a2_x1
  +1.0573707236444929 a2_x2
  +6.6071911877442115 a2_x3
  +2.1574642417771144 a2_x4
  +4.0288495580936399 a2_x5
  +6.5816021448275457 a2_x6
  +37.186317612242192 a2_z1
  +14.569927030673126 a2_z2
  +7.5771846442232071 a3_x1
  +6.3254671996139473 a3_x2
  +1.3182946718516668 a3_x3
  +2.4508427443497842 a3_x4
  +7.5821505201430535 a3_x5
  +8.0396019839617026 a3_x6
  +34.570982164584187 a3_z1
  +17.019236119633661 a3_z2
  +9.6576292080467585 a4_x1
  +1.0103892115093069 a4_x2
  +8.2624531172852755 a4_x3
  +1.8717492610420641 a4_x4
  +5.7231033614351237 a4_x5
  +2.0382344427317065 a4_x6
  +33.41705432517788 a4_z1
  +11.211459891146486 a4_z2
  +1000000 short_1
  +1000000 surp_1
  +1000000 short_2
  +1000000 surp_2
  +1000000 short_3
  +1000000 surp_3

s.t.

a1_local_1: 
+1.5342020906071259 a1_x3
+0.65180461304434312 a1_x6
+1.037068538077017 a1_x4
<= 121.8339849395759

a1_local_2: 
+1.6071170867054938 a1_x4
+0.89035350617375286 a1_x6
+0.62223219967746579 a1_x2
<= 176.85440397439609

a1_local_3: 
+0.81792847751954678 a1_x6
+1.3832389897170874 a1_x4
+0.72294087098031345 a1_x1
<= 185.63892643500304

a1_local_4: 
+0.92036599997506618 a1_x2
+1.0865242740682413 a1_x5
+1.0672123420542223 a1_x3
<= 207.49116498681522

a1_local_5: 
+0.86321235140881292 a1_x1
+0.39148292125567247 a1_x4
+0.54949594281904979 a1_x2
<= 123.48788312630353

a1_local_6: 
+1.3663465945252318 a1_x1
+1.4006442170372677 a1_x3
+0.71395718329902791 a1_x6
<= 217.30733804183305

a1_local_7: 
+0.78740936838659625 a1_x2
+1.2699874298536762 a1_x5
+1.0030903126853408 a1_x4
<= 170.25171497121121

a1_local_8: 
+1.0069648170297696 a1_x4
+1.5698502088488895 a1_x5
+0.63700345062428698 a1_x6
<= 166.52094511269701

a1_act_1: 
+0.10000000000000001 a1_x1
-10 a1_z1
<= 0

a1_act_2: 
+0.099999999999999992 a1_x2
-10 a1_z2
<= 0

a2_local_1: 
+0.72804982625318759 a2_x4
+1.3735323654238998 a2_x2
+1.1017339962245778 a2_x6
<= 184.84939886414821

a2_local_2: 
+0.90666536941904252 a2_x1
+1.2510491916077482 a2_x4
+0.79932908050952045 a2_x5
<= 189.93990861834058

a2_local_3: 
+0.96770654224011887 a2_x4
+0.71530445937690323 a2_x5
+1.398006103402589 a2_x3
<= 196.83400651691227

a2_local_4: 
+1.2154998417268212 a2_x2
+0.82270681218627895 a2_x1
+1.1666553217880247 a2_x5
<= 146.51193015989222

a2_local_5: 
+1.163697866834567 a2_x2
+0.73375325726383189 a2_x3
+1.3628559602297412 a2_x6
<= 183.81935431007571

a2_local_6: 
+1.1027460442782875 a2_x6
+0.79144001316625079 a2_x5
+1.263519639346234 a2_x2
<= 175.93506570070596

a2_local_7: 
+1.064534203734907 a2_x2
+0.7264816806959612 a2_x5
+0.76796464257419828 a2_x6
<= 170.62213198988786

a2_local_8: 
+1.1836662385825925 a2_x2
+0.97287734364951117 a2_x4
+0.84483274710738754 a2_x5
<= 199.30240257955285

a2_act_1: 
+0.10000000000000001 a2_x1
-10 a2_z1
<= 0

a2_act_2: 
+0.099999999999999992 a2_x2
-10 a2_z2
<= 0

a3_local_1: 
+0.88143664343025774 a3_x1
+0.73314462870439634 a3_x2
+1.3639873509912868 a3_x6
<= 134.52340896694744

a3_local_2: 
+0.84229729769049477 a3_x2
+0.69598732747975822 a3_x1
+1.4368077700798134 a3_x6
<= 128.08415672913611

a3_local_3: 
+0.91130667672903887 a3_x1
+0.70396555294661345 a3_x5
+1.4205240523691316 a3_x2
<= 157.24552080336107

a3_local_4: 
+0.50802046558172975 a3_x4
+0.77298007527695589 a3_x6
+0.72781144339956616 a3_x5
<= 128.99142295598361

a3_local_5: 
+0.83552718991282371 a3_x4
+1.227151298725647 a3_x1
+0.8148954420196306 a3_x5
<= 93.645727166268017

a3_local_6: 
+1.7612554322170899 a3_x5
+0.99891255183297811 a3_x6
+0.9064642274177912 a3_x1
<= 216.09414803898505

a3_local_7: 
+0.93849311759407572 a3_x6
+1.1585620800072616 a3_x1
+1.3375365392257925 a3_x4
<= 215.45688375434523

a3_local_8: 
+0.97442474373049093 a3_x3
+1.2503020548506238 a3_x1
+0.79980673159772742 a3_x6
<= 123.2026983093249

a3_act_1: 
+0.10000000000000001 a3_x1
-10 a3_z1
<= 0

a3_act_2: 
+0.099999999999999992 a3_x2
-10 a3_z2
<= 0

a4_local_1: 
+0.87130639001612409 a4_x3
+0.84643491755682776 a4_x2
+1.1814257413746903 a4_x5
<= 172.75665374490433

a4_local_2: 
+0.65774104868531857 a4_x2
+1.2968193500530432 a4_x5
+1.5203551640859005 a4_x3
<= 240.41552455674224

a4_local_3: 
+1.4629246448779396 a4_x4
+0.6835622077331508 a4_x5
+0.698000447540709 a4_x2
<= 96.420857622196223

a4_local_4: 
+1.0782476998348445 a4_x5
+1.0984864699200432 a4_x3
+0.91034348385992225 a4_x1
<= 102.1522085267197

a4_local_5: 
+0.92200139531732495 a4_x5
+1.4067863590490535 a4_x6
+0.71083998900584366 a4_x1
<= 163.17136891814118

a4_local_6: 
+1.4874221672957824 a4_x3
+0.67230408554288024 a4_x2
+0.8618085100172348 a4_x1
<= 148.19601680940306

a4_local_7: 
+0.7612040560767519 a4_x1
+0.67221657262505974 a4_x2
+1.487615808243048 a4_x3
<= 178.44426736596284

a4_local_8: 
+1.1273928806136475 a4_x3
+0.80573190113536342 a4_x1
+1.2411076172991189 a4_x4
<= 182.44338108433513

a4_act_1: 
+0.10000000000000001 a4_x1
-10.000000000000002 a4_z1
<= 0

a4_act_2: 
+0.099999999999999992 a4_x2
-10 a4_z2
<= 0

coupling_1: 
+0.00018907482042395128 a1_x1
+0.0052283647996878568 a2_x1
+0.11393968370549565 a3_x1
+0.99319142028732477 a4_x1
+0.016750814860359356 short_1
-0.016750814860359356 surp_1
= 62.912467276681873

coupling_2: 
+8.6000912183733553e-05 a1_x2
+0.0016961791818013625 a2_x2
+0.029903643768237721 a3_x2
+0.99943804348597665 a4_x2
+0.010641543645820836 short_2
-0.010641543645820836 surp_2
= 56.63372441733685

coupling_3: 
+8.6944316549702859e-05 a1_x3
+0.0012475767569821079 a2_x3
+0.038474149585983573 a3_x3
+0.93602053254516016 a4_x3
+0.010916650974881717 short_3
-0.010916650974881717 surp_3
= 21.293685308320413

bounds
  0 <= a1_x1 <= 100
  0 <= a1_x2 <= 100
  0 <= a1_x3 <= 100
  0 <= a1_x4 <= 100
  0 <= a1_x5 <= 100
  0 <= a1_x6 <= 100
  0 <= a2_x1 <= 100
  0 <= a2_x2 <= 100
  0 <= a2_x3 <= 100
  0 <= a2_x4 <= 100
  0 <= a2_x5 <= 100
  0 <= a2_x6 <= 100
  0 <= a3_x1 <= 100
  0 <= a3_x2 <= 100
  0 <= a3_x3 <= 100
  0 <= a3_x4 <= 100
  0 <= a3_x5 <= 100
  0 <= a3_x6 <= 100
  0 <= a4_x1 <= 100
  0 <= a4_x2 <= 100
  0 <= a4_x3 <= 100
  0 <= a4_x4 <= 100
  0 <= a4_x5 <= 100
  0 <= a4_x6 <= 100
  0 <= short_1 <= +inf
  0 <= surp_1 <= +inf
  0 <= short_2 <= +inf
  0 <= surp_2 <= +inf
  0 <= short_3 <= +inf
  0 <= surp_3 <= +inf
 0 <= a1_z1 <= 1
 0 <= a1_z2 <= 1
 0 <= a2_z1 <= 1
 0 <= a2_z2 <= 1
 0 <= a3_z1 <= 1
 0 <= a3_z2 <= 1
 0 <= a4_z1 <= 1
 0 <= a4_z2 <= 1

binary
  a1_z1
  a1_z2
  a2_z1
  a2_z2
  a3_z1
  a3_z2
  a4_z1
  a4_z2
end
