min
obj: 
  +2.370294118728955 a1_x1
  +4.0871141162290519 a1_x2
  +7.6613663727576089 a1_x3
  +4.8999168943267346 a1_x4
  +9.1856075433138287 a1_x5
  +7.8055232956727103 a1_x6
  +17.430873114549655 a1_z1
  +23.402378726140935 a1_z2
  +7.7696749959897602 a2_x1
  +1.8033642153830525 a2_x2
  +9.5715816001394138 a2_x3
  +5.6582749389411147 a2_x4
  +2.4417372334426313 a2_x5
  +7.2729933705310286 a2_x6
  +31.321727314252385 a2_z1
  +17.358761230317288 a2_z2
  +2.3493759750782877 a3_x1
  +3.4440486133066264 a3_x2
  +8.9723629811002734 a3_x3
  +1.1828241076108115 a3_x4
  +8.9432908674835829 a3_x5
  +1.7190508218957756 a3_x6
  +16.001764697499688 a3_z1
  +34.61198408971174 a3_z2
  +6.5610669509273256 a4_x1
  +3.9905359855651432 a4_x2
  +4.1004087373899605 a4_x3
  +4.8874480478433391 a4_x4
  +2.9132673248674479 a4_x5
  +5.3684179760125765 a4_x6
  +43.700484803270278 a4_z1
  +7.0959851654145574 a4_z2
  +1000000 short_1
  +1000000 surp_1
  +1000000 short_2
  +1000000 surp_2
  +1000000 short_3
  +1000000 surp_3

s.t.

a1_local_1: 
+0.77241195716615829 a1_x3
+0.55510986696212827 a1_x2
+0.30859812706501166 a1_x1
<= 114.44416748198475

a1_local_2: 
+0.76791484251516662 a1_x6
+0.45663690431334675 a1_x3
+0.44920989778057008 a1_x2
<= 51.838027079838319

a1_local_3: 
+0.57353003939573322 a1_x4
+0.66341421880025575 a1_x3
+0.48056723588315409 a1_x6
<= 52.862756827297559

a1_local_4: 
+0.21909009371186064 a1_x5
+0.41373480370974458 a1_x3
+0.19914106129079623 a1_x6
<= 44.866797833654303

a1_local_5: 
+0.75938868227298362 a1_x3
+0.57498645125237902 a1_x5
+0.30449862087027135 a1_x4
<= 99.342259575112024

a1_local_6: 
+0.74094541606884634 a1_x3
+0.53463991929925525 a1_x1
+0.40639887684176712 a1_x6
<= 83.734928132956171

a1_local_7: 
+0.52339568222869348 a1_x6
+0.61423774093397832 a1_x1
+0.59056664097854683 a1_x4
<= 79.541278891571778

a1_local_8: 
+0.40881874508552435 a1_x3
+0.62272062132382799 a1_x2
+0.66714785575969782 a1_x4
<= 61.969700437706337

a1_act_1: 
+0.0099995000374968768 a1_x1
-0.99995000374968757 a1_z1
<= 0

a1_act_2: 
+0.0099995000374968751 a1_x2
-0.99995000374968757 a1_z2
<= 0

a2_local_1: 
+1.1860266216883466 a2_x3
+1.3869777619144068 a2_x2
+0.68990752197238225 a2_x1
<= 206.65586904389943

a2_local_2: 
+0.53239001145274056 a2_x6
+1.2588687680656883 a2_x2
+1.3911173143154025 a2_x1
<= 203.27096977972118

a2_local_3: 
+0.46614415501724021 a2_x2
+0.7710727912620603 a2_x3
+0.43376995898586418 a2_x1
<= 93.242355106820014

a2_local_4: 
+0.55747467419237706 a2_x1
+0.53453374855096436 a2_x4
+0.63521308180338765 a2_x5
<= 97.956718183504918

a2_local_5: 
+0.38950225548877837 a2_x1
+0.58610481589364227 a2_x6
+0.52496074757086875 a2_x3
<= 46.438367634377009

a2_local_6: 
+0.45672210821443554 a2_x1
+0.37229940364563713 a2_x6
+0.80795920064893401 a2_x2
<= 79.820062261628081

a2_local_7: 
+0.55712484542162344 a2_x3
+0.50111201771719904 a2_x2
+0.66219230765188586 a2_x4
<= 70.751625411195803

a2_local_8: 
+0.69928387547025295 a2_x4
+0.36018019333233503 a2_x3
+0.61747250128113851 a2_x1
<= 101.37005601191338

a2_act_1: 
+0.0099995000374968751 a2_x1
-0.99995000374968757 a2_z1
<= 0

a2_act_2: 
+0.0099995000374968751 a2_x2
-0.99995000374968757 a2_z2
<= 0

a3_local_1: 
+0.46731663203920326 a3_x5
+0.31402123127994835 a3_x4
+0.82644166867659885 a3_x2
<= 72.167649080712309

a3_local_2: 
+0.6236432264172822 a3_x4
+0.45102014007742147 a3_x5
+0.63847471319417626 a3_x3
<= 86.233261316244366

a3_local_3: 
+0.61873482797448964 a3_x4
+0.32757898195559443 a3_x3
+0.71404427259961634 a3_x6
<= 70.38097733058737

a3_local_4: 
+0.51561991303265631 a3_x4
+0.54327962890760972 a3_x5
+0.66255818619816786 a3_x2
<= 94.768203938537766

a3_local_5: 
+0.72715879570718167 a3_x4
+0.28550485592540159 a3_x6
+0.62428123715894046 a3_x5
<= 67.364338951685269

a3_local_6: 
+0.56936091402592692 a3_x1
+0.54563177164048937 a3_x5
+0.61490984652713265 a3_x3
<= 57.308230221214544

a3_local_7: 
+0.53565463193328733 a3_x6
+0.41952980869997958 a3_x4
+0.73284981742548938 a3_x1
<= 63.639564450695786

a3_local_8: 
+0.68674676701610349 a3_x4
+0.33557359090746153 a3_x2
+0.6448017083401697 a3_x1
<= 105.44400300835245

a3_act_1: 
+0.0099995000374968734 a3_x1
-0.99995000374968745 a3_z1
<= 0

a3_act_2: 
+0.0099995000374968751 a3_x2
-0.99995000374968757 a3_z2
<= 0

a4_local_1: 
+0.53699798738911919 a4_x5
+0.67419212866122302 a4_x2
+0.50704845448071756 a4_x1
<= 114.95931583434508

a4_local_2: 
+0.56531192863894686 a4_x4
+0.31002426732168697 a4_x2
+0.64543540506299346 a4_x6
<= 94.933736559444654

a4_local_3: 
+0.6934140828770986 a4_x1
+0.49508363420821427 a4_x3
+0.52351609794437015 a4_x6
<= 84.80991781402912

a4_local_4: 
+0.50648080789037342 a4_x3
+0.66772172345937819 a4_x4
+0.54555008134831418 a4_x1
<= 103.81404019922493

a4_local_5: 
+0.65010965356042638 a4_x6
+0.67162516863435417 a4_x3
+0.35535485251283344 a4_x4
<= 80.222776749962605

a4_local_6: 
+0.38576832624855306 a4_x5
+0.82625073302251473 a4_x4
+0.41047840947258923 a4_x2
<= 90.857914565919629

a4_local_7: 
+0.6848141405952678 a4_x6
+0.49666124622017871 a4_x2
+0.53325153477864828 a4_x4
<= 116.05198771488716

a4_local_8: 
+0.39801599426753953 a4_x6
+0.65454914870586722 a4_x2
+0.64276642743351686 a4_x1
<= 61.266852530882495

a4_act_1: 
+0.0099995000374968751 a4_x1
-0.99995000374968745 a4_z1
<= 0

a4_act_2: 
+0.0099995000374968751 a4_x2
-0.99995000374968757 a4_z2
<= 0

coupling_1: 
+6.3275198168614839e-05 a1_x1
+0.0022125586912657143 a2_x1
+0.041653607020145901 a3_x1
+0.99907461762202654 a4_x1
+0.007415727405310984 short_1
-0.007415727405310984 surp_1
= 21.835117136786582

coupling_2: 
+7.4070039466325635e-05 a1_x2
+0.0023240558266572888 a2_x2
+0.042944435929665091 a3_x2
+0.99901514492384169 a4_x2
+0.0077171534137381332 short_2
-0.0077171534137381332 surp_2
= 82.020878873175008

coupling_3: 
+6.9017895194492529e-05 a1_x3
+0.0015959860152212437 a2_x3
+0.069350270021069818 a3_x3
+1.349331086651044 a4_x3
+0.011394379666510142 short_3
-0.011394379666510142 surp_3
= 78.95811611758333

bounds
  0 <= a1_x1 <= 100
  0 <= a1_x2 <= 100
  0 <= a1_x3 <= 100
  0 <= a1_x4 <= 100
  0 <= a1_x5 <= 100
  0 <= a1_x6 <= 100
  0 <= a2_x1 <= 100
  0 <= a2_x2 <= 100
  0 <= a2_x3 <= 100
  0 <= a2_x4 <= 100
  0 <= a2_x5 <= 100
  0 <= a2_x6 <= 100
  0 <= a3_x1 <= 100
  0 <= a3_x2 <= 100
  0 <= a3_x3 <= 100
  0 <= a3_x4 <= 100
  0 <= a3_x5 <= 100
  0 <= a3_x6 <= 100
  0 <= a4_x1 <= 100
  0 <= a4_x2 <= 100
  0 <= a4_x3 <= 100
  0 <= a4_x4 <= 100
  0 <= a4_x5 <= 100
  0 <= a4_x6 <= 100
  0 <= short_1 <= +inf
  0 <= surp_1 <= +inf
  0 <= short_2 <= +inf
  0 <= surp_2 <= +inf
  0 <= short_3 <= +inf
  0 <= surp_3 <= +inf
 0 <= a1_z1 <= 1
 0 <= a1_z2 <= 1
 0 <= a2_z1 <= 1
 0 <= a2_z2 <= 1
 0 <= a3_z1 <= 1
 0 <= a3_z2 <= 1
 0 <= a4_z1 <= 1
 0 <= a4_z2 <= 1

binary
  a1_z1
  a1_z2
  a2_z1
  a2_z2
  a3_z1
  a3_z2
  a4_z1
  a4_z2
end
