min
obj: 
  +2.8670230128866887 a1_x1
  +4.6121734767481746 a1_x2
  +8.3726653944305163 a1_x3
  +3.8874111784256438 a1_x4
  +3.5735214707131471 a1_x5
  +7.9063268225890937 a1_x6
  +32.521673256282952 a1_z1
  +46.9551209495583 a1_z2
  +1.341622492975389 a2_x1
  +5.0417707846324316 a2_x2
  +1.1098914253226899 a2_x3
  +7.5349912767704339 a2_x4
  +4.7451420176434915 a2_x5
  +4.9227196469025021 a2_x6
  +7.3717597202086891 a2_z1
  +32.23919956008293 a2_z2
  +7.1988333719011539 a3_x1
  +9.6965932883206509 a3_x2
  +2.6814504435085222 a3_x3
  +4.7418198986047297 a3_x4
  +5.4039251046059666 a3_x5
  +9.8502537099383343 a3_x6
  +17.992052798317559 a3_z1
  +28.73085531973274 a3_z2
  +5.3817190254650331 a4_x1
  +3.7297540390479749 a4_x2
  +6.6577904747627379 a4_x3
  +5.4304281417402382 a4_x4
  +9.7175944926778737 a4_x5
  +8.0479454867151716 a4_x6
  +7.8471654550187315 a4_z1
  +24.374477793367895 a4_z2
  +1000000 short_1
  +1000000 surp_1
  +1000000 short_2
  +1000000 surp_2
  +1000000 short_3
  +1000000 surp_3

s.t.

a1_local_1: 
+0.31370816797662709 a1_x3
+0.55074112198143366 a1_x1
+0.48934203464308457 a1_x2
<= 81.41774971090183

a1_local_2: 
+0.69990565180277409 a1_x4
+0.525673387819661 a1_x6
+0.48352824934302852 a1_x2
<= 64.04106986070218

a1_local_3: 
+0.57794778380968848 a1_x3
+0.27195665506551264 a1_x4
+0.28976171512276283 a1_x1
<= 74.374214532644231

a1_local_4: 
+0.35648094899768945 a1_x3
+0.32432080677983677 a1_x6
+0.87620622417977745 a1_x1
<= 85.315956664383549

a1_local_5: 
+0.45020744170615429 a1_x5
+0.65088451194159846 a1_x1
+0.61127948726171655 a1_x3
<= 87.333349937401948

a1_local_6: 
+0.67266321542671093 a1_x6
+0.54251822390678728 a1_x3
+0.50318801192081619 a1_x1
<= 78.514808660531003

a1_local_7: 
+0.71609576170327016 a1_x4
+0.97837169858689776 a1_x3
+0.89410753701294177 a1_x6
<= 89.630277240267674

a1_local_8: 
+0.53750857770776117 a1_x6
+0.66337929965646736 a1_x3
+0.52058854547317346 a1_x2
<= 63.282209916442625

a1_act_1: 
+0.0099995000374968751 a1_x1
-0.99995000374968757 a1_z1
<= 0

a1_act_2: 
+0.0099995000374968751 a1_x2
-0.99995000374968745 a1_z2
<= 0

a2_local_1: 
+0.4430538619022984 a2_x3
+0.68979331370255881 a2_x1
+0.57261545545392178 a2_x4
<= 77.099357868251772

a2_local_2: 
+0.72215275482148855 a2_x3
+0.4519359829053432 a2_x4
+0.52368813816919357 a2_x1
<= 110.46492939535649

a2_local_3: 
+0.39597494269970185 a2_x2
+0.55180053242489535 a2_x5
+0.73397548812584312 a2_x6
<= 102.82432565912409

a2_local_4: 
+0.61744952113381302 a2_x3
+0.54366933526785399 a2_x4
+0.42519277729496358 a2_x2
<= 95.460727665912259

a2_local_5: 
+0.38161231068386586 a2_x3
+0.58430848675053237 a2_x5
+0.71620921290208461 a2_x6
<= 105.25026452636943

a2_local_6: 
+0.35439116549475275 a2_x2
+0.82522019450083384 a2_x5
+0.43979373848120729 a2_x1
<= 108.7598279644852

a2_local_7: 
+0.46293115892475639 a2_x6
+0.73408645613147794 a2_x2
+0.49680158717631906 a2_x5
<= 82.501522534459227

a2_local_8: 
+0.52248322477444342 a2_x2
+0.70087229114775895 a2_x4
+0.48558141575907665 a2_x6
<= 111.89103987345452

a2_act_1: 
+0.01261907309766582 a2_x1
-1.2619073097665821 a2_z1
<= 0

a2_act_2: 
+0.0099995000374968751 a2_x2
-0.99995000374968757 a2_z2
<= 0

a3_local_1: 
+0.86880209205202519 a3_x6
+1.1913460022752422 a3_x2
+0.8744727827354587 a3_x1
<= 150.31289062445794

a3_local_2: 
+0.68894482039042559 a3_x3
+0.47270409627566029 a3_x1
+0.54945961800792575 a3_x4
<= 98.645513246634337

a3_local_3: 
+0.57222014825871048 a3_x4
+0.46253952721860953 a3_x1
+0.6772158353783263 a3_x6
<= 99.771504824588035

a3_local_4: 
+0.63053091360848301 a3_x1
+0.63476985121754981 a3_x3
+0.4466519931325742 a3_x5
<= 62.796874624717262

a3_local_5: 
+0.27427507782991195 a3_x5
+0.58225944812390895 a3_x4
+0.76534117669954027 a3_x6
<= 69.977790111635528

a3_local_6: 
+0.38877618047460094 a3_x2
+0.64256106274845259 a3_x3
+0.66027900325177635 a3_x6
<= 90.443702507596441

a3_local_7: 
+0.60103170143918061 a3_x4
+0.34838572651871608 a3_x1
+0.71929707313678826 a3_x2
<= 89.617493274607696

a3_local_8: 
+0.752837361483777 a3_x2
+0.35442509053748994 a3_x1
+0.55463389938917085 a3_x5
<= 54.38854824957744

a3_act_1: 
+0.0099995000374968751 a3_x1
-0.99995000374968745 a3_z1
<= 0

a3_act_2: 
+0.005476320375614168 a3_x2
-0.54763203756141676 a3_z2
<= 0

a4_local_1: 
+0.40835286714628022 a4_x1
+0.729923509265892 a4_x4
+0.5481419583596735 a4_x3
<= 67.58194210640238

a4_local_2: 
+0.69402579243393325 a4_x1
+0.50114580983945267 a4_x6
+0.51689561491350489 a4_x3
<= 80.323080175010887

a4_local_3: 
+0.55341762310459863 a4_x2
+0.34902494474436035 a4_x5
+0.75624765942345418 a4_x1
<= 94.531552599916665

a4_local_4: 
+0.31849774985330731 a4_x5
+0.32912757799262754 a4_x4
+0.48395317855108744 a4_x3
<= 48.913218180618337

a4_local_5: 
+0.33950806613546913 a4_x1
+0.61535113133073882 a4_x4
+0.71139107261683709 a4_x2
<= 67.470941783067744

a4_local_6: 
+0.59398797369782319 a4_x4
+0.70551761356461118 a4_x2
+0.38655295116251553 a4_x6
<= 85.923719023734122

a4_local_7: 
+0.51319099488252173 a4_x2
+0.54773087930478404 a4_x1
+0.66077672978661672 a4_x3
<= 82.88396025948785

a4_local_8: 
+0.61016323740756173 a4_x1
+0.38072125722768341 a4_x2
+0.69480367587635539 a4_x5
<= 109.84943550541013

a4_act_1: 
+0.0099995000374968751 a4_x1
-0.99995000374968745 a4_z1
<= 0

a4_act_2: 
+0.0099995000374968768 a4_x2
-0.99995000374968757 a4_z2
<= 0

coupling_1: 
+0.00012069809948715899 a1_x1
+0.0021643594291449434 a2_x1
+0.045802836479226651 a3_x1
+0.99888115175497461 a4_x1
+0.0081806423752377299 short_1
-0.0081806423752377299 surp_1
= 26.208921981108389

coupling_2: 
+8.7859289471484299e-05 a1_x2
+0.0022515443790108863 a2_x2
+0.068368591859801944 a3_x2
+0.99748559353100164 a4_x2
+0.013098648286509305 short_2
-0.013098648286509305 surp_2
= 24.238536995137853

coupling_3: 
+0.00022530861035332283 a1_x3
+0.0047056100385552855 a2_x3
+0.076075896452851496 a3_x3
+0.99685512072091531 a4_x3
+0.015331874340399218 short_3
-0.015331874340399218 surp_3
= 22.192835642616096

bounds
  0 <= a1_x1 <= 100
  0 <= a1_x2 <= 100
  0 <= a1_x3 <= 100
  0 <= a1_x4 <= 100
  0 <= a1_x5 <= 100
  0 <= a1_x6 <= 100
  0 <= a2_x1 <= 100
  0 <= a2_x2 <= 100
  0 <= a2_x3 <= 100
  0 <= a2_x4 <= 100
  0 <= a2_x5 <= 100
  0 <= a2_x6 <= 100
  0 <= a3_x1 <= 100
  0 <= a3_x2 <= 100
  0 <= a3_x3 <= 100
  0 <= a3_x4 <= 100
  0 <= a3_x5 <= 100
  0 <= a3_x6 <= 100
  0 <= a4_x1 <= 100
  0 <= a4_x2 <= 100
  0 <= a4_x3 <= 100
  0 <= a4_x4 <= 100
  0 <= a4_x5 <= 100
  0 <= a4_x6 <= 100
  0 <= short_1 <= +inf
  0 <= surp_1 <= +inf
  0 <= short_2 <= +inf
  0 <= surp_2 <= +inf
  0 <= short_3 <= +inf
  0 <= surp_3 <= +inf
 0 <= a1_z1 <= 1
 0 <= a1_z2 <= 1
 0 <= a2_z1 <= 1
 0 <= a2_z2 <= 1
 0 <= a3_z1 <= 1
 0 <= a3_z2 <= 1
 0 <= a4_z1 <= 1
 0 <= a4_z2 <= 1

binary
  a1_z1
  a1_z2
  a2_z1
  a2_z2
  a3_z1
  a3_z2
  a4_z1
  a4_z2
end
