min
obj: 
  +4.6820518769511636 a1_x1
  +5.7129162548306427 a1_x2
  +9.0056358908477314 a1_x3
  +9.0172471176233611 a1_x4
  +9.406385688684578 a1_x5
  +5.7753562095118767 a1_x6
  +36.440798325108226 a1_z1
  +20.355895911925103 a1_z2
  +9.8523773325997031 a2_x1
  +8.6665660995193221 a2_x2
  +1.318348960475541 a2_x3
  +8.2691943978607085 a2_x4
  +6.0635318483155114 a2_x5
  +3.2631581910354219 a2_x6
  +31.015799445658949 a2_z1
  +42.142738976131909 a2_z2
  +3.407000856972263 a3_x1
  +9.4188250932667614 a3_x2
  +9.7490010795163791 a3_x3
  +7.0450820339939781 a3_x4
  +9.9763761898407548 a3_x5
  +5.8473553548384958 a3_x6
  +49.073547744148975 a3_z1
  +13.999141819476126 a3_z2
  +1.9143138950663818 a4_x1
  +6.1042201720531999 a4_x2
  +2.2574896326389386 a4_x3
  +5.6594666769891386 a4_x4
  +4.3520497618016583 a4_x5
  +6.7823412192640848 a4_x6
  +29.956754589694771 a4_z1
  +32.972144993024642 a4_z2
  +1000000 short_1
  +1000000 surp_1
  +1000000 short_2
  +1000000 surp_2
  +1000000 short_3
  +1000000 surp_3

s.t.

a1_local_1: 
+7.155418495221763e-05 a1_x4
+5.8545572312847805e-05 a1_x2
+3.8550431792206823e-05 a1_x6
<= 0.007398957330761206

a1_local_2: 
+0.0049729052074674708 a1_x3
+0.0022240921365142721 a1_x4
+0.0044816302380063103 a1_x5
<= 0.49059498753025671

a1_local_3: 
+0.1930407415022711 a1_x1
+0.33938788128421282 a1_x3
+0.25383876514122045 a1_x6
<= 40.941415330937232

a1_local_4: 
+5.3322923264518971e-05 a1_x2
+4.6327768546474669e-05 a1_x1
+9.172382413960777e-05 a1_x5
<= 0.0091548960305674939

a1_local_5: 
+0.39348222751484507 a1_x2
+0.640665961047303 a1_x3
+0.65689142701698289 a1_x5
<= 72.017480238351226

a1_local_6: 
+5.0550738568250356e-05 a1_x6
+3.5558988306387399e-05 a1_x1
+4.490221437221983e-05 a1_x3
<= 0.0068350866396598813

a1_local_7: 
+0.45816015602561272 a1_x4
+0.37092012443569417 a1_x2
+0.34173675473953996 a1_x5
<= 61.652794368268388

a1_local_8: 
+2.6590742654940435e-05 a1_x6
+2.5955746313912333e-05 a1_x2
+2.1212484799141742e-05 a1_x4
<= 0.0046138038852089388

a1_act_1: 
+0.004430372568374444 a1_x1
-0.44303725683744438 a1_z1
<= 0

a1_act_2: 
+0.26968627298348519 a1_x2
-26.968627298348519 a1_z2
<= 0

a2_local_1: 
+106.4144472534165 a2_x2
+146.24877729437921 a2_x6
+153.27578985107914 a2_x5
<= 13459.639259639822

a2_local_2: 
+0.74102737782510697 a2_x1
+0.86944847985895712 a2_x4
+1.0952349084568882 a2_x5
<= 187.88447049738218

a2_local_3: 
+10.92789816668127 a2_x2
+7.5888576395815219 a2_x5
+4.703125780425677 a2_x1
<= 1465.6523053328367

a2_local_4: 
+1.2161017279571626 a2_x6
+2.3340087795086557 a2_x4
+1.2936673981834721 a2_x5
<= 180.63346878965567

a2_local_5: 
+0.00061396704487985091 a2_x5
+0.0011376519904432144 a2_x3
+0.00079884670617710895 a2_x6
<= 0.13181042468670245

a2_local_6: 
+12.055947351190273 a2_x6
+8.429513612813853 a2_x4
+11.012200800934206 a2_x1
<= 1657.7949990279603

a2_local_7: 
+20.711165133282819 a2_x3
+18.915782596680945 a2_x6
+23.552718394968121 a2_x1
<= 2953.10094150858

a2_local_8: 
+0.73230032493250408 a2_x5
+0.73391553561691336 a2_x3
+0.79210467918101501 a2_x6
<= 157.08072608415668

a2_act_1: 
+0.6030716546612398 a2_x1
-60.307165466123976 a2_z1
<= 0

a2_act_2: 
+0.0028925318809731046 a2_x2
-0.28925318809731049 a2_z2
<= 0

a3_local_1: 
+50.960828135305071 a3_x5
+34.453048116876296 a3_x2
+41.237594031071254 a3_x3
<= 4904.3788420259116

a3_local_2: 
+16.677617611676421 a3_x2
+10.961042712617219 a3_x3
+14.973627551390914 a3_x4
<= 2160.2076643730238

a3_local_3: 
+0.48779483946538571 a3_x6
+0.99149151782394573 a3_x4
+0.85111049240498637 a3_x1
<= 159.90413097106875

a3_local_4: 
+0.033355938024094652 a3_x4
+0.037536302315886214 a3_x2
+0.015109604182028023 a3_x1
<= 4.2340655885914522

a3_local_5: 
+4.8380185362331289 a3_x3
+9.4624729377179264 a3_x5
+11.042889365675281 a3_x2
<= 1253.5822092611629

a3_local_6: 
+0.51119856333051328 a3_x1
+0.46311828035770103 a3_x6
+0.41651267258513985 a3_x2
<= 63.118201805458384

a3_local_7: 
+432.92539789410324 a3_x1
+577.57278347143745 a3_x4
+325.79793260922867 a3_x6
<= 45610.81726024516

a3_local_8: 
+33.419090274091566 a3_x4
+15.925940330972294 a3_x3
+25.628780957552483 a3_x5
<= 4765.7131686567063

a3_act_1: 
+0.022622437003430376 a3_x1
-2.2622437003430376 a3_z1
<= 0

a3_act_2: 
+1.8826454441105733 a3_x2
-188.26454441105733 a3_z2
<= 0

a4_local_1: 
+532.85052511404797 a4_x3
+406.16999930571103 a4_x5
+465.12878381388504 a4_x2
<= 89716.629028426323

a4_local_2: 
+43.699053938718308 a4_x3
+20.51279060546813 a4_x2
+30.566905281832558 a4_x6
<= 3256.3658745183188

a4_local_3: 
+0.47794076805095798 a4_x5
+0.74082778083118472 a4_x6
+0.88152842175115009 a4_x3
<= 123.00563755632844

a4_local_4: 
+255.55010816343946 a4_x3
+241.38960052231297 a4_x6
+276.56678777089559 a4_x1
<= 52577.498148214261

a4_local_5: 
+1.0858978135054187 a4_x3
+1.1188760107449767 a4_x6
+0.41217043973444389 a4_x5
<= 135.23845503910013

a4_local_6: 
+116.60192255430917 a4_x3
+121.24021160480923 a4_x4
+164.09470441806428 a4_x6
<= 23561.019562287172

a4_local_7: 
+2.386464195235634 a4_x6
+2.1348747729982538 a4_x3
+3.1526668208570729 a4_x1
<= 519.22760847609686

a4_local_8: 
+0.45107858237145948 a4_x1
+1.0252928758550193 a4_x6
+0.78219585206833919 a4_x3
<= 119.60236354412405

a4_act_1: 
+0.019960517821429307 a4_x1
-1.9960517821429307 a4_z1
<= 0

a4_act_2: 
+0.048172364565800582 a4_x2
-4.8172364565800585 a4_z2
<= 0

coupling_1: 
+7.3292338207187493 a1_x1
+104.78473761896076 a2_x1
+2173.2029869795688 a3_x1
+97660.475159990136 a4_x1
+817.08059306382097 short_1
-817.08059306382097 surp_1
= 5043546.6500959713

coupling_2: 
+0.0065055828534624112 a1_x2
+0.066523830684383778 a2_x2
+1.4830211549824983 a3_x2
+74.642547167129607 a4_x2
+0.53827215397569872 short_2
-0.53827215397569872 surp_2
= 1813.3217832677749

coupling_3: 
+0.096209078938342046 a1_x3
+3.471425151642598 a2_x3
+36.722092749743496 a3_x3
+1547.5267574261816 a4_x3
+12.504856503618129 short_3
-12.504856503618129 surp_3
= 95476.303781817594

bounds
  0 <= a1_x1 <= 100
  0 <= a1_x2 <= 100
  0 <= a1_x3 <= 100
  0 <= a1_x4 <= 100
  0 <= a1_x5 <= 100
  0 <= a1_x6 <= 100
  0 <= a2_x1 <= 100
  0 <= a2_x2 <= 100
  0 <= a2_x3 <= 100
  0 <= a2_x4 <= 100
  0 <= a2_x5 <= 100
  0 <= a2_x6 <= 100
  0 <= a3_x1 <= 100
  0 <= a3_x2 <= 100
  0 <= a3_x3 <= 100
  0 <= a3_x4 <= 100
  0 <= a3_x5 <= 100
  0 <= a3_x6 <= 100
  0 <= a4_x1 <= 100
  0 <= a4_x2 <= 100
  0 <= a4_x3 <= 100
  0 <= a4_x4 <= 100
  0 <= a4_x5 <= 100
  0 <= a4_x6 <= 100
  0 <= short_1 <= +inf
  0 <= surp_1 <= +inf
  0 <= short_2 <= +inf
  0 <= surp_2 <= +inf
  0 <= short_3 <= +inf
  0 <= surp_3 <= +inf
 0 <= a1_z1 <= 1
 0 <= a1_z2 <= 1
 0 <= a2_z1 <= 1
 0 <= a2_z2 <= 1
 0 <= a3_z1 <= 1
 0 <= a3_z2 <= 1
 0 <= a4_z1 <= 1
 0 <= a4_z2 <= 1

binary
  a1_z1
  a1_z2
  a2_z1
  a2_z2
  a3_z1
  a3_z2
  a4_z1
  a4_z2
end
