min
obj: 
  +3.043052453503527 a1_x1
  +8.5242104678500681 a1_x2
  +7.6930756521091874 a1_x3
  +6.9189962156082423 a1_x4
  +9.2097073421305335 a1_x5
  +1.6783613276554563 a1_x6
  +29.957301038510835 a1_z1
  +31.080729858907144 a1_z2
  +3.9982275243752419 a2_x1
  +4.0716566341487717 a2_x2
  +8.3479540678562252 a2_x3
  +4.8717105490747867 a2_x4
  +6.0061452108085005 a2_x5
  +2.7882654202354971 a2_x6
  +21.648290212377919 a2_z1
  +42.54057128991149 a2_z2
  +2.9928805955584821 a3_x1
  +5.5354110864277946 a3_x2
  +5.213896919227734 a3_x3
  +2.0650047465660801 a3_x4
  +6.4105355661416237 a3_x5
  +2.6598622040549174 a3_x6
  +31.217971703687525 a3_z1
  +44.913093336265895 a3_z2
  +1.3478391985630118 a4_x1
  +6.3176473690479504 a4_x2
  +9.9894359630934186 a4_x3
  +5.7054129264347031 a4_x4
  +4.4415295718065089 a4_x5
  +5.0613340194576661 a4_x6
  +15.238383211322466 a4_z1
  +39.666499040349478 a4_z2
  +1000000 short_1
  +1000000 surp_1
  +1000000 short_2
  +1000000 surp_2
  +1000000 short_3
  +1000000 surp_3

s.t.

a1_local_1: 
+0.61083524062177041 a1_x4
+0.75992141376050726 a1_x3
+1.637102664512444 a1_x1
<= 186.84874811651446

a1_local_2: 
+1.2816727312149629 a1_x5
+0.78023037835255249 a1_x2
+0.96459965814708049 a1_x1
<= 118.14080501464849

a1_local_3: 
+1.6338495189288835 a1_x1
+2.3132469117315857 a1_x5
+2.32578909615098 a1_x4
<= 360.44074228536846

a1_local_4: 
+1.154063429017208 a1_x4
+0.8665034995967188 a1_x1
+0.92912216983077678 a1_x2
<= 124.03080180922765

a1_local_5: 
+0.76839671045887625 a1_x4
+1.570583058250526 a1_x6
+0.6367062185898662 a1_x3
<= 203.99958733883085

a1_local_6: 
+0.77981160522968496 a1_x5
+1.3320970965516732 a1_x1
+0.75069602853173778 a1_x6
<= 154.87677919563515

a1_local_7: 
+1.1665526777181092 a1_x1
+1.2224709658400099 a1_x2
+0.81801533774085111 a1_x4
<= 182.71194594159221

a1_local_8: 
+1.5175426503233505 a1_x3
+1.6116386587670137 a1_x6
+0.62048648098640879 a1_x5
<= 192.24584051903966

a1_act_1: 
+0.15953917916736107 a1_x1
-15.953917916736108 a1_z1
<= 0

a1_act_2: 
+0.14005234318508408 a1_x2
-14.005234318508409 a1_z2
<= 0

a2_local_1: 
+0.8312141405004656 a2_x5
+1.0130779955759124 a2_x3
+1.2030594178750498 a2_x6
<= 200.08494408220864

a2_local_2: 
+0.80080234873124045 a2_x4
+1.2487475861982178 a2_x3
+0.85059161206027145 a2_x6
<= 141.84245488227077

a2_local_3: 
+1.1275326115402597 a2_x3
+0.84431617156280259 a2_x1
+1.1843904377065662 a2_x2
<= 209.1570788209392

a2_local_4: 
+1.1738365543853595 a2_x4
+0.9097836475242862 a2_x5
+0.85190735989953614 a2_x1
<= 91.922379094820172

a2_local_5: 
+1.2218594129167175 a2_x1
+1.3712936057216347 a2_x6
+0.72923843284003087 a2_x2
<= 200.80296991925579

a2_local_6: 
+1.0657790371032199 a2_x1
+0.84355059122910936 a2_x5
+1.185465353705619 a2_x3
<= 169.19342062257232

a2_local_7: 
+0.74943303332591915 a2_x3
+1.4059169830871245 a2_x6
+0.71127955066321991 a2_x1
<= 132.19884138635334

a2_local_8: 
+0.7269562344577124 a2_x4
+1.2748383830115053 a2_x1
+1.3755986297386524 a2_x6
<= 121.40413491819469

a2_act_1: 
+0.090548181190998181 a2_x1
-9.0548181190998189 a2_z1
<= 0

a2_act_2: 
+0.10000000000000001 a2_x2
-10 a2_z2
<= 0

a3_local_1: 
+1.6069357663193367 a3_x4
+0.62230240994043329 a3_x2
+1.1489362166330002 a3_x5
<= 180.71658361201327

a3_local_2: 
+1.0413565192452914 a3_x1
+0.960285916992901 a3_x6
+1.0014092714346958 a3_x3
<= 96.326670460255599

a3_local_3: 
+1.1439014425380363 a3_x2
+0.97424530062977988 a3_x6
+0.8742011879810605 a3_x5
<= 209.12867977639809

a3_local_4: 
+0.83646468463381485 a3_x1
+1.1955077343615257 a3_x5
+1.1212881366714091 a3_x4
<= 100.43263112113523

a3_local_5: 
+1.3318714440171866 a3_x4
+0.75082321532760155 a3_x2
+1.1525023835381898 a3_x6
<= 131.07917882021133

a3_local_6: 
+0.91886614957596924 a3_x5
+0.7945062754270612 a3_x2
+1.2586432995289838 a3_x1
<= 148.23468286587337

a3_local_7: 
+1.4269328797408112 a3_x2
+1.3457235300016739 a3_x4
+0.70080381088537291 a3_x5
<= 222.96661119032044

a3_local_8: 
+0.84399194227668461 a3_x3
+0.91662895211566975 a3_x5
+1.4353921347187184 a3_x6
<= 158.11233418985273

a3_act_1: 
+0.099999999999999992 a3_x1
-9.9999999999999982 a3_z1
<= 0

a3_act_2: 
+0.10000000000000002 a3_x2
-10 a3_z2
<= 0

a4_local_1: 
+0.79773882252891359 a4_x6
+1.2535431042830505 a4_x2
+0.97361602930101732 a4_x1
<= 93.364521298471416

a4_local_2: 
+0.97552193232156192 a4_x1
+1.1677949602310085 a4_x6
+0.85631470767966333 a4_x5
<= 99.126498019476827

a4_local_3: 
+1.1088163646805387 a4_x6
+0.89504944078909066 a4_x3
+1.1172567172584156 a4_x2
<= 134.03701841242648

a4_local_4: 
+0.83066174780787505 a4_x4
+1.2038594561974361 a4_x6
+1.1137007347118577 a4_x2
<= 122.18659249368861

a4_local_5: 
+1.5178039652775257 a4_x5
+0.65884661186608051 a4_x6
+0.95218348458280588 a4_x1
<= 114.3895966098177

a4_local_6: 
+1.2160102572228435 a4_x5
+1.0453147602173305 a4_x1
+0.82236148425575506 a4_x2
<= 200.88225268007599

a4_local_7: 
+1.3640820842263421 a4_x4
+1.1361642867030537 a4_x2
+0.73309371302766113 a4_x5
<= 154.88574268506829

a4_local_8: 
+1.4019604847134937 a4_x3
+0.71328686571673316 a4_x1
+1.1807311926564821 a4_x2
<= 210.71218896068643

a4_act_1: 
+0.10000000000000001 a4_x1
-10 a4_z1
<= 0

a4_act_2: 
+0.10000000000000001 a4_x2
-10 a4_z2
<= 0

coupling_1: 
+0.011505013692502517 a1_x1
+0.34197157654656102 a2_x1
+4.5044506339601833 a3_x1
+86.918627541631778 a4_x1
+1.173145961477386 short_1
-1.173145961477386 surp_1
= 5246.0783775007731

coupling_2: 
+0.0089377382212074679 a1_x2
+0.23583369626454403 a2_x2
+2.416227661135919 a3_x2
+111.88512968831417 a4_x2
+0.83509991663726701 short_2
-0.83509991663726701 surp_2
= 8186.8196626946901

coupling_3: 
+0.010184838346994348 a1_x3
+0.12366491513671657 a2_x3
+5.0289126928246741 a3_x3
+98.185161701178146 a4_x3
+0.83837297402899047 short_3
-0.83837297402899047 surp_3
= 2540.1443562244262

bounds
  0 <= a1_x1 <= 100
  0 <= a1_x2 <= 100
  0 <= a1_x3 <= 100
  0 <= a1_x4 <= 100
  0 <= a1_x5 <= 100
  0 <= a1_x6 <= 100
  0 <= a2_x1 <= 100
  0 <= a2_x2 <= 100
  0 <= a2_x3 <= 100
  0 <= a2_x4 <= 100
  0 <= a2_x5 <= 100
  0 <= a2_x6 <= 100
  0 <= a3_x1 <= 100
  0 <= a3_x2 <= 100
  0 <= a3_x3 <= 100
  0 <= a3_x4 <= 100
  0 <= a3_x5 <= 100
  0 <= a3_x6 <= 100
  0 <= a4_x1 <= 100
  0 <= a4_x2 <= 100
  0 <= a4_x3 <= 100
  0 <= a4_x4 <= 100
  0 <= a4_x5 <= 100
  0 <= a4_x6 <= 100
  0 <= short_1 <= +inf
  0 <= surp_1 <= +inf
  0 <= short_2 <= +inf
  0 <= surp_2 <= +inf
  0 <= short_3 <= +inf
  0 <= surp_3 <= +inf
 0 <= a1_z1 <= 1
 0 <= a1_z2 <= 1
 0 <= a2_z1 <= 1
 0 <= a2_z2 <= 1
 0 <= a3_z1 <= 1
 0 <= a3_z2 <= 1
 0 <= a4_z1 <= 1
 0 <= a4_z2 <= 1

binary
  a1_z1
  a1_z2
  a2_z1
  a2_z2
  a3_z1
  a3_z2
  a4_z1
  a4_z2
end
