min
obj: 
  +3.0571104005516858 a1_x1
  +8.0556013187453051 a1_x2
  +1.9742345173811016 a1_x3
  +4.4385591714508195 a1_x4
  +2.091774352732247 a1_x5
  +8.3606733491801819 a1_x6
  +15.666425601953888 a1_z1
  +12.324732571684713 a1_z2
  +3.9044727049854391 a2_x1
  +3.1906424171049248 a2_x2
  +7.2566205037606055 a2_x3
  +4.240342031508578 a2_x4
  +1.7216538193625648 a2_x5
  +9.8652119955060549 a2_x6
  +47.432933857706239 a2_z1
  +10.018499727455843 a2_z2
  +7.6634289009813905 a3_x1
  +6.6031951543936822 a3_x2
  +5.6627725428325562 a3_x3
  +4.150259343395577 a3_x4
  +2.0433644620272413 a3_x5
  +3.9564814242041457 a3_x6
  +26.646913444644401 a3_z1
  +25.192698563482555 a3_z2
  +2.4319173360803403 a4_x1
  +1.259802781834898 a4_x2
  +6.7186619976265831 a4_x3
  +9.2328283032404528 a4_x4
  +5.8537835915052003 a4_x5
  +9.834988999700645 a4_x6
  +10.083472599865093 a4_z1
  +40.29173016694412 a4_z2
  +1000000 short_1
  +1000000 surp_1
  +1000000 short_2
  +1000000 surp_2
  +1000000 short_3
  +1000000 surp_3

s.t.

a1_local_1: 
+0.0042275913865406139 a1_x5
+0.0069584490332132648 a1_x1
+0.0029291419282680346 a1_x6
<= 0.55220746349941596

a1_local_2: 
+0.0063266566323345154 a1_x6
+0.012620616524536193 a1_x4
+0.011005898610331197 a1_x2
<= 1.2819448180964128

a1_local_3: 
+1.5766412767227524 a1_x4
+0.70114536123867288 a1_x5
+1.2216514535871754 a1_x1
<= 231.32262293862476

a1_local_4: 
+3.7979983081268984 a1_x3
+1.3503761431485366 a1_x1
+1.6731445688047495 a1_x4
<= 300.76390335122124

a1_local_5: 
+0.20985032740236759 a1_x4
+0.2482344233462509 a1_x5
+0.28043574796886944 a1_x1
<= 22.811318512015024

a1_local_6: 
+0.018196700814851363 a1_x2
+0.023672097256138225 a1_x5
+0.030425131815035845 a1_x6
<= 2.7420271615966842

a1_local_7: 
+3.163750363393601e-05 a1_x1
+3.5370975518008002e-05 a1_x3
+2.8524821630558701e-05 a1_x5
<= 0.0056012866777356779

a1_local_8: 
+0.23766822025133669 a1_x3
+0.20865167544575527 a1_x4
+0.15311984970876819 a1_x1
<= 21.279581222677475

a1_act_1: 
+0.0072714913446831472 a1_x1
-0.72714913446831475 a1_z1
<= 0

a1_act_2: 
+3.3591845631726094 a1_x2
-335.91845631726096 a1_z2
<= 0

a2_local_1: 
+8.3244435713292066 a2_x2
+4.7734257367063808 a2_x6
+12.247085658878138 a2_x4
<= 1724.643795013202

a2_local_2: 
+0.0079232944802152747 a2_x2
+0.0085919970149587431 a2_x5
+0.0089306646402649865 a2_x3
<= 1.5439354419875229

a2_local_3: 
+0.14571094794462125 a2_x3
+0.11548131620223213 a2_x5
+0.12122253935556312 a2_x2
<= 17.514449714679827

a2_local_4: 
+0.0037730748401418233 a2_x1
+0.0080617504135716903 a2_x5
+0.0054636372876684259 a2_x6
<= 1.1102795281199902

a2_local_5: 
+3.8532053455199886 a2_x2
+4.6627626972202263 a2_x6
+2.6268758252261697 a2_x1
<= 667.16678853034205

a2_local_6: 
+0.00082143942932822562 a2_x1
+0.001052656057493239 a2_x5
+0.00061449499128156707 a2_x4
<= 0.1630237657336438

a2_local_7: 
+0.67969372047248089 a2_x6
+0.46054545972900518 a2_x3
+0.76064852471245892 a2_x4
<= 60.372055057445088

a2_local_8: 
+0.055357850619872931 a2_x3
+0.062216181068019537 a2_x1
+0.03716784205362237 a2_x4
<= 8.2530371861957619

a2_act_1: 
+16.625451779619439 a2_x1
-1662.5451779619439 a2_z1
<= 0

a2_act_2: 
+0.23479626078916677 a2_x2
-23.479626078916677 a2_z2
<= 0

a3_local_1: 
+10.055045203325895 a3_x5
+9.2684650335095196 a3_x6
+5.3189763501362348 a3_x2
<= 1140.4416600368215

a3_local_2: 
+293.35494022097987 a3_x3
+221.58206754659545 a3_x1
+381.5194372352658 a3_x5
<= 57846.819900380098

a3_local_3: 
+3.4255837839397336 a3_x6
+6.4085767046433739 a3_x2
+7.2410845109532129 a3_x3
<= 833.78330852123747

a3_local_4: 
+123.5200448768679 a3_x5
+168.83758832637966 a3_x6
+152.68560590356182 a3_x3
<= 18442.402852332172

a3_local_5: 
+0.023594876956746086 a3_x5
+0.016736201640377906 a3_x6
+0.013574359247888466 a3_x4
<= 2.0387791172595624

a3_local_6: 
+0.1748038124621 a3_x3
+0.14221964182404398 a3_x6
+0.18733114600663284 a3_x2
<= 16.212741706667753

a3_local_7: 
+1250.3941022230902 a3_x4
+1245.8753786070208 a3_x6
+1325.0523943133583 a3_x3
<= 133056.78445347503

a3_local_8: 
+7.6111121617637556 a3_x6
+4.6028824232226695 a3_x3
+3.582683903344257 a3_x5
<= 826.05196085389127

a3_act_1: 
+0.003623292301634468 a3_x1
-0.36232923016344681 a3_z1
<= 0

a3_act_2: 
+3.0042679612103265 a3_x2
-300.42679612103262 a3_z2
<= 0

a4_local_1: 
+2577.5511358237745 a4_x4
+5131.820039299887 a4_x1
+2016.6760576341048 a4_x6
<= 625288.78802102676

a4_local_2: 
+1092.6711149068026 a4_x2
+1203.5322802228472 a4_x6
+514.97122583344446 a4_x1
<= 149416.92544270642

a4_local_3: 
+25712.383182937632 a4_x4
+37362.949473153232 a4_x3
+28038.08045163882 a4_x5
<= 3749367.7814677726

a4_local_4: 
+79.852214916785343 a4_x1
+152.04951788776231 a4_x6
+92.229710872604656 a4_x4
<= 22352.757312988291

a4_local_5: 
+28576.91956949067 a4_x3
+27998.227778635879 a4_x6
+30218.506523981705 a4_x4
<= 5373307.5286635794

a4_local_6: 
+6.870200608538422 a4_x3
+4.094092266190577 a4_x1
+5.1919474030799497 a4_x5
<= 694.13749128838469

a4_local_7: 
+936.52710638978692 a4_x5
+1582.406705558835 a4_x4
+903.0189220937516 a4_x3
<= 196956.78640093413

a4_local_8: 
+0.36363433392006461 a4_x1
+0.47440699838168976 a4_x4
+0.37313607211695254 a4_x6
<= 47.957558514897421

a4_act_1: 
+1.153672581131844 a4_x1
-115.36725811318441 a4_z1
<= 0

a4_act_2: 
+0.027320992065952263 a4_x2
-2.7320992065952265 a4_z2
<= 0

coupling_1: 
+0.00023492407852229193 a1_x1
+0.0028066801846318907 a2_x1
+0.076001496921397807 a3_x1
+1.6831197112124483 a4_x1
+0.017812945326087647 short_1
-0.017812945326087647 surp_1
= 55.693804014472612

coupling_2: 
+0.0012216111760924523 a1_x2
+0.022134026626481788 a2_x2
+0.40903994709409242 a3_x2
+10.066690459173907 a4_x2
+0.091582529063381671 short_2
-0.091582529063381671 surp_2
= 460.65542209228022

coupling_3: 
+6.1998835469573928e-06 a1_x3
+0.00020405061565772757 a2_x3
+0.0046002973882682072 a3_x3
+0.16673043135869584 a4_x3
+0.0011260443590442998 short_3
-0.0011260443590442998 surp_3
= 11.792631437590243

bounds
  0 <= a1_x1 <= 100
  0 <= a1_x2 <= 100
  0 <= a1_x3 <= 100
  0 <= a1_x4 <= 100
  0 <= a1_x5 <= 100
  0 <= a1_x6 <= 100
  0 <= a2_x1 <= 100
  0 <= a2_x2 <= 100
  0 <= a2_x3 <= 100
  0 <= a2_x4 <= 100
  0 <= a2_x5 <= 100
  0 <= a2_x6 <= 100
  0 <= a3_x1 <= 100
  0 <= a3_x2 <= 100
  0 <= a3_x3 <= 100
  0 <= a3_x4 <= 100
  0 <= a3_x5 <= 100
  0 <= a3_x6 <= 100
  0 <= a4_x1 <= 100
  0 <= a4_x2 <= 100
  0 <= a4_x3 <= 100
  0 <= a4_x4 <= 100
  0 <= a4_x5 <= 100
  0 <= a4_x6 <= 100
  0 <= short_1 <= +inf
  0 <= surp_1 <= +inf
  0 <= short_2 <= +inf
  0 <= surp_2 <= +inf
  0 <= short_3 <= +inf
  0 <= surp_3 <= +inf
 0 <= a1_z1 <= 1
 0 <= a1_z2 <= 1
 0 <= a2_z1 <= 1
 0 <= a2_z2 <= 1
 0 <= a3_z1 <= 1
 0 <= a3_z2 <= 1
 0 <= a4_z1 <= 1
 0 <= a4_z2 <= 1

binary
  a1_z1
  a1_z2
  a2_z1
  a2_z2
  a3_z1
  a3_z2
  a4_z1
  a4_z2
end
