min
obj: 
  +3.043052453503527 a1_x1
  +8.5242104678500681 a1_x2
  +7.6930756521091874 a1_x3
  +6.9189962156082423 a1_x4
  +9.2097073421305335 a1_x5
  +1.6783613276554563 a1_x6
  +29.957301038510835 a1_z1
  +31.080729858907144 a1_z2
  +3.9982275243752419 a2_x1
  +4.0716566341487717 a2_x2
  +8.3479540678562252 a2_x3
  +4.8717105490747867 a2_x4
  +6.0061452108085005 a2_x5
  +2.7882654202354971 a2_x6
  +21.648290212377919 a2_z1
  +42.54057128991149 a2_z2
  +2.9928805955584821 a3_x1
  +5.5354110864277946 a3_x2
  +5.213896919227734 a3_x3
  +2.0650047465660801 a3_x4
  +6.4105355661416237 a3_x5
  +2.6598622040549174 a3_x6
  +31.217971703687525 a3_z1
  +44.913093336265895 a3_z2
  +1.3478391985630118 a4_x1
  +6.3176473690479504 a4_x2
  +9.9894359630934186 a4_x3
  +5.7054129264347031 a4_x4
  +4.4415295718065089 a4_x5
  +5.0613340194576661 a4_x6
  +15.238383211322466 a4_z1
  +39.666499040349478 a4_z2
  +1000000 short_1
  +1000000 surp_1
  +1000000 short_2
  +1000000 surp_2
  +1000000 short_3
  +1000000 surp_3

s.t.

a1_local_1: 
+3.1313928544072798e-05 a1_x4
+3.8956699396362884e-05 a1_x3
+8.3924620661492949e-05 a1_x1
<= 0.009578635870966249

a1_local_2: 
+1.2192505791251466e-05 a1_x5
+7.422303037965078e-06 a1_x2
+9.1762012499467932e-06 a1_x1
<= 0.0011238691549275239

a1_local_3: 
+1.6338495189288835 a1_x1
+2.3132469117315857 a1_x5
+2.32578909615098 a1_x4
<= 360.44074228536846

a1_local_4: 
+0.41224393941978749 a1_x4
+0.30952442232658023 a1_x1
+0.33189248862992005 a1_x2
<= 44.305143947567643

a1_local_5: 
+6.7965905899050796 a1_x4
+13.892055873059546 a1_x6
+5.6317673343729524 a1_x3
<= 1804.408656075085

a1_local_6: 
+2.1330075114113806e-05 a1_x5
+3.6436661032213222e-05 a1_x1
+2.0533680916088201e-05 a1_x6
<= 0.0042363223521172102

a1_local_7: 
+0.03602556909363594 a1_x1
+0.037752441947996804 a1_x2
+0.025262012279704441 a1_x4
<= 5.6425243012832729

a1_local_8: 
+0.0041239891066530178 a1_x3
+0.0043796991611404577 a1_x6
+0.0016861993881148456 a1_x5
<= 0.52243655354987406

a1_act_1: 
+0.15953917916736107 a1_x1
-15.953917916736108 a1_z1
<= 0

a1_act_2: 
+0.14005234318508408 a1_x2
-14.005234318508409 a1_z2
<= 0

a2_local_1: 
+7.6938159945355507 a2_x5
+9.3771692591526659 a2_x3
+11.135659682173685 a2_x6
<= 1852.009810755362

a2_local_2: 
+52.041668183713796 a2_x4
+81.152243907755604 a2_x3
+55.277318435472225 a2_x6
<= 9217.9024987149842

a2_local_3: 
+0.00081837609681194973 a2_x3
+0.00061281435755093736 a2_x1
+0.00085964415892824688 a2_x2
<= 0.15180860583025166

a2_local_4: 
+23.784334121802544 a2_x4
+18.434081108166026 a2_x5
+17.261388915667911 a2_x1
<= 1862.5357759513547

a2_local_5: 
+40.802270127182886 a2_x1
+45.792414031307608 a2_x6
+24.351887958071117 a2_x2
<= 6705.5316956865872

a2_local_6: 
+0.12953251345945455 a2_x1
+0.10252334161976297 a2_x5
+0.14407893337999508 a2_x3
<= 20.563407865116371

a2_local_7: 
+31.520462678778067 a2_x3
+59.13157256785324 a2_x6
+29.915762361529019 a2_x1
<= 5560.1614297725891

a2_local_8: 
+0.09934146853498721 a2_x4
+0.174211749085011 a2_x1
+0.18798103863142965 a2_x6
<= 16.590359195405931

a2_act_1: 
+0.090548181190998181 a2_x1
-9.0548181190998189 a2_z1
<= 0

a2_act_2: 
+56.381147970457484 a2_x2
-5638.1147970457487 a2_z2
<= 0

a3_local_1: 
+0.012519261448539393 a3_x4
+0.0048482128118568562 a3_x2
+0.0089510938677220351 a3_x5
<= 1.4079207182672309

a3_local_2: 
+64.196659882505344 a3_x1
+59.198888434319244 a3_x6
+61.734025968428035 a3_x3
<= 5938.2645490449922

a3_local_3: 
+14.560214007485326 a3_x2
+12.400736239551334 a3_x6
+11.127319110954708 a3_x5
<= 2661.9061917530325

a3_local_4: 
+329.21602711682851 a3_x1
+470.52830074498928 a3_x5
+441.31692872341227 a3_x4
<= 39528.305758735973

a3_local_5: 
+1007.5839083204066 a3_x4
+568.01081902895487 a3_x2
+871.88809488358447 a3_x6
<= 99163.678212620114

a3_local_6: 
+80.106751184013646 a3_x5
+69.26505731998455 a3_x2
+109.72852321453189 a3_x1
<= 12923.099694833116

a3_local_7: 
+0.016328136038466251 a3_x2
+0.015398872070299175 a3_x4
+0.0080191718355319026 a3_x5
<= 2.5513667890340077

a3_local_8: 
+0.84399194227668461 a3_x3
+0.91662895211566975 a3_x5
+1.4353921347187184 a3_x6
<= 158.11233418985273

a3_act_1: 
+0.017873706055158502 a3_x1
-1.7873706055158503 a3_z1
<= 0

a3_act_2: 
+25.217603223975495 a3_x2
-2521.7603223975493 a3_z2
<= 0

a4_local_1: 
+2002.5648788640638 a4_x6
+3146.7710030979279 a4_x2
+2444.0696763339929 a4_x1
<= 234373.08803847031

a4_local_2: 
+17608.749704880873 a4_x1
+21079.39194395356 a4_x6
+15456.988568422103 a4_x5
<= 1789292.1060138389

a4_local_3: 
+156.63714057005589 a4_x6
+126.4393181231801 a4_x3
+157.82946847512125 a4_x2
<= 18934.763197427503

a4_local_4: 
+0.19138993071600788 a4_x4
+0.27737713759118382 a4_x6
+0.25660397510464095 a4_x2
<= 28.152594643374581

a4_local_5: 
+0.57687461060536016 a4_x5
+0.25040907216197128 a4_x6
+0.36189816963162635 a4_x1
<= 43.476269341230129

a4_local_6: 
+2.8271054100762263 a4_x5
+2.4302550050787786 a4_x1
+1.9119103538546087 a4_x2
<= 467.03167178635681

a4_local_7: 
+419.33322479556546 a4_x4
+349.26888913064164 a4_x2
+225.36074208143864 a4_x5
<= 47613.511463881157

a4_local_8: 
+0.33559031385143068 a4_x3
+0.17074101998024585 a4_x1
+0.28263417966358684 a4_x2
<= 50.438632469794406

a4_act_1: 
+1.2795591266645479 a4_x1
-127.95591266645478 a4_z1
<= 0

a4_act_2: 
+0.51068065813316343 a4_x2
-51.068065813316345 a4_z2
<= 0

coupling_1: 
+3.3821601537150854 a1_x1
+100.53031407104116 a2_x1
+1324.1855990562485 a3_x1
+25551.705242948392 a4_x1
+344.87290771207569 short_1
-344.87290771207569 surp_1
= 1542203.9230785139

coupling_2: 
+0.045798977957756115 a1_x2
+1.2084648251710399 a2_x2
+12.381293192354716 a3_x2
+573.32453262471074 a4_x2
+4.2792395265999543 short_2
-4.2792395265999543 surp_2
= 41951.102616342221

coupling_3: 
+0.054419839207751557 a1_x3
+0.66076893595138886 a2_x3
+26.870590460977056 a3_x3
+524.62498964866154 a4_x3
+4.4796118395189151 short_3
-4.4796118395189151 surp_3
= 13572.551936575925

bounds
  0 <= a1_x1 <= 100
  0 <= a1_x2 <= 100
  0 <= a1_x3 <= 100
  0 <= a1_x4 <= 100
  0 <= a1_x5 <= 100
  0 <= a1_x6 <= 100
  0 <= a2_x1 <= 100
  0 <= a2_x2 <= 100
  0 <= a2_x3 <= 100
  0 <= a2_x4 <= 100
  0 <= a2_x5 <= 100
  0 <= a2_x6 <= 100
  0 <= a3_x1 <= 100
  0 <= a3_x2 <= 100
  0 <= a3_x3 <= 100
  0 <= a3_x4 <= 100
  0 <= a3_x5 <= 100
  0 <= a3_x6 <= 100
  0 <= a4_x1 <= 100
  0 <= a4_x2 <= 100
  0 <= a4_x3 <= 100
  0 <= a4_x4 <= 100
  0 <= a4_x5 <= 100
  0 <= a4_x6 <= 100
  0 <= short_1 <= +inf
  0 <= surp_1 <= +inf
  0 <= short_2 <= +inf
  0 <= surp_2 <= +inf
  0 <= short_3 <= +inf
  0 <= surp_3 <= +inf
 0 <= a1_z1 <= 1
 0 <= a1_z2 <= 1
 0 <= a2_z1 <= 1
 0 <= a2_z2 <= 1
 0 <= a3_z1 <= 1
 0 <= a3_z2 <= 1
 0 <= a4_z1 <= 1
 0 <= a4_z2 <= 1

binary
  a1_z1
  a1_z2
  a2_z1
  a2_z2
  a3_z1
  a3_z2
  a4_z1
  a4_z2
end
