min
obj: 
  +3.0571104005516858 a1_x1
  +8.0556013187453051 a1_x2
  +1.9742345173811016 a1_x3
  +4.4385591714508195 a1_x4
  +2.091774352732247 a1_x5
  +8.3606733491801819 a1_x6
  +15.666425601953888 a1_z1
  +12.324732571684713 a1_z2
  +3.9044727049854391 a2_x1
  +3.1906424171049248 a2_x2
  +7.2566205037606055 a2_x3
  +4.240342031508578 a2_x4
  +1.7216538193625648 a2_x5
  +9.8652119955060549 a2_x6
  +47.432933857706239 a2_z1
  +10.018499727455843 a2_z2
  +7.6634289009813905 a3_x1
  +6.6031951543936822 a3_x2
  +5.6627725428325562 a3_x3
  +4.150259343395577 a3_x4
  +2.0433644620272413 a3_x5
  +3.9564814242041457 a3_x6
  +26.646913444644401 a3_z1
  +25.192698563482555 a3_z2
  +2.4319173360803403 a4_x1
  +1.259802781834898 a4_x2
  +6.7186619976265831 a4_x3
  +9.2328283032404528 a4_x4
  +5.8537835915052003 a4_x5
  +9.834988999700645 a4_x6
  +10.083472599865093 a4_z1
  +40.29173016694412 a4_z2
  +1000000 short_1
  +1000000 surp_1
  +1000000 short_2
  +1000000 surp_2
  +1000000 short_3
  +1000000 surp_3

s.t.

a1_local_1: 
+0.93641113939327525 a1_x5
+1.5412958802844958 a1_x1
+0.64880469272091867 a1_x6
<= 122.31390709216332

a1_local_2: 
+0.70802215372229949 a1_x6
+1.4123851841961153 a1_x4
+1.2316805685186332 a1_x2
<= 143.46366237467919

a1_local_3: 
+1.5766412767227524 a1_x4
+0.70114536123867288 a1_x5
+1.2216514535871754 a1_x1
<= 231.32262293862476

a1_local_4: 
+1.6770654236014038 a1_x3
+0.59627965965248753 a1_x1
+0.73880309504739583 a1_x4
<= 132.80699517385739

a1_local_5: 
+0.86504388162356727 a1_x4
+1.0232705937708537 a1_x5
+1.1560107195060887 a1_x1
<= 94.032693467040943

a1_local_6: 
+0.77335712854699368 a1_x2
+1.0060606780846149 a1_x5
+1.2930636611300519 a1_x6
<= 116.53575412744932

a1_local_7: 
+0.99601807677116305 a1_x1
+1.1135559687830925 a1_x3
+0.89802401319155267 a1_x5
<= 176.34080263582882

a1_local_8: 
+1.2458616279442589 a1_x3
+1.093756311926116 a1_x4
+0.80265735581731945 a1_x1
<= 111.54799609312907

a1_act_1: 
+0.099999999999999992 a1_x1
-10 a1_z1
<= 0

a1_act_2: 
+0.099999999999999992 a1_x2
-10 a1_z2
<= 0

a2_local_1: 
+1.0887389264476441 a2_x2
+0.62430772309619076 a2_x6
+1.6017741940474508 a2_x4
<= 225.56304428014093

a2_local_2: 
+0.94191347088911304 a2_x2
+1.0214081718705481 a2_x5
+1.0616686467559029 a2_x3
<= 183.54152993082653

a2_local_3: 
+1.1232856976590595 a2_x3
+0.89024546656653036 a2_x5
+0.93450455585374548 a2_x2
<= 135.0188928449345

a2_local_4: 
+0.68412117906789016 a2_x1
+1.4617293406447269 a2_x5
+0.99064824886922087 a2_x6
<= 201.31213189607382

a2_local_5: 
+1.1009832847626297 a2_x2
+1.3322995610454296 a2_x6
+0.75058194811332013 a2_x1
<= 190.63076489673688

a2_local_6: 
+1.0213465462527971 a2_x1
+1.3088325083104979 a2_x5
+0.76403970229227181 a2_x4
<= 202.6975503541986

a2_local_7: 
+0.67969372047248089 a2_x6
+0.46054545972900518 a2_x3
+0.76064852471245892 a2_x4
<= 60.372055057445088

a2_local_8: 
+1.1511816838162776 a2_x3
+1.2938025461701992 a2_x1
+0.77291546763461871 a2_x4
<= 171.62417142678069

a2_act_1: 
+0.10000000000000001 a2_x1
-10 a2_z1
<= 0

a2_act_2: 
+0.099999999999999992 a2_x2
-9.9999999999999982 a2_z2
<= 0

a3_local_1: 
+1.3749217558801055 a3_x5
+1.2673651843923235 a3_x6
+0.72731411494749887 a3_x2
<= 155.94341129147762

a3_local_2: 
+1.0089456371620351 a3_x3
+0.76209475168910823 a3_x1
+1.312172794503043 a3_x5
<= 198.95453786536385

a3_local_3: 
+0.68780525395679826 a3_x6
+1.2867449771639869 a3_x2
+1.453899914615673 a3_x3
<= 167.41103894496905

a3_local_4: 
+0.8553308774658468 a3_x5
+1.1691381970948778 a3_x6
+1.0572916598604263 a3_x3
<= 127.70685624336298

a3_local_5: 
+1.318406055558776 a3_x5
+0.93516527465587163 a3_x6
+0.7584916617939631 a3_x4
<= 113.9204387066433

a3_local_6: 
+1.0709424046999128 a3_x3
+0.87131420685475469 a3_x6
+1.1476916043981096 a3_x2
<= 99.327997173298854

a3_local_7: 
+0.97317980787677405 a3_x4
+0.96966289223176561 a3_x6
+1.0312862418591795 a3_x3
<= 103.55789082891197

a3_local_8: 
+1.4575377601490442 a3_x6
+0.88145789929059437 a3_x3
+0.68608857165919501 a3_x5
<= 158.19001207711779

a3_act_1: 
+0.099999999999999992 a3_x1
-10 a3_z1
<= 0

a3_act_2: 
+0.10000000000000001 a3_x2
-10 a3_z2
<= 0

a4_local_1: 
+0.80122318811874005 a4_x4
+1.5952091718348784 a4_x1
+0.62687703760489089 a4_x6
<= 194.36893773709517

a4_local_2: 
+1.3879349413299684 a4_x2
+1.5287532377775872 a4_x6
+0.65412780512160484 a4_x1
<= 189.79267303658446

a4_local_3: 
+0.8295653227406361 a4_x4
+1.2054505806683171 a4_x3
+0.90459990011063207 a4_x5
<= 120.96683032363318

a4_local_4: 
+0.72468781612325672 a4_x1
+1.37990452958011 a4_x6
+0.83701808176015446 a4_x4
<= 202.85938089962207

a4_local_5: 
+0.98245720732962527 a4_x3
+0.96256213363684129 a4_x6
+1.0388939737549279 a4_x4
<= 184.73106227901803

a4_local_6: 
+1.2954059763547976 a4_x3
+0.77195876679058262 a4_x1
+0.97896409116652727 a4_x5
<= 130.88261986256541

a4_local_7: 
+0.7834528580944865 a4_x5
+1.3237642003946055 a4_x4
+0.75542154690533725 a4_x3
<= 164.76443252320999

a4_local_8: 
+0.87550150605245358 a4_x1
+1.1422024897580099 a4_x4
+0.89837829552338455 a4_x6
<= 115.46465993395738

a4_act_1: 
+0.10000000000000001 a4_x1
-10 a4_z1
<= 0

a4_act_2: 
+0.099999999999999992 a4_x2
-10 a4_z2
<= 0

coupling_1: 
+0.00023492407852229193 a1_x1
+0.0028066801846318907 a2_x1
+0.076001496921397807 a3_x1
+1.6831197112124483 a4_x1
+0.017812945326087647 short_1
-0.017812945326087647 surp_1
= 55.693804014472612

coupling_2: 
+0.00012124145103606074 a1_x2
+0.0021967394846937474 a2_x2
+0.040596056820659018 a3_x2
+0.99909053083904076 a4_x2
+0.0090893067536542173 short_2
-0.0090893067536542173 surp_2
= 45.718746598852569

coupling_3: 
+3.7169206858099961e-05 a1_x3
+0.0012233132260406389 a2_x3
+0.027579454345917742 a3_x3
+0.99957327355816394 a4_x3
+0.0067508003006369688 short_3
-0.0067508003006369688 surp_3
= 70.698546833227596

bounds
  0 <= a1_x1 <= 100
  0 <= a1_x2 <= 100
  0 <= a1_x3 <= 100
  0 <= a1_x4 <= 100
  0 <= a1_x5 <= 100
  0 <= a1_x6 <= 100
  0 <= a2_x1 <= 100
  0 <= a2_x2 <= 100
  0 <= a2_x3 <= 100
  0 <= a2_x4 <= 100
  0 <= a2_x5 <= 100
  0 <= a2_x6 <= 100
  0 <= a3_x1 <= 100
  0 <= a3_x2 <= 100
  0 <= a3_x3 <= 100
  0 <= a3_x4 <= 100
  0 <= a3_x5 <= 100
  0 <= a3_x6 <= 100
  0 <= a4_x1 <= 100
  0 <= a4_x2 <= 100
  0 <= a4_x3 <= 100
  0 <= a4_x4 <= 100
  0 <= a4_x5 <= 100
  0 <= a4_x6 <= 100
  0 <= short_1 <= +inf
  0 <= surp_1 <= +inf
  0 <= short_2 <= +inf
  0 <= surp_2 <= +inf
  0 <= short_3 <= +inf
  0 <= surp_3 <= +inf
 0 <= a1_z1 <= 1
 0 <= a1_z2 <= 1
 0 <= a2_z1 <= 1
 0 <= a2_z2 <= 1
 0 <= a3_z1 <= 1
 0 <= a3_z2 <= 1
 0 <= a4_z1 <= 1
 0 <= a4_z2 <= 1

binary
  a1_z1
  a1_z2
  a2_z1
  a2_z2
  a3_z1
  a3_z2
  a4_z1
  a4_z2
end
