min
obj: 
  +1.5869078218103445 a1_x1
  +1.8591431952918778 a1_x2
  +3.3231109040519993 a1_x3
  +9.2087059181463786 a1_x4
  +9.6203246603591985 a1_x5
  +2.6522167369866532 a1_x6
  +45.971215901918207 a1_z1
  +15.231591264695247 a1_z2
  +7.3851642913844699 a2_x1
  +8.184615433312981 a2_x2
  +6.3286902635835114 a2_x3
  +1.720840343178456 a2_x4
  +2.5195780412124975 a2_x5
  +8.1969421632275719 a2_x6
  +32.909722818284479 a2_z1
  +29.006081337850453 a2_z2
  +9.6251817518945995 a3_x1
  +3.9009418953480735 a3_x2
  +1.3219510135661245 a3_x3
  +4.7485775019531236 a3_x4
  +3.5558983548633152 a3_x5
  +8.1243659823807501 a3_x6
  +20.822115549059351 a3_z1
  +25.222874624514855 a3_z2
  +3.9740281273618923 a4_x1
  +5.8725760658506196 a4_x2
  +8.5449306619724936 a4_x3
  +7.8945369096479574 a4_x4
  +2.7042977066829055 a4_x5
  +9.2622687133164359 a4_x6
  +13.310232891557296 a4_z1
  +27.542990425232677 a4_z2
  +1000000 short_1
  +1000000 surp_1
  +1000000 short_2
  +1000000 surp_2
  +1000000 short_3
  +1000000 surp_3

s.t.

a1_local_1: 
+0.91555290746555562 a1_x4
+1.1866305975125664 a1_x1
+0.84272224405490281 a1_x3
<= 130.56099750115047

a1_local_2: 
+0.92429768641700294 a1_x2
+0.62828860628994887 a1_x4
+0.71668967494412572 a1_x3
<= 152.81183597940191

a1_local_3: 
+0.70624019261684523 a1_x6
+1.4159488661990209 a1_x4
+0.84574465110272834 a1_x1
<= 128.17380145785046

a1_local_4: 
+1.1053049443244558 a1_x6
+0.98232533685459633 a1_x2
+0.90472769993007085 a1_x1
<= 117.22584078360315

a1_local_5: 
+0.76824010820558208 a1_x1
+1.1192767905085206 a1_x2
+1.3016763760691323 a1_x5
<= 166.45317172246794

a1_local_6: 
+0.7949898278877221 a1_x1
+1.2578777299037742 a1_x2
+1.1199098105920444 a1_x6
<= 115.06265014146929

a1_local_7: 
+0.68561719186186942 a1_x5
+1.4585398555779927 a1_x2
+1.2564220981266883 a1_x4
<= 225.26480219821281

a1_local_8: 
+1.1913257363905447 a1_x1
+0.83940098786901085 a1_x2
+1.1722428543263961 a1_x3
<= 200.69197057039941

a1_act_1: 
+0.10000000000000001 a1_x1
-10 a1_z1
<= 0

a1_act_2: 
+0.099999999999999992 a1_x2
-10 a1_z2
<= 0

a2_local_1: 
+0.53414568675018748 a2_x1
+1.3594891499725241 a2_x5
+0.81447931545808461 a2_x3
<= 144.9652948582937

a2_local_2: 
+0.59598573706145574 a2_x4
+1.4084243656039972 a2_x2
+1.1494553590142265 a2_x5
<= 144.32891672980222

a2_local_3: 
+1.109270528514626 a2_x2
+0.98690089922469182 a2_x1
+0.90149334566659289 a2_x5
<= 99.631991056283027

a2_local_4: 
+1.2060793228487077 a2_x6
+0.8227484431006673 a2_x2
+1.2154383376665292 a2_x4
<= 151.57228435011825

a2_local_5: 
+0.74301116243361165 a2_x1
+1.3458748004870658 a2_x6
+1.1724271539103082 a2_x2
<= 154.60098753035177

a2_local_6: 
+1.2747440959783818 a2_x4
+1.3354785074376827 a2_x6
+1.2281973652987124 a2_x5
<= 201.27625960769089

a2_local_7: 
+0.97331577736427399 a2_x4
+0.67170539681421759 a2_x6
+1.3040025365436458 a2_x3
<= 181.4255865536588

a2_local_8: 
+1.2241366966643881 a2_x5
+1.0672067519535393 a2_x1
+0.81690223218115154 a2_x4
<= 202.49091843312502

a2_act_1: 
+0.10000000000000001 a2_x1
-10 a2_z1
<= 0

a2_act_2: 
+0.10000000000000001 a2_x2
-10 a2_z2
<= 0

a3_local_1: 
+1.2940668832008257 a3_x3
+1.500531737617844 a3_x5
+0.66643042258309115 a3_x4
<= 119.91388423991921

a3_local_2: 
+1.0945636544864943 a3_x3
+1.2169345762837114 a3_x5
+0.82173686202080909 a3_x2
<= 159.55734036243359

a3_local_3: 
+0.8383881398746128 a3_x5
+1.0696121414360913 a3_x6
+1.1927649646255225 a3_x2
<= 155.55360864620715

a3_local_4: 
+1.5410614029575274 a3_x4
+1.3481275166892885 a3_x3
+0.64890341039030019 a3_x1
<= 154.49538725697161

a3_local_5: 
+1.4700543535625179 a3_x1
+1.2510176638048405 a3_x4
+0.68024695656769951 a3_x5
<= 195.14260034300582

a3_local_6: 
+0.74214363035317821 a3_x5
+1.3474480667901312 a3_x4
+1.0476830310946885 a3_x6
<= 126.88459199627019

a3_local_7: 
+1.1414649673954569 a3_x5
+0.87606718433221387 a3_x4
+1.0228261738446121 a3_x2
<= 184.58100150212582

a3_local_8: 
+1.4793239649500829 a3_x6
+0.67598445215057612 a3_x2
+1.1207892307676854 a3_x3
<= 178.75290101777699

a3_act_1: 
+0.10000000000000001 a3_x1
-10 a3_z1
<= 0

a3_act_2: 
+0.099999999999999992 a3_x2
-10 a3_z2
<= 0

a4_local_1: 
+0.93947639559538898 a4_x3
+0.78765587113540059 a4_x2
+1.2695899778649611 a4_x4
<= 177.37443455055578

a4_local_2: 
+1.3648935583549873 a4_x5
+0.69086760369113132 a4_x4
+1.447455336821776 a4_x1
<= 140.56322969863706

a4_local_3: 
+0.8690249825853007 a4_x3
+1.0521663348511827 a4_x2
+1.1507149046797895 a4_x6
<= 176.11462229582634

a4_local_4: 
+0.91916710229171561 a4_x1
+1.0879414608146307 a4_x6
+1.0470652219010967 a4_x5
<= 141.09578028810029

a4_local_5: 
+0.97886237065940362 a4_x1
+1.0842770647637967 a4_x2
+0.92227349678178794 a4_x6
<= 117.43876355440078

a4_local_6: 
+0.5834380347121112 a4_x6
+1.7139780756553435 a4_x3
+0.97723231614370887 a4_x5
<= 134.29665337981859

a4_local_7: 
+0.8278148124298581 a4_x1
+0.86914953755802127 a4_x4
+1.2079996455544595 a4_x5
<= 93.539775984328628

a4_local_8: 
+0.91569763806754612 a4_x5
+0.8067594697720103 a4_x1
+1.2395268199115148 a4_x6
<= 169.00558659030301

a4_act_1: 
+0.10000000000000001 a4_x1
-10 a4_z1
<= 0

a4_act_2: 
+0.099999999999999992 a4_x2
-10 a4_z2
<= 0

coupling_1: 
+0.014206713219505817 a1_x1
+0.20724985584029326 a2_x1
+3.2172604964241742 a3_x1
+136.36815645053628 a4_x1
+0.9669061135007514 short_1
-0.9669061135007514 surp_1
= 8309.8479458946822

coupling_2: 
+0.011450494271437468 a1_x2
+0.1201486657173134 a2_x2
+6.4433898232371716 a3_x2
+87.332474589715872 a4_x2
+1.01275775540888 short_2
-1.01275775540888 surp_2
= 7299.4450633159677

coupling_3: 
+0.0088056830451535787 a1_x3
+0.16826049790473602 a2_x3
+7.418334955422786 a3_x3
+113.56302456859088 a4_x3
+1.336207278219228 short_3
-1.336207278219228 surp_3
= 6176.6459748239104

bounds
  0 <= a1_x1 <= 100
  0 <= a1_x2 <= 100
  0 <= a1_x3 <= 100
  0 <= a1_x4 <= 100
  0 <= a1_x5 <= 100
  0 <= a1_x6 <= 100
  0 <= a2_x1 <= 100
  0 <= a2_x2 <= 100
  0 <= a2_x3 <= 100
  0 <= a2_x4 <= 100
  0 <= a2_x5 <= 100
  0 <= a2_x6 <= 100
  0 <= a3_x1 <= 100
  0 <= a3_x2 <= 100
  0 <= a3_x3 <= 100
  0 <= a3_x4 <= 100
  0 <= a3_x5 <= 100
  0 <= a3_x6 <= 100
  0 <= a4_x1 <= 100
  0 <= a4_x2 <= 100
  0 <= a4_x3 <= 100
  0 <= a4_x4 <= 100
  0 <= a4_x5 <= 100
  0 <= a4_x6 <= 100
  0 <= short_1 <= +inf
  0 <= surp_1 <= +inf
  0 <= short_2 <= +inf
  0 <= surp_2 <= +inf
  0 <= short_3 <= +inf
  0 <= surp_3 <= +inf
 0 <= a1_z1 <= 1
 0 <= a1_z2 <= 1
 0 <= a2_z1 <= 1
 0 <= a2_z2 <= 1
 0 <= a3_z1 <= 1
 0 <= a3_z2 <= 1
 0 <= a4_z1 <= 1
 0 <= a4_z2 <= 1

binary
  a1_z1
  a1_z2
  a2_z1
  a2_z2
  a3_z1
  a3_z2
  a4_z1
  a4_z2
end
