min
obj: 
  +4.0092711480649195 a1_x1
  +1.9679731558453351 a1_x2
  +5.1245063990813229 a1_x3
  +5.3289660462088069 a1_x4
  +7.7326436197250805 a1_x5
  +5.1395422066191525 a1_x6
  +7.4601303692563201 a1_z1
  +49.872667351617643 a1_z2
  +9.3684343534405965 a2_x1
  +1.0573707236444929 a2_x2
  +6.6071911877442115 a2_x3
  +2.1574642417771144 a2_x4
  +4.0288495580936399 a2_x5
  +6.5816021448275457 a2_x6
  +37.186317612242192 a2_z1
  +14.569927030673126 a2_z2
  +7.5771846442232071 a3_x1
  +6.3254671996139473 a3_x2
  +1.3182946718516668 a3_x3
  +2.4508427443497842 a3_x4
  +7.5821505201430535 a3_x5
  +8.0396019839617026 a3_x6
  +34.570982164584187 a3_z1
  +17.019236119633661 a3_z2
  +9.6576292080467585 a4_x1
  +1.0103892115093069 a4_x2
  +8.2624531172852755 a4_x3
  +1.8717492610420641 a4_x4
  +5.7231033614351237 a4_x5
  +2.0382344427317065 a4_x6
  +33.41705432517788 a4_z1
  +11.211459891146486 a4_z2
  +1000000 short_1
  +1000000 surp_1
  +1000000 short_2
  +1000000 surp_2
  +1000000 short_3
  +1000000 surp_3

s.t.

a1_local_1: 
+0.78148208496250937 a1_x3
+0.33201208048706399 a1_x6
+0.52825536371465331 a1_x4
<= 62.059018921159925

a1_local_2: 
+0.82850689794525334 a1_x4
+0.45899830670512548 a1_x6
+0.3207754268938956 a1_x2
<= 91.172631314095725

a1_local_3: 
+0.46417792727740481 a1_x6
+0.7849940732266838 a1_x4
+0.4102720522134457 a1_x1
<= 105.35088881600051

a1_local_4: 
+0.51721050820825065 a1_x2
+0.61058510634536678 a1_x5
+0.59973253881057675 a1_x3
<= 116.60210274440821

a1_local_5: 
+0.86321235140881292 a1_x1
+0.39148292125567247 a1_x4
+0.54949594281904979 a1_x2
<= 123.48788312630353

a1_local_6: 
+0.65598510136492894 a1_x1
+0.67245144267999735 a1_x3
+0.34277194171173614 a1_x6
<= 104.3295871954415

a1_local_7: 
+0.43751232582857641 a1_x2
+0.70564966142939822 a1_x5
+0.55735224057380928 a1_x4
<= 94.597837902262953

a1_local_8: 
+0.51093370724646547 a1_x4
+0.79654162038621501 a1_x5
+0.32321539844488506 a1_x6
<= 84.492687710359363

a1_act_1: 
+0.0099995000374968751 a1_x1
-0.99995000374968745 a1_z1
<= 0

a1_act_2: 
+0.019957419963247 a1_x2
-1.9957419963247001 a1_z2
<= 0

a2_local_1: 
+0.38210255802832643 a2_x4
+0.72087130775669528 a2_x2
+0.57822330703748115 a2_x6
<= 97.014552588364424

a2_local_2: 
+0.52120176967801135 a2_x1
+0.71917277819711223 a2_x4
+0.45949889051526144 a2_x5
<= 109.1880420753166

a2_local_3: 
+0.52461682870637982 a2_x4
+0.38778363135704452 a2_x5
+0.75789249784491508 a2_x3
<= 106.70841600536653

a2_local_4: 
+0.64829000143276161 a2_x2
+0.43879281768829254 a2_x1
+0.62223864970562437 a2_x5
<= 78.142518947871707

a2_local_5: 
+0.6009339641661483 a2_x2
+0.37891042526939894 a2_x3
+0.70377926961066539 a2_x6
<= 94.924375496616065

a2_local_6: 
+0.59465521118310682 a2_x6
+0.42678360136503851 a2_x5
+0.68135228583946383 a2_x2
<= 94.872889539348137

a2_local_7: 
+1.064534203734907 a2_x2
+0.7264816806959612 a2_x5
+0.76796464257419828 a2_x6
<= 170.62213198988786

a2_local_8: 
+0.67651343220211602 a2_x2
+0.55603899934845002 a2_x4
+0.48285630083254316 a2_x5
<= 113.90943495750733

a2_act_1: 
+0.0099995000374968751 a2_x1
-0.99995000374968757 a2_z1
<= 0

a2_act_2: 
+0.0099995000374968734 a2_x2
-0.99995000374968734 a2_z2
<= 0

a3_local_1: 
+0.49468250114607065 a3_x1
+0.41145761448933232 a3_x2
+0.7655010480323432 a3_x6
<= 75.497628679798211

a3_local_2: 
+0.46662846550291309 a3_x2
+0.38557347806034403 a3_x1
+0.7959842763515157 a3_x6
<= 70.957978463933372

a3_local_3: 
+0.49835127935034834 a3_x1
+0.38496605246954757 a3_x5
+0.77681860225916632 a3_x2
<= 85.990269209633823

a3_local_4: 
+0.50802046558172975 a3_x4
+0.77298007527695589 a3_x6
+0.72781144339956616 a3_x5
<= 128.99142295598361

a3_local_5: 
+0.49336283095547812 a3_x4
+0.72460937963388783 a3_x1
+0.48118017828895326 a3_x5
<= 55.296011451709688

a3_local_6: 
+0.79391229039661282 a3_x5
+0.45027480819936783 a3_x6
+0.40860234000581425 a3_x1
<= 97.407676860916055

a3_local_7: 
+0.46854196695973055 a3_x6
+0.57841122714162541 a3_x1
+0.66776408821830624 a3_x4
<= 107.56668345962113

a3_local_8: 
+0.5488127929814145 a3_x3
+0.70419164456558436 a3_x1
+0.45046492203495364 a3_x6
<= 69.389880949788761

a3_act_1: 
+0.0099995000374968751 a3_x1
-0.99995000374968757 a3_z1
<= 0

a3_act_2: 
+0.011341287366947634 a3_x2
-1.1341287366947634 a3_z2
<= 0

a4_local_1: 
+0.51419106913609902 a4_x3
+0.49951346644504335 a4_x2
+0.69720430381684517 a4_x5
<= 101.95027777521908

a4_local_2: 
+0.31264890934173256 a4_x2
+0.61642671719781394 a4_x5
+0.72268164623999631 a4_x3
<= 114.27848648297956

a4_local_3: 
+0.83160858398989934 a4_x4
+0.38857517482686516 a4_x5
+0.39678268175738918 a4_x2
<= 54.81103429013362

a4_local_4: 
+0.60294574131329626 a4_x5
+0.61426306685376231 a4_x3
+0.50905531893063438 a4_x1
<= 57.122532333124887

a4_local_5: 
+0.50491806736059974 a4_x5
+0.77040214169723131 a4_x6
+0.38927918685842394 a4_x1
<= 89.357969154022555

a4_local_6: 
+0.80582327724305713 a4_x3
+0.36422630603993728 a4_x2
+0.46689189738285369 a4_x1
<= 80.286419394187405

a4_local_7: 
+0.42261030873506084 a4_x1
+0.37320564837512732 a4_x2
+0.82590439578183461 a4_x3
<= 99.0698700585057

a4_local_8: 
+0.60604053711379935 a4_x3
+0.43312868347014033 a4_x1
+0.66716895231286111 a4_x4
<= 98.074137744266295

a4_act_1: 
+0.0099995000374968751 a4_x1
-0.99995000374968745 a4_z1
<= 0

a4_act_2: 
+0.0099995000374968734 a4_x2
-0.99995000374968734 a4_z2
<= 0

coupling_1: 
+0.00018907482042395128 a1_x1
+0.0052283647996878568 a2_x1
+0.11393968370549565 a3_x1
+0.99319142028732477 a4_x1
+0.016750814860359356 short_1
-0.016750814860359356 surp_1
= 62.912467276681873

coupling_2: 
+8.6000912183733553e-05 a1_x2
+0.0016961791818013625 a2_x2
+0.029903643768237721 a3_x2
+0.99943804348597665 a4_x2
+0.010641543645820836 short_2
-0.010641543645820836 surp_2
= 56.63372441733685

coupling_3: 
+8.6944316549702859e-05 a1_x3
+0.0012475767569821079 a2_x3
+0.038474149585983573 a3_x3
+0.93602053254516016 a4_x3
+0.010916650974881717 short_3
-0.010916650974881717 surp_3
= 21.293685308320413

bounds
  0 <= a1_x1 <= 100
  0 <= a1_x2 <= 100
  0 <= a1_x3 <= 100
  0 <= a1_x4 <= 100
  0 <= a1_x5 <= 100
  0 <= a1_x6 <= 100
  0 <= a2_x1 <= 100
  0 <= a2_x2 <= 100
  0 <= a2_x3 <= 100
  0 <= a2_x4 <= 100
  0 <= a2_x5 <= 100
  0 <= a2_x6 <= 100
  0 <= a3_x1 <= 100
  0 <= a3_x2 <= 100
  0 <= a3_x3 <= 100
  0 <= a3_x4 <= 100
  0 <= a3_x5 <= 100
  0 <= a3_x6 <= 100
  0 <= a4_x1 <= 100
  0 <= a4_x2 <= 100
  0 <= a4_x3 <= 100
  0 <= a4_x4 <= 100
  0 <= a4_x5 <= 100
  0 <= a4_x6 <= 100
  0 <= short_1 <= +inf
  0 <= surp_1 <= +inf
  0 <= short_2 <= +inf
  0 <= surp_2 <= +inf
  0 <= short_3 <= +inf
  0 <= surp_3 <= +inf
 0 <= a1_z1 <= 1
 0 <= a1_z2 <= 1
 0 <= a2_z1 <= 1
 0 <= a2_z2 <= 1
 0 <= a3_z1 <= 1
 0 <= a3_z2 <= 1
 0 <= a4_z1 <= 1
 0 <= a4_z2 <= 1

binary
  a1_z1
  a1_z2
  a2_z1
  a2_z2
  a3_z1
  a3_z2
  a4_z1
  a4_z2
end
