min
obj: 
  +3.0571104005516858 a1_x1
  +8.0556013187453051 a1_x2
  +1.9742345173811016 a1_x3
  +4.4385591714508195 a1_x4
  +2.091774352732247 a1_x5
  +8.3606733491801819 a1_x6
  +15.666425601953888 a1_z1
  +12.324732571684713 a1_z2
  +3.9044727049854391 a2_x1
  +3.1906424171049248 a2_x2
  +7.2566205037606055 a2_x3
  +4.240342031508578 a2_x4
  +1.7216538193625648 a2_x5
  +9.8652119955060549 a2_x6
  +47.432933857706239 a2_z1
  +10.018499727455843 a2_z2
  +7.6634289009813905 a3_x1
  +6.6031951543936822 a3_x2
  +5.6627725428325562 a3_x3
  +4.150259343395577 a3_x4
  +2.0433644620272413 a3_x5
  +3.9564814242041457 a3_x6
  +26.646913444644401 a3_z1
  +25.192698563482555 a3_z2
  +2.4319173360803403 a4_x1
  +1.259802781834898 a4_x2
  +6.7186619976265831 a4_x3
  +9.2328283032404528 a4_x4
  +5.8537835915052003 a4_x5
  +9.834988999700645 a4_x6
  +10.083472599865093 a4_z1
  +40.29173016694412 a4_z2
  +1000000 short_1
  +1000000 surp_1
  +1000000 short_2
  +1000000 surp_2
  +1000000 short_3
  +1000000 surp_3

s.t.

a1_local_1: 
+0.48857595054224551 a1_x5
+0.80417678527912273 a1_x1
+0.33851623088099797 a1_x6
<= 63.817730170114586

a1_local_2: 
+0.35342997224112582 a1_x6
+0.70503338605983568 a1_x4
+0.61482939036991346 a1_x2
<= 71.614084310955576

a1_local_3: 
+0.74573951461699794 a1_x4
+0.33163650418498652 a1_x5
+0.57783198719936391 a1_x1
<= 109.41386800982225

a1_local_4: 
+0.8702284392874825 a1_x3
+0.30940922774732776 a1_x1
+0.38336456962019183 a1_x4
<= 68.913485729388455

a1_local_5: 
+0.48881551660507239 a1_x4
+0.57822563056811738 a1_x5
+0.65323388681254069 a1_x1
<= 53.135616136130324

a1_local_6: 
+0.42686846088954561 a1_x2
+0.55531339579470362 a1_x5
+0.7137298855650821 a1_x6
<= 64.324018188660148

a1_local_7: 
+0.57139596473844712 a1_x1
+0.63882513973615174 a1_x3
+0.51517869940604621 a1_x5
<= 101.16324732929662

a1_local_8: 
+0.67638656867122227 a1_x3
+0.5938075803866848 a1_x4
+0.43576801993317604 a1_x1
<= 60.560149399639556

a1_act_1: 
+0.0072714913446831472 a1_x1
-0.72714913446831475 a1_z1
<= 0

a1_act_2: 
+0.0099995000374968734 a1_x2
-0.99995000374968745 a1_z2
<= 0

a2_local_1: 
+0.5350347409833609 a2_x2
+0.30680111898868995 a2_x6
+0.78715366944971776 a2_x4
<= 110.84757056093657

a2_local_2: 
+0.53866597001214767 a2_x2
+0.58412777891330891 a2_x5
+0.60715213139103497 a2_x3
<= 104.96460589355083

a2_local_3: 
+0.65649870962920376 a2_x3
+0.52029951175570555 a2_x5
+0.54616651519656978 a2_x2
<= 78.91111683607248

a2_local_4: 
+0.36126372550430841 a2_x1
+0.77189510197559053 a2_x5
+0.52313141004994168 a2_x6
<= 106.3068546672974

a2_local_5: 
+0.58429520661682954 a2_x2
+0.7070554640294876 a2_x6
+0.39833614236049736 a2_x1
<= 101.16833171257227

a2_local_6: 
+0.55886031861343588 a2_x1
+0.71616686352898529 a2_x5
+0.41806718103953683 a2_x4
<= 110.91202881991454

a2_local_7: 
+0.67969372047248089 a2_x6
+0.46054545972900518 a2_x3
+0.76064852471245892 a2_x4
<= 60.372055057445088

a2_local_8: 
+0.60701757524427613 a2_x3
+0.68222149071861393 a2_x1
+0.40755797249744946 a2_x4
<= 90.497347080288321

a2_act_1: 
+0.0099995000374968751 a2_x1
-0.99995000374968757 a2_z1
<= 0

a2_act_2: 
+0.0099995000374968751 a2_x2
-0.99995000374968757 a2_z2
<= 0

a3_local_1: 
+0.68527064115462499 a3_x5
+0.63166369196743588 a3_x6
+0.36249845326786928 a3_x2
<= 77.723289330850349

a3_local_2: 
+0.55368439932831137 a3_x3
+0.41821874170260809 a3_x1
+0.72008795992512886 a3_x5
<= 109.18132725314968

a3_local_3: 
+0.33392485473398842 a3_x6
+0.62470608810755324 a3_x2
+0.70585869327524964 a3_x3
<= 81.276940731360241

a3_local_4: 
+0.47692833798501411 a3_x5
+0.65190577343271527 a3_x6
+0.58954068815642013 a3_x3
<= 71.208722030346948

a3_local_5: 
+0.73839275958119754 a3_x5
+0.52375310694776578 a3_x6
+0.42480444390404615 a3_x4
<= 63.802822168961846

a3_local_6: 
+0.59650708934715391 a3_x3
+0.4853156427057258 a3_x6
+0.6392558324362122 a3_x2
<= 55.324968200441312

a3_local_7: 
+0.56652304607657056 a3_x4
+0.56447572270644086 a3_x6
+0.60034889584238049 a3_x3
<= 60.284781170766763

a3_local_8: 
+0.79372392475499964 a3_x6
+0.48001104496921226 a3_x3
+0.37361976390320223 a3_x5
<= 86.144730295050024

a3_act_1: 
+0.0099995000374968751 a3_x1
-0.99995000374968757 a3_z1
<= 0

a3_act_2: 
+0.0099995000374968751 a3_x2
-0.99995000374968745 a3_z2
<= 0

a4_local_1: 
+0.42348175066660393 a4_x4
+0.84313831999073818 a4_x1
+0.33133212976640825 a4_x6
<= 102.73254599805057

a4_local_2: 
+0.64079774750179175 a4_x2
+0.7058123562443358 a4_x6
+0.30200523930794476 a4_x1
<= 87.625661515263815

a4_local_3: 
+0.48220838956365941 a4_x4
+0.70070236456157198 a4_x3
+0.52582436738158467 a4_x5
<= 70.315403551670485

a4_local_4: 
+0.40962377825572532 a4_x1
+0.77997959185042542 a4_x6
+0.47311752935644658 a4_x4
<= 114.66458274853531

a4_local_5: 
+0.56997887086460208 a4_x3
+0.55843661583855042 a4_x6
+0.60272102407224881 a4_x4
<= 107.17291451055161

a4_local_6: 
+0.7205191350198451 a4_x3
+0.4293720062061816 a4_x1
+0.54451065770720508 a4_x5
<= 72.798361111372657

a4_local_7: 
+0.45716693749280457 a4_x5
+0.77245391245228756 a4_x4
+0.44080987330208887 a4_x3
<= 96.144714064329023

a4_local_8: 
+0.36363433392006461 a4_x1
+0.47440699838168976 a4_x4
+0.37313607211695254 a4_x6
<= 47.957558514897421

a4_act_1: 
+0.0099995000374968751 a4_x1
-0.99995000374968757 a4_z1
<= 0

a4_act_2: 
+0.0099995000374968751 a4_x2
-0.99995000374968757 a4_z2
<= 0

coupling_1: 
+0.00023492407852229193 a1_x1
+0.0028066801846318907 a2_x1
+0.076001496921397807 a3_x1
+1.6831197112124483 a4_x1
+0.017812945326087647 short_1
-0.017812945326087647 surp_1
= 55.693804014472612

coupling_2: 
+0.00012124145103606077 a1_x2
+0.0021967394846937479 a2_x2
+0.040596056820659025 a3_x2
+0.99909053083904098 a4_x2
+0.009089306753654219 short_2
-0.009089306753654219 surp_2
= 45.718746598852576

coupling_3: 
+3.7169206858099968e-05 a1_x3
+0.0012233132260406391 a2_x3
+0.027579454345917749 a3_x3
+0.99957327355816405 a4_x3
+0.0067508003006369697 short_3
-0.0067508003006369697 surp_3
= 70.69854683322761

bounds
  0 <= a1_x1 <= 100
  0 <= a1_x2 <= 100
  0 <= a1_x3 <= 100
  0 <= a1_x4 <= 100
  0 <= a1_x5 <= 100
  0 <= a1_x6 <= 100
  0 <= a2_x1 <= 100
  0 <= a2_x2 <= 100
  0 <= a2_x3 <= 100
  0 <= a2_x4 <= 100
  0 <= a2_x5 <= 100
  0 <= a2_x6 <= 100
  0 <= a3_x1 <= 100
  0 <= a3_x2 <= 100
  0 <= a3_x3 <= 100
  0 <= a3_x4 <= 100
  0 <= a3_x5 <= 100
  0 <= a3_x6 <= 100
  0 <= a4_x1 <= 100
  0 <= a4_x2 <= 100
  0 <= a4_x3 <= 100
  0 <= a4_x4 <= 100
  0 <= a4_x5 <= 100
  0 <= a4_x6 <= 100
  0 <= short_1 <= +inf
  0 <= surp_1 <= +inf
  0 <= short_2 <= +inf
  0 <= surp_2 <= +inf
  0 <= short_3 <= +inf
  0 <= surp_3 <= +inf
 0 <= a1_z1 <= 1
 0 <= a1_z2 <= 1
 0 <= a2_z1 <= 1
 0 <= a2_z2 <= 1
 0 <= a3_z1 <= 1
 0 <= a3_z2 <= 1
 0 <= a4_z1 <= 1
 0 <= a4_z2 <= 1

binary
  a1_z1
  a1_z2
  a2_z1
  a2_z2
  a3_z1
  a3_z2
  a4_z1
  a4_z2
end
