min
obj: 
  +9.9278906915658744 a1_x1
  +4.1029321056614965 a1_x2
  +3.3290118192963942 a1_x3
  +9.1017647242801925 a1_x4
  +1.0276781995025082 a1_x5
  +7.5015228430107515 a1_x6
  +48.476105885704612 a1_z1
  +46.462393702811802 a1_z2
  +3.1850077691017789 a2_x1
  +1.0794293017939207 a2_x2
  +3.499564475939096 a2_x3
  +4.2123952542391079 a2_x4
  +5.825176560091875 a2_x5
  +3.8934254066749405 a2_x6
  +48.499085817086311 a2_z1
  +41.1366386984797 a2_z2
  +2.6719241979528361 a3_x1
  +3.8682188322270532 a3_x2
  +5.9140343670384405 a3_x3
  +8.8118059009872773 a3_x4
  +5.9790956134935263 a3_x5
  +2.6868556403382673 a3_x6
  +5.1863767770133045 a3_z1
  +6.8806666184499186 a3_z2
  +1.2856225251920637 a4_x1
  +5.2994894770405514 a4_x2
  +9.0295106348529277 a4_x3
  +3.0822666442565567 a4_x4
  +2.1929853575171814 a4_x5
  +7.0676293507155048 a4_x6
  +41.576942647234446 a4_z1
  +44.440960753164354 a4_z2
  +1000000 short_1
  +1000000 surp_1
  +1000000 short_2
  +1000000 surp_2
  +1000000 short_3
  +1000000 surp_3

s.t.

a1_local_1: 
+0.64487030906653131 a1_x4
+0.62715795005958985 a1_x6
+0.4368239807536779 a1_x1
<= 68.134168933867855

a1_local_2: 
+0.4473793755288884 a1_x6
+0.53786898669433558 a1_x5
+0.71452686968636159 a1_x4
<= 75.808377004217988

a1_local_3: 
+0.69187850913634241 a1_x3
+0.5596181476074521 a1_x1
+0.45621448624926003 a1_x6
<= 101.42087380321367

a1_local_4: 
+0.64076899997732251 a1_x5
+0.676413502570411 a1_x2
+0.36315267066137685 a1_x4
<= 70.831046148713057

a1_local_5: 
+0.39715983147360523 a1_x4
+0.78120394458983666 a1_x2
+0.48164765671716581 a1_x5
<= 99.004582765784733

a1_local_6: 
+0.68485032841912152 a1_x3
+0.64617948147040316 a1_x4
+0.33679683102853286 a1_x1
<= 64.223494376359128

a1_local_7: 
+0.66021050181277308 a1_x1
+0.49253464439347378 a1_x2
+0.56703766838572633 a1_x5
<= 90.782935610441271

a1_local_8: 
+0.60048625924283983 a1_x5
+0.64977477468682576 a1_x2
+0.4660568577343604 a1_x4
<= 77.921614892845639

a1_act_1: 
+0.014616550732594802 a1_x1
-1.4616550732594802 a1_z1
<= 0

a1_act_2: 
+0.0099995000374968751 a1_x2
-0.99995000374968745 a1_z2
<= 0

a2_local_1: 
+0.3204446450632033 a2_x6
+0.19534944545676564 a2_x4
+0.46075195891357151 a2_x1
<= 64.721793211136827

a2_local_2: 
+0.61132284953184857 a2_x2
+0.59031462912152299 a2_x1
+0.52707970202368792 a2_x4
<= 96.28268277894415

a2_local_3: 
+0.65523060180262294 a2_x3
+0.67391663327311346 a2_x4
+0.34133448384129672 a2_x5
<= 116.08739757168593

a2_local_4: 
+0.3795926992759836 a2_x4
+0.65057410562144435 a2_x3
+0.65777102075967919 a2_x2
<= 62.485851038690747

a2_local_5: 
+0.6257941117943161 a2_x1
+0.41209212010096363 a2_x4
+0.66223999742861783 a2_x2
<= 73.794909766482021

a2_local_6: 
+0.3606370966657349 a2_x3
+0.74443169307690982 a2_x5
+0.56192734303569458 a2_x1
<= 105.77715627541777

a2_local_7: 
+0.44695403758900681 a2_x3
+0.57421353435983591 a2_x6
+0.68593797477677987 a2_x4
<= 112.35119026785895

a2_local_8: 
+0.45417675825293097 a2_x1
+0.8311954884109799 a2_x6
+0.78494687134830554 a2_x5
<= 121.57156279646388

a2_act_1: 
+0.0099995000374968751 a2_x1
-0.99995000374968745 a2_z1
<= 0

a2_act_2: 
+0.0099995000374968768 a2_x2
-0.99995000374968757 a2_z2
<= 0

a3_local_1: 
+0.71358288090222233 a3_x1
+0.63176022955442346 a3_x4
+0.30278455118553715 a3_x2
<= 63.469987965614031

a3_local_2: 
+0.38781087529701169 a3_x6
+0.70025373615686692 a3_x4
+0.59937253023450654 a3_x1
<= 65.660705588808852

a3_local_3: 
+0.78080195138319808 a3_x2
+0.4795159479683162 a3_x3
+0.40051562810986191 a3_x5
<= 86.885049796609522

a3_local_4: 
+0.24486722064174715 a3_x5
+0.44120520328981389 a3_x1
+0.3644555539450231 a3_x6
<= 46.986830636946642

a3_local_5: 
+0.56253379692003902 a3_x6
+0.39202186068769773 a3_x3
+0.7279248505619792 a3_x1
<= 64.080460403783235

a3_local_6: 
+0.5268372892195714 a3_x2
+0.64773196948122647 a3_x6
+0.55035058499082656 a3_x4
<= 71.162242291632211

a3_local_7: 
+0.65210837055157034 a3_x2
+0.30770131147342566 a3_x5
+0.69287414151064242 a3_x4
<= 87.701227779133248

a3_local_8: 
+0.61440012342858352 a3_x2
+0.66150209910170155 a3_x1
+0.43003193045980231 a3_x5
<= 105.99279894451459

a3_act_1: 
+0.0099995000374968734 a3_x1
-0.99995000374968745 a3_z1
<= 0

a3_act_2: 
+0.0091760250473212814 a3_x2
-0.91760250473212812 a3_z2
<= 0

a4_local_1: 
+0.68398731547087077 a4_x2
+0.30701050273891412 a4_x6
+0.6617445908225853 a4_x5
<= 108.65450007313821

a4_local_2: 
+0.2935543115536759 a4_x3
+0.74378320935682118 a4_x5
+0.60051011952099065 a4_x1
<= 94.295715234906439

a4_local_3: 
+0.46504008228414995 a4_x4
+0.66662887429837736 a4_x3
+0.58253211569906527 a4_x6
<= 105.22686396257045

a4_local_4: 
+0.73273612164256785 a4_x5
+0.47968518718265607 a4_x1
+0.4827006290007797 a4_x4
<= 81.744403272861277

a4_local_5: 
+0.44154259406591378 a4_x5
+0.79200384505297183 a4_x6
+0.42162785373697981 a4_x1
<= 101.92063285757361

a4_local_6: 
+0.60353779186966161 a4_x4
+0.60342364200718224 a4_x3
+0.52117371581065075 a4_x2
<= 72.145994422269723

a4_local_7: 
+0.49161390536252247 a4_x3
+0.78464791920210564 a4_x6
+0.37768162643424236 a4_x1
<= 100.56889343927341

a4_local_8: 
+0.54785981381314153 a4_x3
+0.56789266677678474 a4_x2
+0.61428620644597076 a4_x6
<= 65.765067917168679

a4_act_1: 
+0.0099995000374968751 a4_x1
-0.99995000374968757 a4_z1
<= 0

a4_act_2: 
+0.0099995000374968768 a4_x2
-0.99995000374968757 a4_z2
<= 0

coupling_1: 
+4.281922530552967e-05 a1_x1
+0.0011854235816260246 a2_x1
+0.022762112245123589 a3_x1
+0.50590635464652078 a4_x1
+0.0044043565705409252 short_1
-0.0044043565705409252 surp_1
= 15.469946128607607

coupling_2: 
+0.00012935937464519289 a1_x2
+0.0021397975108925042 a2_x2
+0.10715363045609239 a3_x2
+0.99391305499049087 a4_x2
+0.018032514138538371 short_2
-0.018032514138538371 surp_2
= 62.032401950540788

coupling_3: 
+5.3696601465402212e-05 a1_x3
+0.00086200777755901568 a2_x3
+0.032191037828523887 a3_x3
+0.99943339857216718 a4_x3
+0.0069236175976320358 short_3
-0.0069236175976320358 surp_3
= 36.619783081078076

bounds
  0 <= a1_x1 <= 100
  0 <= a1_x2 <= 100
  0 <= a1_x3 <= 100
  0 <= a1_x4 <= 100
  0 <= a1_x5 <= 100
  0 <= a1_x6 <= 100
  0 <= a2_x1 <= 100
  0 <= a2_x2 <= 100
  0 <= a2_x3 <= 100
  0 <= a2_x4 <= 100
  0 <= a2_x5 <= 100
  0 <= a2_x6 <= 100
  0 <= a3_x1 <= 100
  0 <= a3_x2 <= 100
  0 <= a3_x3 <= 100
  0 <= a3_x4 <= 100
  0 <= a3_x5 <= 100
  0 <= a3_x6 <= 100
  0 <= a4_x1 <= 100
  0 <= a4_x2 <= 100
  0 <= a4_x3 <= 100
  0 <= a4_x4 <= 100
  0 <= a4_x5 <= 100
  0 <= a4_x6 <= 100
  0 <= short_1 <= +inf
  0 <= surp_1 <= +inf
  0 <= short_2 <= +inf
  0 <= surp_2 <= +inf
  0 <= short_3 <= +inf
  0 <= surp_3 <= +inf
 0 <= a1_z1 <= 1
 0 <= a1_z2 <= 1
 0 <= a2_z1 <= 1
 0 <= a2_z2 <= 1
 0 <= a3_z1 <= 1
 0 <= a3_z2 <= 1
 0 <= a4_z1 <= 1
 0 <= a4_z2 <= 1

binary
  a1_z1
  a1_z2
  a2_z1
  a2_z2
  a3_z1
  a3_z2
  a4_z1
  a4_z2
end
