min
obj: 
  +7.7820756929973847 a1_x1
  +2.6204029212029933 a1_x2
  +1.0229393332967094 a1_x3
  +7.1910932224071349 a1_x4
  +4.2632745770435907 a1_x5
  +6.0246265469097295 a1_x6
  +42.771027111197313 a1_z1
  +28.114118371176183 a1_z2
  +5.7911212590182997 a2_x1
  +5.4348931719458209 a2_x2
  +9.4259627235885386 a2_x3
  +8.9213052519907556 a2_x4
  +6.1484548986939966 a2_x5
  +2.146409388681831 a2_x6
  +31.660946131309107 a2_z1
  +6.9899613369063101 a2_z2
  +2.8186252614454075 a3_x1
  +1.3641205917884647 a3_x2
  +2.33366974601915 a3_x3
  +2.4556775991065138 a3_x4
  +5.2278265061317715 a3_x5
  +6.6696189442115292 a3_x6
  +49.857919593613119 a3_z1
  +30.640944798186169 a3_z2
  +7.0994894146457632 a4_x1
  +9.5674915626052641 a4_x2
  +9.235478138695818 a4_x3
  +8.9478139676632793 a4_x4
  +7.4338997063934436 a4_x5
  +1.7960169742966061 a4_x6
  +7.4304140982629434 a4_z1
  +14.530204301669533 a4_z2
  +1000000 short_1
  +1000000 surp_1
  +1000000 short_2
  +1000000 surp_2
  +1000000 short_3
  +1000000 surp_3

s.t.

a1_local_1: 
+1.8315397585984925 a1_x4
+2.814121727773105 a1_x6
+1.3075305890834499 a1_x3
<= 297.58044819477124

a1_local_2: 
+1.182445172052152 a1_x6
+0.82897500109521427 a1_x5
+1.2063089944556025 a1_x4
<= 170.49549231429981

a1_local_3: 
+0.81859749366799972 a1_x4
+1.0800565829356825 a1_x2
+1.149175388253431 a1_x3
<= 176.79672985553736

a1_local_4: 
+1.1975852348650662 a1_x4
+0.79737307360439302 a1_x5
+1.2541180949084041 a1_x2
<= 165.56496412971396

a1_local_5: 
+0.64105595642665647 a1_x2
+1.5599262279289199 a1_x5
+0.76083161689006573 a1_x4
<= 163.84833182052031

a1_local_6: 
+0.88251366933261954 a1_x2
+1.0177165459804138 a1_x3
+0.51921984215153683 a1_x1
<= 131.14350084545279

a1_local_7: 
+0.69192169838644435 a1_x5
+1.4452502390544939 a1_x2
+0.69543377360441838 a1_x6
<= 155.42965006168427

a1_local_8: 
+0.74867955695314992 a1_x5
+1.3356849278343217 a1_x1
+0.97185828750832426 a1_x6
<= 187.78907445140598

a1_act_1: 
+0.099999999999999992 a1_x1
-9.9999999999999982 a1_z1
<= 0

a1_act_2: 
+0.10000000000000001 a1_x2
-10 a1_z2
<= 0

a2_local_1: 
+0.8184863766049435 a2_x6
+1.221767433867341 a2_x4
+1.2154331263151807 a2_x3
<= 204.87207512168263

a2_local_2: 
+0.43785517794419615 a2_x5
+0.60711463376105013 a2_x4
+0.91210502026520601 a2_x6
<= 88.793449849903581

a2_local_3: 
+1.053295926141433 a2_x4
+0.71248261481990194 a2_x5
+1.4035430187342541 a2_x3
<= 98.180901444866549

a2_local_4: 
+0.59713733734977448 a2_x5
+0.58967684947922938 a2_x6
+1.6958440896622375 a2_x4
<= 107.69926469648067

a2_local_5: 
+1.4758706106802064 a2_x4
+0.91900060824219409 a2_x2
+1.8412050572352734 a2_x3
<= 201.74983697533665

a2_local_6: 
+1.0636136801527971 a2_x5
+0.94019099101502857 a2_x4
+0.96862832615074568 a2_x3
<= 112.47033348010346

a2_local_7: 
+0.78957405229364686 a2_x1
+1.2665056521235509 a2_x6
+0.846166899810463 a2_x4
<= 202.65654554515496

a2_local_8: 
+1.2653284711531629 a2_x4
+1.1752342671408835 a2_x3
+0.79030862167247795 a2_x5
<= 123.81545050246363

a2_act_1: 
+0.099999999999999992 a2_x1
-10 a2_z1
<= 0

a2_act_2: 
+0.099999999999999992 a2_x2
-10 a2_z2
<= 0

a3_local_1: 
+0.80844359286331835 a3_x6
+1.2369446784261517 a3_x2
+1.0188631600672826 a3_x1
<= 204.64372175502464

a3_local_2: 
+1.3391728214548215 a3_x1
+0.90098794126553772 a3_x6
+0.74672961098003887 a3_x2
<= 204.88397048040224

a3_local_3: 
+0.54493461211124372 a3_x6
+1.3045755563595121 a3_x5
+0.61404917123484837 a3_x3
<= 130.62908962014237

a3_local_4: 
+1.4071386132875514 a3_x2
+0.64748981093283309 a3_x6
+1.5444258475037753 a3_x4
<= 152.65356573725967

a3_local_5: 
+0.91630918724395705 a3_x1
+1.221865868726842 a3_x5
+0.81842043844139634 a3_x3
<= 146.5641116026101

a3_local_6: 
+0.92875587504695534 a3_x5
+1.099396123360727 a3_x2
+0.90959025482381695 a3_x3
<= 151.38065309516907

a3_local_7: 
+1.0138618376477762 a3_x2
+0.82907016165493697 a3_x3
+1.2061705344742641 a3_x1
<= 162.83873564298563

a3_local_8: 
+1.4666685794256693 a3_x6
+0.6818172926235242 a3_x1
+1.1942425993688564 a3_x2
<= 152.06286997383432

a3_act_1: 
+0.10000000000000001 a3_x1
-10 a3_z1
<= 0

a3_act_2: 
+0.10000000000000001 a3_x2
-10 a3_z2
<= 0

a4_local_1: 
+0.65971910537090339 a4_x1
+1.5157966350508916 a4_x6
+0.79997380034740884 a4_x5
<= 187.95088660008858

a4_local_2: 
+1.4504425956802329 a4_x2
+0.68944472740819984 a4_x5
+1.3521735840301221 a4_x4
<= 234.77362469678138

a4_local_3: 
+1.4773854475192854 a4_x6
+1.1491747582597776 a4_x2
+0.67687142964561142 a4_x5
<= 192.3783277310468

a4_local_4: 
+1.25275092169876 a4_x6
+0.76093814043862729 a4_x3
+1.3141672717621573 a4_x4
<= 210.72092658623004

a4_local_5: 
+0.75743099510792999 a4_x5
+0.77052448154442188 a4_x2
+1.3202522823316802 a4_x3
<= 114.11962287470971

a4_local_6: 
+1.0702570922715986 a4_x1
+0.91269666176352993 a4_x5
+1.0956542758333103 a4_x4
<= 169.7687637824983

a4_local_7: 
+0.5010726892531403 a4_x6
+0.96469772413972676 a4_x3
+0.79866208517819992 a4_x2
<= 136.15036575631783

a4_local_8: 
+0.89093688456836273 a4_x3
+1.4117995056388479 a4_x6
+0.70831587346922453 a4_x4
<= 108.52129951996041

a4_act_1: 
+0.10000000000000001 a4_x1
-10 a4_z1
<= 0

a4_act_2: 
+0.10000000000000001 a4_x2
-10 a4_z2
<= 0

coupling_1: 
+0.00015114502279431791 a1_x1
+0.0040725248834117909 a2_x1
+0.070615910586559957 a3_x1
+0.99725912967501851 a4_x1
+0.015346223446041998 short_1
-0.015346223446041998 surp_1
= 75.919312275456207

coupling_2: 
+0.00014126539225177022 a1_x2
+0.0027055629199182274 a2_x2
+0.061314565508919276 a3_x2
+0.9980123660760184 a4_x2
+0.010111903608493124 short_2
-0.010111903608493124 surp_2
= 29.743466152649336

coupling_3: 
+0.00022392443114934679 a1_x3
+0.0033959149449646884 a2_x3
+0.046909687935787668 a3_x3
+0.99852611602184271 a4_x3
+0.019150645154099314 short_3
-0.019150645154099314 surp_3
= 23.5275650368079

bounds
  0 <= a1_x1 <= 100
  0 <= a1_x2 <= 100
  0 <= a1_x3 <= 100
  0 <= a1_x4 <= 100
  0 <= a1_x5 <= 100
  0 <= a1_x6 <= 100
  0 <= a2_x1 <= 100
  0 <= a2_x2 <= 100
  0 <= a2_x3 <= 100
  0 <= a2_x4 <= 100
  0 <= a2_x5 <= 100
  0 <= a2_x6 <= 100
  0 <= a3_x1 <= 100
  0 <= a3_x2 <= 100
  0 <= a3_x3 <= 100
  0 <= a3_x4 <= 100
  0 <= a3_x5 <= 100
  0 <= a3_x6 <= 100
  0 <= a4_x1 <= 100
  0 <= a4_x2 <= 100
  0 <= a4_x3 <= 100
  0 <= a4_x4 <= 100
  0 <= a4_x5 <= 100
  0 <= a4_x6 <= 100
  0 <= short_1 <= +inf
  0 <= surp_1 <= +inf
  0 <= short_2 <= +inf
  0 <= surp_2 <= +inf
  0 <= short_3 <= +inf
  0 <= surp_3 <= +inf
 0 <= a1_z1 <= 1
 0 <= a1_z2 <= 1
 0 <= a2_z1 <= 1
 0 <= a2_z2 <= 1
 0 <= a3_z1 <= 1
 0 <= a3_z2 <= 1
 0 <= a4_z1 <= 1
 0 <= a4_z2 <= 1

binary
  a1_z1
  a1_z2
  a2_z1
  a2_z2
  a3_z1
  a3_z2
  a4_z1
  a4_z2
end
