min
obj: 
  +7.7820756929973847 a1_x1
  +2.6204029212029933 a1_x2
  +1.0229393332967094 a1_x3
  +7.1910932224071349 a1_x4
  +4.2632745770435907 a1_x5
  +6.0246265469097295 a1_x6
  +42.771027111197313 a1_z1
  +28.114118371176183 a1_z2
  +5.7911212590182997 a2_x1
  +5.4348931719458209 a2_x2
  +9.4259627235885386 a2_x3
  +8.9213052519907556 a2_x4
  +6.1484548986939966 a2_x5
  +2.146409388681831 a2_x6
  +31.660946131309107 a2_z1
  +6.9899613369063101 a2_z2
  +2.8186252614454075 a3_x1
  +1.3641205917884647 a3_x2
  +2.33366974601915 a3_x3
  +2.4556775991065138 a3_x4
  +5.2278265061317715 a3_x5
  +6.6696189442115292 a3_x6
  +49.857919593613119 a3_z1
  +30.640944798186169 a3_z2
  +7.0994894146457632 a4_x1
  +9.5674915626052641 a4_x2
  +9.235478138695818 a4_x3
  +8.9478139676632793 a4_x4
  +7.4338997063934436 a4_x5
  +1.7960169742966061 a4_x6
  +7.4304140982629434 a4_z1
  +14.530204301669533 a4_z2
  +1000000 short_1
  +1000000 surp_1
  +1000000 short_2
  +1000000 surp_2
  +1000000 short_3
  +1000000 surp_3

s.t.

a1_local_1: 
+0.50830128584377532 a1_x4
+0.78099407126304754 a1_x6
+0.36287472144189664 a1_x3
<= 82.586536136739312

a1_local_2: 
+0.62841303478021882 a1_x6
+0.44056055071972733 a1_x5
+0.64109551462153114 a1_x4
<= 90.610196797227161

a1_local_3: 
+0.81859749366799972 a1_x4
+1.0800565829356825 a1_x2
+1.149175388253431 a1_x3
<= 176.79672985553736

a1_local_4: 
+0.62746166085074506 a1_x4
+0.41777488442219135 a1_x5
+0.65708143339197245 a1_x2
<= 86.74594872007529

a1_local_5: 
+0.34648194375364333 a1_x2
+0.84311871084991374 a1_x5
+0.41121904390175895 a1_x4
<= 88.557773967834507

a1_local_6: 
+0.88251366933261954 a1_x2
+1.0177165459804138 a1_x3
+0.51921984215153683 a1_x1
<= 131.14350084545279

a1_local_7: 
+0.39611970782760036 a1_x5
+0.8273943478967094 a1_x2
+0.39813034315303786 a1_x6
<= 88.982247144089214

a1_local_8: 
+0.41281788352611265 a1_x5
+0.73648948985633611 a1_x1
+0.53587743596103632 a1_x6
<= 103.5458862799003

a1_act_1: 
+0.0099995000374968768 a1_x1
-0.99995000374968757 a1_z1
<= 0

a1_act_2: 
+0.0099995000374968768 a1_x2
-0.99995000374968757 a1_z2
<= 0

a2_local_1: 
+0.42900853832239955 a2_x6
+0.64038776448239687 a2_x4
+0.6370676456607387 a2_x3
<= 107.38342384585884

a2_local_2: 
+0.43785517794419615 a2_x5
+0.60711463376105013 a2_x4
+0.91210502026520601 a2_x6
<= 88.793449849903581

a2_local_3: 
+0.55614099615882651 a2_x4
+0.37619132602491417 a2_x5
+0.74107170949583878 a2_x3
<= 51.839585607575799

a2_local_4: 
+0.31558900133435136 a2_x5
+0.31164610952493621 a2_x6
+0.8962590499709101 a2_x4
<= 56.919407419498441

a2_local_5: 
+0.5828069198387672 a2_x4
+0.36290438331361369 a2_x2
+0.72707393211406957 a2_x3
<= 79.669044301504172

a2_local_6: 
+0.61889551998623793 a2_x5
+0.54707832658473365 a2_x4
+0.56362544293370187 a2_x3
<= 65.444236776076934

a2_local_7: 
+0.46021803969222486 a2_x1
+0.73820656439537025 a2_x6
+0.49320424189723833 a2_x4
<= 118.12216707306776

a2_local_8: 
+0.66625591748106294 a2_x4
+0.61881701294173619 a2_x3
+0.41613526276360424 a2_x5
<= 65.194752551224809

a2_act_1: 
+0.0099995000374968751 a2_x1
-0.99995000374968745 a2_z1
<= 0

a2_act_2: 
+0.018008567277550406 a2_x2
-1.8008567277550407 a2_z2
<= 0

a3_local_1: 
+0.45040944646498604 a3_x6
+0.68914092811905814 a3_x2
+0.56764082986190145 a3_x1
<= 114.0134775658972

a3_local_2: 
+0.75301381339081774 a3_x1
+0.5066234578554677 a3_x6
+0.41988435168887617 a3_x2
<= 115.20578781347693

a3_local_3: 
+0.54493461211124372 a3_x6
+1.3045755563595121 a3_x5
+0.61404917123484837 a3_x3
<= 130.62908962014237

a3_local_4: 
+0.6433052393453027 a3_x2
+0.2960146099769288 a3_x6
+0.70606920320255395 a3_x4
<= 69.78902981994554

a3_local_5: 
+0.52882068558906281 a3_x1
+0.70516366679839348 a3_x5
+0.47232709589918487 a3_x3
<= 84.585132463382209

a3_local_6: 
+0.54551462774739468 a3_x5
+0.64574199000543042 a3_x2
+0.53425749714669224 a3_x3
<= 88.915034445616413

a3_local_7: 
+0.56943071577997528 a3_x2
+0.46564334315836159 a3_x3
+0.67743998767315872 a3_x1
<= 91.457607289983642

a3_local_8: 
+0.72949566772882757 a3_x6
+0.33912416760590086 a3_x1
+0.59399568155877769 a3_x2
<= 75.633450136201034

a3_act_1: 
+0.0099995000374968734 a3_x1
-0.99995000374968734 a3_z1
<= 0

a3_act_2: 
+0.019736696890857077 a3_x2
-1.9736696890857077 a3_z2
<= 0

a4_local_1: 
+0.3592212668831391 a4_x1
+0.82536095005775423 a4_x6
+0.43559084418595617 a4_x5
<= 102.3404583051064

a4_local_2: 
+0.69088349963423645 a4_x2
+0.32840043962771276 a4_x5
+0.64407541575926885 a4_x4
<= 111.82877828836618

a4_local_3: 
+0.74228054919970954 a4_x6
+0.57737814604835969 a4_x2
+0.34007949474429788 a4_x5
<= 96.656353967815207

a4_local_4: 
+0.6363613737893532 a4_x6
+0.38653465108739338 a4_x3
+0.66755911008514768 a4_x4
<= 107.04015938518988

a4_local_5: 
+0.44397761964560301 a4_x5
+0.45165252993905791 a4_x2
+0.77388233308008325 a4_x3
<= 66.892639522294431

a4_local_6: 
+0.60027196439209529 a4_x1
+0.51190150666328882 a4_x5
+0.61451640843895294 a4_x4
<= 95.217709897947444

a4_local_7: 
+0.5010726892531403 a4_x6
+0.96469772413972676 a4_x3
+0.79866208517819992 a4_x2
<= 136.15036575631783

a4_local_8: 
+0.491289632353483 a4_x3
+0.77850908644126038 a4_x6
+0.39058686546064753 a4_x4
<= 59.841937478560638

a4_act_1: 
+0.0099995000374968751 a4_x1
-0.99995000374968757 a4_z1
<= 0

a4_act_2: 
+0.0099995000374968768 a4_x2
-0.99995000374968757 a4_z2
<= 0

coupling_1: 
+0.00015114502279431791 a1_x1
+0.0040725248834117909 a2_x1
+0.070615910586559957 a3_x1
+0.99725912967501851 a4_x1
+0.015346223446041998 short_1
-0.015346223446041998 surp_1
= 75.919312275456207

coupling_2: 
+0.00014126539225177022 a1_x2
+0.0027055629199182274 a2_x2
+0.061314565508919276 a3_x2
+0.9980123660760184 a4_x2
+0.010111903608493124 short_2
-0.010111903608493124 surp_2
= 29.743466152649336

coupling_3: 
+0.00022392443114934679 a1_x3
+0.0033959149449646884 a2_x3
+0.046909687935787668 a3_x3
+0.99852611602184271 a4_x3
+0.019150645154099314 short_3
-0.019150645154099314 surp_3
= 23.5275650368079

bounds
  0 <= a1_x1 <= 100
  0 <= a1_x2 <= 100
  0 <= a1_x3 <= 100
  0 <= a1_x4 <= 100
  0 <= a1_x5 <= 100
  0 <= a1_x6 <= 100
  0 <= a2_x1 <= 100
  0 <= a2_x2 <= 100
  0 <= a2_x3 <= 100
  0 <= a2_x4 <= 100
  0 <= a2_x5 <= 100
  0 <= a2_x6 <= 100
  0 <= a3_x1 <= 100
  0 <= a3_x2 <= 100
  0 <= a3_x3 <= 100
  0 <= a3_x4 <= 100
  0 <= a3_x5 <= 100
  0 <= a3_x6 <= 100
  0 <= a4_x1 <= 100
  0 <= a4_x2 <= 100
  0 <= a4_x3 <= 100
  0 <= a4_x4 <= 100
  0 <= a4_x5 <= 100
  0 <= a4_x6 <= 100
  0 <= short_1 <= +inf
  0 <= surp_1 <= +inf
  0 <= short_2 <= +inf
  0 <= surp_2 <= +inf
  0 <= short_3 <= +inf
  0 <= surp_3 <= +inf
 0 <= a1_z1 <= 1
 0 <= a1_z2 <= 1
 0 <= a2_z1 <= 1
 0 <= a2_z2 <= 1
 0 <= a3_z1 <= 1
 0 <= a3_z2 <= 1
 0 <= a4_z1 <= 1
 0 <= a4_z2 <= 1

binary
  a1_z1
  a1_z2
  a2_z1
  a2_z2
  a3_z1
  a3_z2
  a4_z1
  a4_z2
end
