min
obj: 
  +4.6820518769511636 a1_x1
  +5.7129162548306427 a1_x2
  +9.0056358908477314 a1_x3
  +9.0172471176233611 a1_x4
  +9.406385688684578 a1_x5
  +5.7753562095118767 a1_x6
  +36.440798325108226 a1_z1
  +20.355895911925103 a1_z2
  +9.8523773325997031 a2_x1
  +8.6665660995193221 a2_x2
  +1.318348960475541 a2_x3
  +8.2691943978607085 a2_x4
  +6.0635318483155114 a2_x5
  +3.2631581910354219 a2_x6
  +31.015799445658949 a2_z1
  +42.142738976131909 a2_z2
  +3.407000856972263 a3_x1
  +9.4188250932667614 a3_x2
  +9.7490010795163791 a3_x3
  +7.0450820339939781 a3_x4
  +9.9763761898407548 a3_x5
  +5.8473553548384958 a3_x6
  +49.073547744148975 a3_z1
  +13.999141819476126 a3_z2
  +1.9143138950663818 a4_x1
  +6.1042201720531999 a4_x2
  +2.2574896326389386 a4_x3
  +5.6594666769891386 a4_x4
  +4.3520497618016583 a4_x5
  +6.7823412192640848 a4_x6
  +29.956754589694771 a4_z1
  +32.972144993024642 a4_z2
  +1000000 short_1
  +1000000 surp_1
  +1000000 short_2
  +1000000 surp_2
  +1000000 short_3
  +1000000 surp_3

s.t.

a1_local_1: 
+0.71433844523206813 a1_x4
+0.58447109877792236 a1_x2
+0.38485597352355061 a1_x6
<= 73.86513702201799

a1_local_2: 
+0.70495917278386289 a1_x3
+0.31528735967011723 a1_x4
+0.63531602021367128 a1_x5
<= 69.54675831381239

a1_local_3: 
+0.41451117236781243 a1_x1
+0.72875843443075417 a1_x3
+0.54506112705667986 a1_x6
<= 87.912395772809774

a1_local_4: 
+0.46059081302182625 a1_x2
+0.40016831925090918 a1_x1
+0.79228872213846113 a1_x5
<= 79.077828965448617

a1_local_5: 
+0.39348222751484507 a1_x2
+0.640665961047303 a1_x3
+0.65689142701698289 a1_x5
<= 72.017480238351226

a1_local_6: 
+0.66171173080293666 a1_x6
+0.46546895978685987 a1_x1
+0.58777226269425153 a1_x3
<= 89.47163065502788

a1_local_7: 
+0.45816015602561272 a1_x4
+0.37092012443569417 a1_x2
+0.34173675473953996 a1_x5
<= 61.652794368268388

a1_local_8: 
+0.62146601471376828 a1_x6
+0.60662518643990138 a1_x2
+0.49576796561752662 a1_x4
<= 107.83159953146193

a1_act_1: 
+0.0099995000374968768 a1_x1
-0.99995000374968757 a1_z1
<= 0

a1_act_2: 
+0.0099995000374968751 a1_x2
-0.99995000374968757 a1_z2
<= 0

a2_local_1: 
+0.44885746616390759 a2_x2
+0.61687916725815728 a2_x6
+0.64651919389280232 a2_x5
<= 56.772926322447439

a2_local_2: 
+0.74102737782510697 a2_x1
+0.86944847985895712 a2_x4
+1.0952349084568882 a2_x5
<= 187.88447049738218

a2_local_3: 
+0.77440698609889358 a2_x2
+0.53778542616001102 a2_x5
+0.33328764647241826 a2_x1
<= 103.86364945294807

a2_local_4: 
+0.414685421461433 a2_x6
+0.79588688361712889 a2_x4
+0.44113497901840465 a2_x5
<= 61.595230409636862

a2_local_5: 
+0.40401631066425481 a2_x5
+0.74862317746819773 a2_x3
+0.52567495553303989 a2_x6
<= 86.736840247560011

a2_local_6: 
+0.6560763388390296 a2_x6
+0.45872831625651234 a2_x4
+0.59927637153490387 a2_x1
<= 90.216060324826742

a2_local_7: 
+0.56547167327310022 a2_x3
+0.5164528005730763 a2_x6
+0.64305387916250567 a2_x1
<= 80.627763816904007

a2_local_8: 
+0.73230032493250408 a2_x5
+0.73391553561691336 a2_x3
+0.79210467918101501 a2_x6
<= 157.08072608415668

a2_act_1: 
+0.0099995000374968768 a2_x1
-0.99995000374968757 a2_z1
<= 0

a2_act_2: 
+0.0099995000374968734 a2_x2
-0.99995000374968745 a2_z2
<= 0

a3_local_1: 
+0.68812236348274247 a3_x5
+0.46521836019664287 a3_x2
+0.55682985750664571 a3_x3
<= 66.223664011684193

a3_local_2: 
+0.66844458967972231 a3_x2
+0.43932232223429896 a3_x3
+0.60014808815372422 a3_x4
<= 86.58185835990453

a3_local_3: 
+0.48779483946538571 a3_x6
+0.99149151782394573 a3_x4
+0.85111049240498637 a3_x1
<= 159.90413097106875

a3_local_4: 
+0.63608518661876168 a3_x4
+0.71580316063459859 a3_x2
+0.28813446616067034 a3_x1
<= 80.742037538558193

a3_local_5: 
+0.31567127026281788 a3_x3
+0.61740789740806823 a3_x5
+0.72052698585743979 a3_x2
<= 81.793793350045235

a3_local_6: 
+0.51119856333051328 a3_x1
+0.46311828035770103 a3_x6
+0.41651267258513985 a3_x2
<= 63.118201805458384

a3_local_7: 
+0.54666872771579833 a3_x1
+0.7293196015744855 a3_x4
+0.41139545561032176 a3_x6
<= 57.594235780629894

a3_local_8: 
+0.74222403752031085 a3_x4
+0.35370848328944027 a3_x3
+0.56920452121898302 a3_x5
<= 105.8444990780123

a3_act_1: 
+0.0099995000374968734 a3_x1
-0.99995000374968734 a3_z1
<= 0

a3_act_2: 
+0.0099995000374968751 a3_x2
-0.99995000374968745 a3_z2
<= 0

a4_local_1: 
+0.65330116758955548 a4_x3
+0.49798456092255111 a4_x5
+0.57027095446717035 a4_x2
<= 109.99703619307682

a4_local_2: 
+0.76480237003958973 a4_x3
+0.35900619022984714 a4_x2
+0.53496905532794836 a4_x6
<= 56.991539039728167

a4_local_3: 
+0.47794076805095798 a4_x5
+0.74082778083118472 a4_x6
+0.88152842175115009 a4_x3
<= 123.00563755632844

a4_local_4: 
+0.57133602830775054 a4_x3
+0.53967723445066296 a4_x6
+0.61832323696688718 a4_x1
<= 117.54805813326776

a4_local_5: 
+1.0858978135054187 a4_x3
+1.1188760107449767 a4_x6
+0.41217043973444389 a4_x5
<= 135.23845503910013

a4_local_6: 
+0.49619066165061448 a4_x3
+0.51592854986444292 a4_x4
+0.69829260251380199 a4_x6
<= 100.26213658980787

a4_local_7: 
+0.53108373222857941 a4_x6
+0.475095023234826 a4_x3
+0.70159446139465964 a4_x1
<= 115.54890986260024

a4_local_8: 
+0.45107858237145948 a4_x1
+1.0252928758550193 a4_x6
+0.78219585206833919 a4_x3
<= 119.60236354412405

a4_act_1: 
+0.019960517821429307 a4_x1
-1.9960517821429307 a4_z1
<= 0

a4_act_2: 
+0.0099995000374968751 a4_x2
-0.99995000374968768 a4_z2
<= 0

coupling_1: 
+7.5024240850425303e-05 a1_x1
+0.0010726080767610982 a2_x1
+0.022245559126674155 a3_x1
+0.99968198439213618 a4_x1
+0.0083638825977879524 short_1
-0.0083638825977879524 surp_1
= 51.627259802723664

coupling_2: 
+8.7134734147085527e-05 a1_x2
+0.00089100952700102345 a2_x2
+0.019863347679159701 a3_x2
+0.99975031445608042 a4_x2
+0.0072095309662360595 short_2
-0.0072095309662360595 surp_2
= 24.287341360054135

coupling_3: 
+6.2147865693256744e-05 a1_x3
+0.0022424252104808213 a2_x3
+0.023721250773526062 a3_x3
+0.99965082441834696 a4_x3
+0.00807772146949212 short_3
-0.00807772146949212 surp_3
= 61.674517309574341

bounds
  0 <= a1_x1 <= 100
  0 <= a1_x2 <= 100
  0 <= a1_x3 <= 100
  0 <= a1_x4 <= 100
  0 <= a1_x5 <= 100
  0 <= a1_x6 <= 100
  0 <= a2_x1 <= 100
  0 <= a2_x2 <= 100
  0 <= a2_x3 <= 100
  0 <= a2_x4 <= 100
  0 <= a2_x5 <= 100
  0 <= a2_x6 <= 100
  0 <= a3_x1 <= 100
  0 <= a3_x2 <= 100
  0 <= a3_x3 <= 100
  0 <= a3_x4 <= 100
  0 <= a3_x5 <= 100
  0 <= a3_x6 <= 100
  0 <= a4_x1 <= 100
  0 <= a4_x2 <= 100
  0 <= a4_x3 <= 100
  0 <= a4_x4 <= 100
  0 <= a4_x5 <= 100
  0 <= a4_x6 <= 100
  0 <= short_1 <= +inf
  0 <= surp_1 <= +inf
  0 <= short_2 <= +inf
  0 <= surp_2 <= +inf
  0 <= short_3 <= +inf
  0 <= surp_3 <= +inf
 0 <= a1_z1 <= 1
 0 <= a1_z2 <= 1
 0 <= a2_z1 <= 1
 0 <= a2_z2 <= 1
 0 <= a3_z1 <= 1
 0 <= a3_z2 <= 1
 0 <= a4_z1 <= 1
 0 <= a4_z2 <= 1

binary
  a1_z1
  a1_z2
  a2_z1
  a2_z2
  a3_z1
  a3_z2
  a4_z1
  a4_z2
end
