min
obj: 
  +4.6820518769511636 a1_x1
  +5.7129162548306427 a1_x2
  +9.0056358908477314 a1_x3
  +9.0172471176233611 a1_x4
  +9.406385688684578 a1_x5
  +5.7753562095118767 a1_x6
  +36.440798325108226 a1_z1
  +20.355895911925103 a1_z2
  +9.8523773325997031 a2_x1
  +8.6665660995193221 a2_x2
  +1.318348960475541 a2_x3
  +8.2691943978607085 a2_x4
  +6.0635318483155114 a2_x5
  +3.2631581910354219 a2_x6
  +31.015799445658949 a2_z1
  +42.142738976131909 a2_z2
  +3.407000856972263 a3_x1
  +9.4188250932667614 a3_x2
  +9.7490010795163791 a3_x3
  +7.0450820339939781 a3_x4
  +9.9763761898407548 a3_x5
  +5.8473553548384958 a3_x6
  +49.073547744148975 a3_z1
  +13.999141819476126 a3_z2
  +1.9143138950663818 a4_x1
  +6.1042201720531999 a4_x2
  +2.2574896326389386 a4_x3
  +5.6594666769891386 a4_x4
  +4.3520497618016583 a4_x5
  +6.7823412192640848 a4_x6
  +29.956754589694771 a4_z1
  +32.972144993024642 a4_z2
  +1000000 short_1
  +1000000 surp_1
  +1000000 short_2
  +1000000 surp_2
  +1000000 short_3
  +1000000 surp_3

s.t.

a1_local_1: 
+1.3623945454214452 a1_x4
+1.1147100401026735 a1_x2
+0.73400176429116459 a1_x6
<= 140.8764437183722

a1_local_2: 
+1.4953012733070603 a1_x3
+0.66876155183655095 a1_x4
+1.3475799601647835 a1_x5
<= 147.51684959336777

a1_local_3: 
+0.75418227837105545 a1_x1
+1.3259394030842011 a1_x3
+0.99171137006251409 a1_x6
<= 159.95219275335529

a1_local_4: 
+0.81799788854876532 a1_x2
+0.71068903451150744 a1_x1
+1.407085168673456 a1_x5
<= 140.44026779512009

a1_local_5: 
+0.39348222751484507 a1_x2
+0.640665961047303 a1_x3
+0.65689142701698289 a1_x5
<= 72.017480238351226

a1_local_6: 
+1.1923096376581668 a1_x6
+0.83870830899607152 a1_x1
+1.059081320363066 a1_x3
<= 161.21504661483957

a1_local_7: 
+1.1578780300237648 a1_x4
+0.93740203579326931 a1_x2
+0.86364882489347805 a1_x5
<= 155.81105242290016

a1_local_8: 
+1.1196169416042347 a1_x6
+1.0928800929762152 a1_x2
+0.89316261914289874 a1_x4
<= 194.2665935341827

a1_act_1: 
+0.099999999999999992 a1_x1
-10 a1_z1
<= 0

a1_act_2: 
+0.099999999999999992 a1_x2
-10 a1_z2
<= 0

a2_local_1: 
+0.83322734713048541 a2_x2
+1.1451309842908612 a2_x6
+1.2001526395453239 a2_x5
<= 105.38925684531954

a2_local_2: 
+0.74102737782510697 a2_x1
+0.86944847985895712 a2_x4
+1.0952349084568882 a2_x5
<= 187.88447049738218

a2_local_3: 
+1.5243160512059697 a2_x2
+1.0585583187077072 a2_x5
+0.65603192934224197 a2_x1
<= 204.44163190663792

a2_local_4: 
+1.2161017279571626 a2_x6
+2.3340087795086557 a2_x4
+1.2936673981834721 a2_x5
<= 180.63346878965567

a2_local_5: 
+0.73462857105759261 a2_x5
+1.361232110208253 a2_x3
+0.95584220545224485 a2_x6
<= 157.71482320689694

a2_local_6: 
+1.1959125218165829 a2_x6
+0.83618156157526224 a2_x4
+1.0923761067433322 a2_x1
<= 164.44811346548468

a2_local_7: 
+0.98123234262351189 a2_x3
+0.89617254994848894 a2_x6
+1.1158565390755153 a2_x1
<= 139.90898803581055

a2_local_8: 
+0.73230032493250408 a2_x5
+0.73391553561691336 a2_x3
+0.79210467918101501 a2_x6
<= 157.08072608415668

a2_act_1: 
+0.10000000000000001 a2_x1
-10 a2_z1
<= 0

a2_act_2: 
+0.10000000000000001 a2_x2
-10.000000000000002 a2_z2
<= 0

a3_local_1: 
+1.2161983589985281 a3_x5
+0.82223429476047383 a3_x2
+0.98414990542296288 a3_x3
<= 117.04475217204607

a3_local_2: 
+1.233505445120004 a3_x2
+0.81069767787098268 a3_x3
+1.1074753929427099 a3_x4
<= 159.77269527564403

a3_local_3: 
+0.48779483946538571 a3_x6
+0.99149151782394573 a3_x4
+0.85111049240498637 a3_x1
<= 159.90413097106875

a3_local_4: 
+1.4006217636003986 a3_x4
+1.5761560028903203 a3_x2
+0.63445496395421641 a3_x1
<= 177.78916628304535

a3_local_5: 
+0.6619000340105089 a3_x3
+1.2945818856195492 a3_x5
+1.5108021583575313 a3_x2
<= 171.50535921488452

a3_local_6: 
+1.1078493380353669 a3_x1
+1.0036516475783526 a3_x6
+0.9026498149769856 a3_x2
<= 136.78727426890234

a3_local_7: 
+0.99801149312313953 a3_x1
+1.3314632932684043 a3_x4
+0.75105337492650959 a3_x6
<= 105.14541317716474

a3_local_8: 
+1.4485876210779118 a3_x4
+0.69032758905939562 a3_x3
+1.1109080029988048 a3_x5
<= 206.57513550200181

a3_act_1: 
+0.099999999999999992 a3_x1
-10 a3_z1
<= 0

a3_act_2: 
+0.10000000000000001 a3_x2
-10 a3_z2
<= 0

a4_local_1: 
+1.1453778440132709 a4_x3
+0.87307433544909174 a4_x5
+0.99980797331340965 a4_x2
<= 192.84852746785486

a4_local_2: 
+1.4595656838598428 a4_x3
+0.68513531871719924 a4_x2
+1.0209467251561628 a4_x6
<= 108.76390805174915

a4_local_3: 
+0.47794076805095798 a4_x5
+0.74082778083118472 a4_x6
+0.88152842175115009 a4_x3
<= 123.00563755632844

a4_local_4: 
+0.98904665465250396 a4_x3
+0.93424173670005262 a4_x6
+1.0703867754102059 a4_x1
<= 203.48885401461629

a4_local_5: 
+1.0858978135054187 a4_x3
+1.1188760107449767 a4_x6
+0.41217043973444389 a4_x5
<= 135.23845503910013

a4_local_6: 
+0.84295729347153869 a4_x3
+0.87648915554291329 a4_x4
+1.1862997185559838 a4_x6
<= 170.33109614813625

a4_local_7: 
+0.91987683469109616 a4_x6
+0.82290019375446899 a4_x3
+1.2152141992305481 a4_x1
<= 200.13937352286993

a4_local_8: 
+0.45107858237145948 a4_x1
+1.0252928758550193 a4_x6
+0.78219585206833919 a4_x3
<= 119.60236354412405

a4_act_1: 
+0.10000000000000001 a4_x1
-10.000000000000002 a4_z1
<= 0

a4_act_2: 
+0.099999999999999978 a4_x2
-9.9999999999999982 a4_z2
<= 0

coupling_1: 
+7.5024240850425303e-05 a1_x1
+0.0010726080767610982 a2_x1
+0.022245559126674155 a3_x1
+0.99968198439213618 a4_x1
+0.0083638825977879524 short_1
-0.0083638825977879524 surp_1
= 51.627259802723664

coupling_2: 
+8.7134734147085527e-05 a1_x2
+0.00089100952700102345 a2_x2
+0.019863347679159701 a3_x2
+0.99975031445608042 a4_x2
+0.0072095309662360595 short_2
-0.0072095309662360595 surp_2
= 24.287341360054135

coupling_3: 
+6.2147865693256744e-05 a1_x3
+0.0022424252104808213 a2_x3
+0.023721250773526062 a3_x3
+0.99965082441834696 a4_x3
+0.00807772146949212 short_3
-0.00807772146949212 surp_3
= 61.674517309574341

bounds
  0 <= a1_x1 <= 100
  0 <= a1_x2 <= 100
  0 <= a1_x3 <= 100
  0 <= a1_x4 <= 100
  0 <= a1_x5 <= 100
  0 <= a1_x6 <= 100
  0 <= a2_x1 <= 100
  0 <= a2_x2 <= 100
  0 <= a2_x3 <= 100
  0 <= a2_x4 <= 100
  0 <= a2_x5 <= 100
  0 <= a2_x6 <= 100
  0 <= a3_x1 <= 100
  0 <= a3_x2 <= 100
  0 <= a3_x3 <= 100
  0 <= a3_x4 <= 100
  0 <= a3_x5 <= 100
  0 <= a3_x6 <= 100
  0 <= a4_x1 <= 100
  0 <= a4_x2 <= 100
  0 <= a4_x3 <= 100
  0 <= a4_x4 <= 100
  0 <= a4_x5 <= 100
  0 <= a4_x6 <= 100
  0 <= short_1 <= +inf
  0 <= surp_1 <= +inf
  0 <= short_2 <= +inf
  0 <= surp_2 <= +inf
  0 <= short_3 <= +inf
  0 <= surp_3 <= +inf
 0 <= a1_z1 <= 1
 0 <= a1_z2 <= 1
 0 <= a2_z1 <= 1
 0 <= a2_z2 <= 1
 0 <= a3_z1 <= 1
 0 <= a3_z2 <= 1
 0 <= a4_z1 <= 1
 0 <= a4_z2 <= 1

binary
  a1_z1
  a1_z2
  a2_z1
  a2_z2
  a3_z1
  a3_z2
  a4_z1
  a4_z2
end
