min
obj: 
  +2.8670230128866887 a1_x1
  +4.6121734767481746 a1_x2
  +8.3726653944305163 a1_x3
  +3.8874111784256438 a1_x4
  +3.5735214707131471 a1_x5
  +7.9063268225890937 a1_x6
  +32.521673256282952 a1_z1
  +46.9551209495583 a1_z2
  +1.341622492975389 a2_x1
  +5.0417707846324316 a2_x2
  +1.1098914253226899 a2_x3
  +7.5349912767704339 a2_x4
  +4.7451420176434915 a2_x5
  +4.9227196469025021 a2_x6
  +7.3717597202086891 a2_z1
  +32.23919956008293 a2_z2
  +7.1988333719011539 a3_x1
  +9.6965932883206509 a3_x2
  +2.6814504435085222 a3_x3
  +4.7418198986047297 a3_x4
  +5.4039251046059666 a3_x5
  +9.8502537099383343 a3_x6
  +17.992052798317559 a3_z1
  +28.73085531973274 a3_z2
  +5.3817190254650331 a4_x1
  +3.7297540390479749 a4_x2
  +6.6577904747627379 a4_x3
  +5.4304281417402382 a4_x4
  +9.7175944926778737 a4_x5
  +8.0479454867151716 a4_x6
  +7.8471654550187315 a4_z1
  +24.374477793367895 a4_z2
  +1000000 short_1
  +1000000 surp_1
  +1000000 short_2
  +1000000 surp_2
  +1000000 short_3
  +1000000 surp_3

s.t.

a1_local_1: 
+0.75472573801036924 a1_x3
+1.3249846263839233 a1_x1
+1.1772694049299153 a1_x2
<= 195.87654231011962

a1_local_2: 
+1.2031196616718665 a1_x4
+0.90361891902783409 a1_x6
+0.83117251912448209 a1_x2
<= 110.08493802765285

a1_local_3: 
+1.4577882851730786 a1_x3
+0.68597066540514362 a1_x4
+0.73088131078761542 a1_x1
<= 187.59801785197286

a1_local_4: 
+0.71429763416320857 a1_x3
+0.64985684548949629 a1_x6
+1.7556955981250757 a1_x1
<= 170.9515927094746

a1_local_5: 
+0.83167637709024866 a1_x5
+1.2023907706729127 a1_x1
+1.129227689859529 a1_x3
<= 161.33248219939509

a1_local_6: 
+1.1562019475051259 a1_x6
+0.93250323884611419 a1_x3
+0.86490080920363333 a1_x1
<= 134.95456953701813

a1_local_7: 
+0.71609576170327016 a1_x4
+0.97837169858689776 a1_x3
+0.89410753701294177 a1_x6
<= 89.630277240267674

a1_local_8: 
+0.91465463065916675 a1_x6
+1.12884328451427 a1_x3
+0.88586255835351846 a1_x2
<= 107.68454446858946

a1_act_1: 
+0.10000000000000001 a1_x1
-10 a1_z1
<= 0

a1_act_2: 
+0.10000000000000001 a1_x2
-10.000000000000002 a1_z2
<= 0

a2_local_1: 
+0.80143586396699218 a2_x3
+1.2477604821053854 a2_x1
+1.0357985828002232 a2_x4
<= 139.46428594288736

a2_local_2: 
+1.2640844113347434 a2_x3
+0.79108641087038067 a2_x4
+0.9166841882701553 a2_x1
<= 193.36213054034604

a2_local_3: 
+0.73450215460200563 a2_x2
+1.0235462810180607 a2_x5
+1.3614663942570135 a2_x6
<= 190.73097966050116

a2_local_4: 
+0.61744952113381302 a2_x3
+0.54366933526785399 a2_x4
+0.42519277729496358 a2_x2
<= 95.460727665912259

a2_local_5: 
+0.97698986974733637 a2_x3
+1.4959252004728403 a2_x5
+1.8336126116348419 a2_x6
<= 269.45787478977638

a2_local_6: 
+0.65532467351982349 a2_x2
+1.5259611615550595 a2_x5
+0.81324738353424653 a2_x1
<= 201.11392634011281

a2_local_7: 
+0.99022260351144298 a2_x6
+1.570231313617735 a2_x2
+1.0626723900481951 a2_x5
<= 176.47304758548054

a2_local_8: 
+0.89561606987628661 a2_x2
+1.201402183111101 a2_x4
+0.8323607315332503 a2_x6
<= 191.79833654773432

a2_act_1: 
+0.099999999999999992 a2_x1
-10 a2_z1
<= 0

a2_act_2: 
+0.10000000000000001 a2_x2
-10.000000000000002 a2_z2
<= 0

a3_local_1: 
+0.86880209205202519 a3_x6
+1.1913460022752422 a3_x2
+0.8744727827354587 a3_x1
<= 150.31289062445794

a3_local_2: 
+1.2072508971605413 a3_x3
+0.82832823098496222 a3_x1
+0.96282836761533941 a3_x4
<= 172.85837826659764

a3_local_3: 
+1.0224101848897671 a3_x4
+0.82643913357730192 a3_x1
+1.2100104646199739 a3_x6
<= 178.26601003975492

a3_local_4: 
+1.1841687612627603 a3_x1
+1.1921296992425843 a3_x3
+0.83883490247357073 a3_x5
<= 117.93568821226447

a3_local_5: 
+0.59863986406980207 a3_x5
+1.270854499928032 a3_x4
+1.670453406162405 a3_x6
<= 152.73533086485199

a3_local_6: 
+0.76733689581740516 a3_x2
+1.268238220409037 a3_x3
+1.3032085456216078 a3_x6
<= 178.51091042586629

a3_local_7: 
+1.200640685994802 a3_x4
+0.69594678063841831 a3_x1
+1.4368914805276667 a3_x2
<= 179.02285078260152

a3_local_8: 
+1.4574321732654951 a3_x2
+0.68613827685676709 a3_x1
+1.0737263195337501 a3_x5
<= 105.29182547463812

a3_act_1: 
+0.10000000000000001 a3_x1
-10 a3_z1
<= 0

a3_act_2: 
+0.099999999999999992 a3_x2
-9.9999999999999982 a3_z2
<= 0

a4_local_1: 
+0.74796130182463094 a4_x1
+1.3369675644455503 a4_x4
+1.0040065975893777 a4_x3
<= 123.78675764172856

a4_local_2: 
+1.1768083834065992 a4_x1
+0.8497560130437054 a4_x6
+0.87646179667627655 a4_x3
<= 136.19792688034917

a4_local_3: 
+1.0771910329680101 a4_x2
+0.67935411715235661 a4_x5
+1.4719863687463794 a4_x1
<= 183.99945455645155

a4_local_4: 
+0.81124402459131406 a4_x5
+0.8383192066433941 a4_x4
+1.2326747189340188 a4_x3
<= 124.58661322045069

a4_local_5: 
+0.69082944963965465 a4_x1
+1.2521136485244224 a4_x4
+1.4475352788182558 a4_x2
<= 137.28956165673947

a4_local_6: 
+1.1374157169987704 a4_x4
+1.3509815986545362 a4_x2
+0.74020253199297159 a4_x6
<= 164.53361483426207

a4_local_7: 
+0.88127640658120243 a4_x2
+0.9405899672845609 a4_x1
+1.1347177713282603 a4_x3
<= 142.3323468047634

a4_local_8: 
+1.1863461384952076 a4_x1
+0.74023993197972593 a4_x2
+1.3509133414696526 a4_x5
<= 213.58129372300101

a4_act_1: 
+0.099999999999999992 a4_x1
-10 a4_z1
<= 0

a4_act_2: 
+0.10000000000000001 a4_x2
-10 a4_z2
<= 0

coupling_1: 
+0.00012069809948715896 a1_x1
+0.0021643594291449434 a2_x1
+0.045802836479226644 a3_x1
+0.99888115175497449 a4_x1
+0.0081806423752377282 short_1
-0.0081806423752377282 surp_1
= 26.208921981108386

coupling_2: 
+8.7859289471484299e-05 a1_x2
+0.0022515443790108863 a2_x2
+0.068368591859801944 a3_x2
+0.99748559353100164 a4_x2
+0.013098648286509305 short_2
-0.013098648286509305 surp_2
= 24.238536995137853

coupling_3: 
+0.00022530861035332281 a1_x3
+0.0047056100385552855 a2_x3
+0.076075896452851482 a3_x3
+0.9968551207209152 a4_x3
+0.015331874340399215 short_3
-0.015331874340399215 surp_3
= 22.192835642616092

bounds
  0 <= a1_x1 <= 100
  0 <= a1_x2 <= 100
  0 <= a1_x3 <= 100
  0 <= a1_x4 <= 100
  0 <= a1_x5 <= 100
  0 <= a1_x6 <= 100
  0 <= a2_x1 <= 100
  0 <= a2_x2 <= 100
  0 <= a2_x3 <= 100
  0 <= a2_x4 <= 100
  0 <= a2_x5 <= 100
  0 <= a2_x6 <= 100
  0 <= a3_x1 <= 100
  0 <= a3_x2 <= 100
  0 <= a3_x3 <= 100
  0 <= a3_x4 <= 100
  0 <= a3_x5 <= 100
  0 <= a3_x6 <= 100
  0 <= a4_x1 <= 100
  0 <= a4_x2 <= 100
  0 <= a4_x3 <= 100
  0 <= a4_x4 <= 100
  0 <= a4_x5 <= 100
  0 <= a4_x6 <= 100
  0 <= short_1 <= +inf
  0 <= surp_1 <= +inf
  0 <= short_2 <= +inf
  0 <= surp_2 <= +inf
  0 <= short_3 <= +inf
  0 <= surp_3 <= +inf
 0 <= a1_z1 <= 1
 0 <= a1_z2 <= 1
 0 <= a2_z1 <= 1
 0 <= a2_z2 <= 1
 0 <= a3_z1 <= 1
 0 <= a3_z2 <= 1
 0 <= a4_z1 <= 1
 0 <= a4_z2 <= 1

binary
  a1_z1
  a1_z2
  a2_z1
  a2_z2
  a3_z1
  a3_z2
  a4_z1
  a4_z2
end
