min
obj: 
  +2.8670230128866887 a1_x1
  +4.6121734767481746 a1_x2
  +8.3726653944305163 a1_x3
  +3.8874111784256438 a1_x4
  +3.5735214707131471 a1_x5
  +7.9063268225890937 a1_x6
  +32.521673256282952 a1_z1
  +46.9551209495583 a1_z2
  +1.341622492975389 a2_x1
  +5.0417707846324316 a2_x2
  +1.1098914253226899 a2_x3
  +7.5349912767704339 a2_x4
  +4.7451420176434915 a2_x5
  +4.9227196469025021 a2_x6
  +7.3717597202086891 a2_z1
  +32.23919956008293 a2_z2
  +7.1988333719011539 a3_x1
  +9.6965932883206509 a3_x2
  +2.6814504435085222 a3_x3
  +4.7418198986047297 a3_x4
  +5.4039251046059666 a3_x5
  +9.8502537099383343 a3_x6
  +17.992052798317559 a3_z1
  +28.73085531973274 a3_z2
  +5.3817190254650331 a4_x1
  +3.7297540390479749 a4_x2
  +6.6577904747627379 a4_x3
  +5.4304281417402382 a4_x4
  +9.7175944926778737 a4_x5
  +8.0479454867151716 a4_x6
  +7.8471654550187315 a4_z1
  +24.374477793367895 a4_z2
  +1000000 short_1
  +1000000 surp_1
  +1000000 short_2
  +1000000 surp_2
  +1000000 short_3
  +1000000 surp_3

s.t.

a1_local_1: 
+0.31370816797662709 a1_x3
+0.55074112198143366 a1_x1
+0.48934203464308457 a1_x2
<= 81.41774971090183

a1_local_2: 
+4.3041855446562405 a1_x4
+3.2327154256234438 a1_x6
+2.973536927290966 a1_x2
<= 393.83114916812877

a1_local_3: 
+0.57794778380968848 a1_x3
+0.27195665506551264 a1_x4
+0.28976171512276283 a1_x1
<= 74.374214532644231

a1_local_4: 
+0.71429763416320857 a1_x3
+0.64985684548949629 a1_x6
+1.7556955981250757 a1_x1
<= 170.9515927094746

a1_local_5: 
+0.00012738701088960955 a1_x5
+0.0001841689513091164 a1_x1
+0.00017296263785712265 a1_x3
<= 0.024711129512521836

a1_local_6: 
+0.00040202549260403344 a1_x6
+0.00032424272832346499 a1_x3
+0.0003007365405533329 a1_x1
<= 0.046925346747908381

a1_local_7: 
+0.71609576170327016 a1_x4
+0.97837169858689776 a1_x3
+0.89410753701294177 a1_x6
<= 89.630277240267674

a1_local_8: 
+0.024114937725460243 a1_x6
+0.029762037599096257 a1_x3
+0.023355832586357324 a1_x2
<= 2.8391110664176509

a1_act_1: 
+0.25200442742436469 a1_x1
-25.200442742436469 a1_z1
<= 0

a1_act_2: 
+0.0023956323094759925 a1_x2
-0.23956323094759926 a1_z2
<= 0

a2_local_1: 
+6.635655541313251 a2_x3
+10.331093390718662 a2_x1
+8.5761105968247406 a2_x4
<= 1154.7236696539089

a2_local_2: 
+13.586499042456472 a2_x3
+8.5026717103819589 a2_x4
+9.8526085239962331 a2_x1
<= 2078.2745027761175

a2_local_3: 
+0.0069838562806754274 a2_x2
+0.0097321703938680858 a2_x5
+0.012945211350145721 a2_x6
<= 1.8135246328081103

a2_local_4: 
+0.61744952113381302 a2_x3
+0.54366933526785399 a2_x4
+0.42519277729496358 a2_x2
<= 95.460727665912259

a2_local_5: 
+0.97698986974733637 a2_x3
+1.4959252004728403 a2_x5
+1.8336126116348419 a2_x6
<= 269.45787478977638

a2_local_6: 
+0.039810327675047677 a2_x2
+0.092700635754508376 a2_x5
+0.049403976574665269 a2_x1
<= 12.217472698856195

a2_local_7: 
+0.99022260351144298 a2_x6
+1.570231313617735 a2_x2
+1.0626723900481951 a2_x5
<= 176.47304758548054

a2_local_8: 
+0.00037732024572423902 a2_x2
+0.00050614697769741333 a2_x4
+0.00035067096975684685 a2_x6
<= 0.080804038594001495

a2_act_1: 
+0.01261907309766582 a2_x1
-1.2619073097665821 a2_z1
<= 0

a2_act_2: 
+11.896907803758472 a2_x2
-1189.6907803758472 a2_z2
<= 0

a3_local_1: 
+0.86880209205202519 a3_x6
+1.1913460022752422 a3_x2
+0.8744727827354587 a3_x1
<= 150.31289062445794

a3_local_2: 
+0.027786315864112426 a3_x3
+0.019064959835145952 a3_x1
+0.022160640516740802 a3_x4
<= 3.9785412539935257

a3_local_3: 
+18.214640643051158 a3_x4
+14.72333908047689 a3_x1
+21.556813608777247 a3_x6
<= 3175.8792701138559

a3_local_4: 
+19.393492682597589 a3_x1
+19.523871390015685 a3_x3
+13.737854835556579 a3_x5
<= 1931.4687071483625

a3_local_5: 
+6.1108837286082158 a3_x5
+12.972814794260366 a3_x4
+17.051899066190078 a3_x6
<= 1559.1140921026049

a3_local_6: 
+14.771623576878172 a3_x2
+24.414227570454347 a3_x3
+25.08742402851184 a3_x6
<= 3436.4253661591006

a3_local_7: 
+991.89715807632342 a3_x4
+574.94939321971481 a3_x1
+1187.0733622678881 a3_x2
<= 147897.91733140795

a3_local_8: 
+33.849829939466197 a3_x2
+15.936017066592509 a3_x1
+24.93800671101657 a3_x5
<= 2445.4725590054568

a3_act_1: 
+2.3440032900611438 a3_x1
-234.40032900611439 a3_z1
<= 0

a3_act_2: 
+0.005476320375614168 a3_x2
-0.54763203756141676 a3_z2
<= 0

a4_local_1: 
+1053.0773240933129 a4_x1
+1882.3570440492938 a4_x4
+1413.5712350120357 a4_x3
<= 174283.11755907236

a4_local_2: 
+244.89170086750636 a4_x1
+176.83269280786885 a4_x6
+182.39011818739246 a4_x3
<= 28342.542795119531

a4_local_3: 
+5.2048023159280383 a4_x2
+3.2825225740575217 a4_x5
+7.1123856647376895 a4_x1
<= 889.05380558747709

a4_local_4: 
+0.31849774985330731 a4_x5
+0.32912757799262754 a4_x4
+0.48395317855108744 a4_x3
<= 48.913218180618337

a4_local_5: 
+14412.851371892399 a4_x1
+26122.985819891892 a4_x4
+30200.088951130856 a4_x2
<= 2864287.3405338698

a4_local_6: 
+314.04589519904255 a4_x4
+373.01245200514148 a4_x2
+204.37344351254643 a4_x6
<= 45428.514472528746

a4_local_7: 
+378.81864533931792 a4_x2
+404.31471280249167 a4_x1
+487.76098595964646 a4_x3
<= 61181.879376204939

a4_local_8: 
+82.241664512163965 a4_x1
+51.316021664304195 a4_x2
+93.650038727379709 a4_x5
<= 14806.202451774541

a4_act_1: 
+0.35260508522758999 a4_x1
-35.260508522758997 a4_z1
<= 0

a4_act_2: 
+0.020833612785398137 a4_x2
-2.0833612785398135 a4_z2
<= 0

coupling_1: 
+5.757027050012959 a1_x1
+103.2350619643658 a2_x1
+2184.6919686277397 a3_x1
+47644.377457768423 a4_x1
+390.19818572815569 short_1
-390.19818572815569 surp_1
= 1250106.4510379706

coupling_2: 
+0.0095799392791436292 a1_x2
+0.2455023090326961 a2_x2
+7.4547263306748315 a3_x2
+108.7631310852906 a4_x2
+1.4282411794867198 short_2
-1.4282411794867198 surp_2
= 2642.9045127215759

coupling_3: 
+0.064167929036325289 a1_x3
+1.3401585077158253 a2_x3
+21.666427737964217 a3_x3
+283.90450123325172 a4_x3
+4.3665203168480877 short_3
-4.3665203168480877 surp_3
= 6320.5232165652033

bounds
  0 <= a1_x1 <= 100
  0 <= a1_x2 <= 100
  0 <= a1_x3 <= 100
  0 <= a1_x4 <= 100
  0 <= a1_x5 <= 100
  0 <= a1_x6 <= 100
  0 <= a2_x1 <= 100
  0 <= a2_x2 <= 100
  0 <= a2_x3 <= 100
  0 <= a2_x4 <= 100
  0 <= a2_x5 <= 100
  0 <= a2_x6 <= 100
  0 <= a3_x1 <= 100
  0 <= a3_x2 <= 100
  0 <= a3_x3 <= 100
  0 <= a3_x4 <= 100
  0 <= a3_x5 <= 100
  0 <= a3_x6 <= 100
  0 <= a4_x1 <= 100
  0 <= a4_x2 <= 100
  0 <= a4_x3 <= 100
  0 <= a4_x4 <= 100
  0 <= a4_x5 <= 100
  0 <= a4_x6 <= 100
  0 <= short_1 <= +inf
  0 <= surp_1 <= +inf
  0 <= short_2 <= +inf
  0 <= surp_2 <= +inf
  0 <= short_3 <= +inf
  0 <= surp_3 <= +inf
 0 <= a1_z1 <= 1
 0 <= a1_z2 <= 1
 0 <= a2_z1 <= 1
 0 <= a2_z2 <= 1
 0 <= a3_z1 <= 1
 0 <= a3_z2 <= 1
 0 <= a4_z1 <= 1
 0 <= a4_z2 <= 1

binary
  a1_z1
  a1_z2
  a2_z1
  a2_z2
  a3_z1
  a3_z2
  a4_z1
  a4_z2
end
