min
obj: 
  +4.0092711480649195 a1_x1
  +1.9679731558453351 a1_x2
  +5.1245063990813229 a1_x3
  +5.3289660462088069 a1_x4
  +7.7326436197250805 a1_x5
  +5.1395422066191525 a1_x6
  +7.4601303692563201 a1_z1
  +49.872667351617643 a1_z2
  +9.3684343534405965 a2_x1
  +1.0573707236444929 a2_x2
  +6.6071911877442115 a2_x3
  +2.1574642417771144 a2_x4
  +4.0288495580936399 a2_x5
  +6.5816021448275457 a2_x6
  +37.186317612242192 a2_z1
  +14.569927030673126 a2_z2
  +7.5771846442232071 a3_x1
  +6.3254671996139473 a3_x2
  +1.3182946718516668 a3_x3
  +2.4508427443497842 a3_x4
  +7.5821505201430535 a3_x5
  +8.0396019839617026 a3_x6
  +34.570982164584187 a3_z1
  +17.019236119633661 a3_z2
  +9.6576292080467585 a4_x1
  +1.0103892115093069 a4_x2
  +8.2624531172852755 a4_x3
  +1.8717492610420641 a4_x4
  +5.7231033614351237 a4_x5
  +2.0382344427317065 a4_x6
  +33.41705432517788 a4_z1
  +11.211459891146486 a4_z2
  +1000000 short_1
  +1000000 surp_1
  +1000000 short_2
  +1000000 surp_2
  +1000000 short_3
  +1000000 surp_3

s.t.

a1_local_1: 
+8.1484865006639708 a1_x3
+3.4618784076617555 a1_x6
+5.5081002916895923 a1_x4
<= 647.08723034614582

a1_local_2: 
+0.0016390586869488378 a1_x4
+0.00090804936418230711 a1_x6
+0.00063459912200381418 a1_x2
<= 0.18036940155593834

a1_local_3: 
+0.048859375753669408 a1_x6
+0.082628488203111999 a1_x4
+0.043185242516596493 a1_x1
<= 11.089236174661552

a1_local_4: 
+5.3665171784237469 a1_x2
+6.3353613472461747 a1_x5
+6.2227563456439947 a1_x3
<= 1209.8501045269663

a1_local_5: 
+0.86321235140881292 a1_x1
+0.39148292125567247 a1_x4
+0.54949594281904979 a1_x2
<= 123.48788312630353

a1_local_6: 
+0.00082880355386342791 a1_x1
+0.00084960793215290494 a1_x3
+0.00043307477999765298 a1_x6
<= 0.13181508613651144

a1_local_7: 
+7.0076781639280989 a1_x2
+11.302460369355533 a1_x5
+8.927165922671195 a1_x4
<= 1515.1829191715985

a1_local_8: 
+0.0027205734071022621 a1_x4
+0.00424135248729545 a1_x5
+0.0017210280028577996 a1_x6
<= 0.44989899084601837

a1_act_1: 
+31.827979240727029 a1_x1
-3182.7979240727027 a1_z1
<= 0

a1_act_2: 
+0.019957419963247 a1_x2
-1.9957419963247001 a1_z2
<= 0

a2_local_1: 
+0.0058587544805554018 a2_x4
+0.011053074404988088 a2_x2
+0.0088658615852979083 a2_x6
<= 1.4875180307325282

a2_local_2: 
+2.0469507122925328 a2_x1
+2.8244555491463914 a2_x4
+1.8046208511895696 a2_x5
<= 428.82153036044372

a2_local_3: 
+0.08625107340745114 a2_x4
+0.063754635048324126 a2_x5
+0.12460340173945192 a2_x3
<= 17.543690782406991

a2_local_4: 
+0.0046699436957863888 a2_x2
+0.0031608350401688516 a2_x1
+0.0044822833192635584 a2_x5
<= 0.56289802854738347

a2_local_5: 
+0.075287686382787045 a2_x2
+0.04747158750535134 a2_x3
+0.088172604799726342 a2_x6
<= 11.892548996440512

a2_local_6: 
+36.615136201793611 a2_x6
+26.27865593169934 a2_x5
+41.95339799979223 a2_x2
<= 5841.6771719356902

a2_local_7: 
+1.064534203734907 a2_x2
+0.7264816806959612 a2_x5
+0.76796464257419828 a2_x6
<= 170.62213198988786

a2_local_8: 
+132.83327918499924 a2_x2
+109.17814801958524 a2_x4
+94.808739578082495 a2_x5
<= 22366.095121368613

a2_act_1: 
+71.802502317585123 a2_x1
-7180.2502317585122 a2_z1
<= 0

a2_act_2: 
+822.12451377479601 a2_x2
-82212.451377479607 a2_z2
<= 0

a3_local_1: 
+44.653023692238271 a3_x1
+37.140643878807509 a3_x2
+69.098737786417374 a3_x6
<= 6814.870941131966

a3_local_2: 
+0.079831250217416591 a3_x2
+0.065964284392853331 a3_x1
+0.13617776160753833 a3_x6
<= 12.139559740684014

a3_local_3: 
+3.686394550416523 a3_x1
+2.8476635191327104 a3_x5
+5.746267704506435 a3_x2
<= 636.08557444956887

a3_local_4: 
+0.50802046558172975 a3_x4
+0.77298007527695589 a3_x6
+0.72781144339956616 a3_x5
<= 128.99142295598361

a3_local_5: 
+0.14355381820955815 a3_x4
+0.21083964301779926 a3_x1
+0.14000903089184813 a3_x5
<= 16.089484407001695

a3_local_6: 
+1.7612554322170899 a3_x5
+0.99891255183297811 a3_x6
+0.9064642274177912 a3_x1
<= 216.09414803898505

a3_local_7: 
+0.93849311759407572 a3_x6
+1.1585620800072616 a3_x1
+1.3375365392257925 a3_x4
<= 215.45688375434523

a3_local_8: 
+0.1997109686869033 a3_x3
+0.25625276465116759 a3_x1
+0.16392253804863027 a3_x6
<= 25.250723960475369

a3_act_1: 
+828.65138942756585 a3_x1
-82865.138942756588 a3_z1
<= 0

a3_act_2: 
+0.011341287366947634 a3_x2
-1.1341287366947634 a3_z2
<= 0

a4_local_1: 
+1340.099106624127 a4_x3
+1301.8459290908911 a4_x2
+1817.0733036052573 a4_x5
<= 265705.657619056

a4_local_2: 
+74.662739026327387 a4_x2
+147.20699717743352 a4_x5
+172.58141493580843 a4_x3
<= 27290.499207455519

a4_local_3: 
+37.224738896571893 a4_x4
+17.393530686301233 a4_x5
+17.760917830160093 a4_x2
<= 2453.4696723693924

a4_local_4: 
+28538.366687471764 a4_x5
+29074.033438333656 a4_x3
+24094.385879908965 a4_x1
<= 2703698.9601898873

a4_local_5: 
+45767.331347819891 a4_x5
+69831.626890360436 a4_x6
+35285.466461701108 a4_x1
<= 8099682.0023072697

a4_local_6: 
+12.534317826465472 a4_x3
+5.6654212028762645 a4_x2
+7.2623509368208836 a4_x1
<= 1248.8290252406168

a4_local_7: 
+0.085990313566602625 a4_x1
+0.075937737592490478 a4_x2
+0.16805027350584231 a4_x3
<= 20.158167028230658

a4_local_8: 
+8.52849624935652 a4_x3
+6.0951968164634343 a4_x1
+9.3887249433595628 a4_x4
<= 1380.1468131063154

a4_act_1: 
+0.042945125292637998 a4_x1
-4.2945125292638 a4_z1
<= 0

a4_act_2: 
+267.49153779604319 a4_x2
-26749.153779604319 a4_z2
<= 0

coupling_1: 
+0.0091942160570959667 a1_x1
+0.25424176252480002 a2_x1
+5.5405900538028465 a3_x1
+48.296311924032963 a4_x1
+0.81454849785512862 short_1
-0.81454849785512862 surp_1
= 3059.2694232357953

coupling_2: 
+3.4163807279636542e-05 a1_x2
+0.00067380609353296804 a2_x2
+0.011879203333034067 a3_x2
+0.39702612261419845 a4_x2
+0.0042273463971749334 short_2
-0.0042273463971749334 surp_2
= 22.497710749722724

coupling_3: 
+8.6944316549702859e-05 a1_x3
+0.0012475767569821079 a2_x3
+0.038474149585983573 a3_x3
+0.93602053254516016 a4_x3
+0.010916650974881717 short_3
-0.010916650974881717 surp_3
= 21.293685308320413

bounds
  0 <= a1_x1 <= 100
  0 <= a1_x2 <= 100
  0 <= a1_x3 <= 100
  0 <= a1_x4 <= 100
  0 <= a1_x5 <= 100
  0 <= a1_x6 <= 100
  0 <= a2_x1 <= 100
  0 <= a2_x2 <= 100
  0 <= a2_x3 <= 100
  0 <= a2_x4 <= 100
  0 <= a2_x5 <= 100
  0 <= a2_x6 <= 100
  0 <= a3_x1 <= 100
  0 <= a3_x2 <= 100
  0 <= a3_x3 <= 100
  0 <= a3_x4 <= 100
  0 <= a3_x5 <= 100
  0 <= a3_x6 <= 100
  0 <= a4_x1 <= 100
  0 <= a4_x2 <= 100
  0 <= a4_x3 <= 100
  0 <= a4_x4 <= 100
  0 <= a4_x5 <= 100
  0 <= a4_x6 <= 100
  0 <= short_1 <= +inf
  0 <= surp_1 <= +inf
  0 <= short_2 <= +inf
  0 <= surp_2 <= +inf
  0 <= short_3 <= +inf
  0 <= surp_3 <= +inf
 0 <= a1_z1 <= 1
 0 <= a1_z2 <= 1
 0 <= a2_z1 <= 1
 0 <= a2_z2 <= 1
 0 <= a3_z1 <= 1
 0 <= a3_z2 <= 1
 0 <= a4_z1 <= 1
 0 <= a4_z2 <= 1

binary
  a1_z1
  a1_z2
  a2_z1
  a2_z2
  a3_z1
  a3_z2
  a4_z1
  a4_z2
end
