min
obj: 
  +2.370294118728955 a1_x1
  +4.0871141162290519 a1_x2
  +7.6613663727576089 a1_x3
  +4.8999168943267346 a1_x4
  +9.1856075433138287 a1_x5
  +7.8055232956727103 a1_x6
  +17.430873114549655 a1_z1
  +23.402378726140935 a1_z2
  +7.7696749959897602 a2_x1
  +1.8033642153830525 a2_x2
  +9.5715816001394138 a2_x3
  +5.6582749389411147 a2_x4
  +2.4417372334426313 a2_x5
  +7.2729933705310286 a2_x6
  +31.321727314252385 a2_z1
  +17.358761230317288 a2_z2
  +2.3493759750782877 a3_x1
  +3.4440486133066264 a3_x2
  +8.9723629811002734 a3_x3
  +1.1828241076108115 a3_x4
  +8.9432908674835829 a3_x5
  +1.7190508218957756 a3_x6
  +16.001764697499688 a3_z1
  +34.61198408971174 a3_z2
  +6.5610669509273256 a4_x1
  +3.9905359855651432 a4_x2
  +4.1004087373899605 a4_x3
  +4.8874480478433391 a4_x4
  +2.9132673248674479 a4_x5
  +5.3684179760125765 a4_x6
  +43.700484803270278 a4_z1
  +7.0959851654145574 a4_z2
  +1000000 short_1
  +1000000 surp_1
  +1000000 short_2
  +1000000 surp_2
  +1000000 short_3
  +1000000 surp_3

s.t.

a1_local_1: 
+1.5820778533252038 a1_x3
+1.1369930495446261 a1_x2
+0.63208014567564075 a1_x1
<= 234.40805276987663

a1_local_2: 
+1.3074704208161818 a1_x6
+0.77748105960196789 a1_x3
+0.76483565829026934 a1_x2
<= 88.26068116923814

a1_local_3: 
+1.0157497001689093 a1_x4
+1.1749389701437916 a1_x3
+0.85110803659667345 a1_x6
<= 93.622523161999396

a1_local_4: 
+0.7632754688028246 a1_x5
+1.4413870609636976 a1_x3
+0.69377617371659328 a1_x6
<= 156.30887535792826

a1_local_5: 
+1.5792082172325965 a1_x3
+1.1957293409974106 a1_x5
+0.63322872125906193 a1_x4
<= 206.59000627964954

a1_local_6: 
+1.3502583084461561 a1_x3
+0.97429848056948476 a1_x1
+0.74059903482525169 a1_x6
<= 152.59394277453808

a1_local_7: 
+0.92309589366518197 a1_x6
+1.0833110696977188 a1_x1
+1.041563122763282 a1_x4
<= 140.28435926149811

a1_local_8: 
+0.78280637379220075 a1_x3
+1.1923858123534772 a1_x2
+1.2774551070089453 a1_x4
<= 118.65961888435807

a1_act_1: 
+0.10000000000000002 a1_x1
-10 a1_z1
<= 0

a1_act_2: 
+0.10000000000000001 a1_x2
-10 a1_z2
<= 0

a2_local_1: 
+1.1860266216883466 a2_x3
+1.3869777619144068 a2_x2
+0.68990752197238225 a2_x1
<= 206.65586904389943

a2_local_2: 
+0.53239001145274056 a2_x6
+1.2588687680656883 a2_x2
+1.3911173143154025 a2_x1
<= 203.27096977972118

a2_local_3: 
+0.80601443189449939 a2_x2
+1.3332695285547655 a2_x3
+0.75003589190550057 a2_x1
<= 161.22627103872867

a2_local_4: 
+0.95670459642878813 a2_x1
+0.9173347559256898 a2_x4
+1.0901145885297807 a2_x5
<= 168.10744393546852

a2_local_5: 
+0.8152059550067523 a2_x1
+1.2266838752321392 a2_x6
+1.0987128355073108 a2_x3
<= 97.192848829158137

a2_local_6: 
+0.8327433034758096 a2_x1
+0.67881503806769894 a2_x6
+1.4731553426491255 a2_x2
<= 145.53624870768206

a2_local_7: 
+0.96714825325243481 a2_x3
+0.86991204323730509 a2_x2
+1.1495415056889928 a2_x4
<= 122.82222107582346

a2_local_8: 
+1.3933712446020361 a2_x4
+0.71768382179123569 a2_x3
+1.2303564515041243 a2_x1
<= 201.98681260269726

a2_act_1: 
+0.08103809945015665 a2_x1
-8.1038099450156658 a2_z1
<= 0

a2_act_2: 
+0.099999999999999992 a2_x2
-9.9999999999999982 a2_z2
<= 0

a3_local_1: 
+0.91733006822027352 a3_x5
+0.61641529054006328 a3_x4
+1.6222829241044052 a3_x2
<= 141.66316778760168

a3_local_2: 
+1.1621612512084034 a3_x4
+0.84047754887639747 a3_x5
+1.1897997767303385 a3_x3
<= 160.69597266821305

a3_local_3: 
+1.2793341068849486 a3_x4
+0.67732240915929154 a3_x3
+1.4764017644731753 a3_x6
<= 145.52402855626738

a3_local_4: 
+0.88217110480703187 a3_x4
+0.92949395153058512 a3_x5
+1.1335669401898425 a3_x2
<= 162.13836792556754

a3_local_5: 
+1.5959081083068978 a3_x4
+0.62660249346116936 a3_x6
+1.3701209338695961 a3_x5
<= 147.84569117282692

a3_local_6: 
+0.98295152504275152 a3_x1
+0.94198524843132214 a3_x5
+1.0615877495590182 a3_x3
<= 98.937617433427803

a3_local_7: 
+0.96604189395861928 a3_x6
+0.75661321084049016 a3_x4
+1.3216792750540816 a3_x1
<= 114.77261972096335

a3_local_8: 
+1.4305545538477726 a3_x4
+0.6990296156901481 a3_x2
+1.3431792685428441 a3_x1
<= 219.64923014482818

a3_act_1: 
+0.099999999999999992 a3_x1
-10 a3_z1
<= 0

a3_act_2: 
+0.088720732042829403 a3_x2
-8.8720732042829411 a3_z2
<= 0

a4_local_1: 
+0.91845120334564079 a4_x5
+1.1531003586543536 a4_x2
+0.86722720402843456 a4_x1
<= 196.61995844192469

a4_local_2: 
+1.2637579839632158 a4_x4
+0.69306098668998739 a4_x2
+1.4428744644478297 a4_x6
<= 212.22490000044434

a4_local_3: 
+1.1834694286351188 a4_x1
+0.84497324206615787 a4_x3
+0.89349973214392164 a4_x6
<= 144.74748560269734

a4_local_4: 
+0.87093098926996482 a4_x3
+1.1481965991797165 a4_x4
+0.93811347763415975 a4_x1
<= 178.51587527556018

a4_local_5: 
+1.3307363145395685 a4_x6
+1.3747773114361606 a4_x3
+0.72739053203849457 a4_x4
<= 164.21131679819476

a4_local_6: 
+0.68329360238412751 a4_x5
+1.46349972619505 a4_x4
+0.72706143046259086 a4_x2
<= 160.93242374921229

a4_local_7: 
+1.1742382490084702 a4_x6
+0.85161593130218916 a4_x2
+0.91435662811412188 a4_x4
<= 198.99221521598244

a4_local_8: 
+0.77979263868378701 a4_x6
+1.2823922032502144 a4_x2
+1.2593075045341482 a4_x1
<= 120.03397171721063

a4_act_1: 
+0.10000000000000001 a4_x1
-10 a4_z1
<= 0

a4_act_2: 
+0.10000000000000001 a4_x2
-10.000000000000002 a4_z2
<= 0

coupling_1: 
+6.3275198168614839e-05 a1_x1
+0.0022125586912657143 a2_x1
+0.041653607020145901 a3_x1
+0.99907461762202654 a4_x1
+0.007415727405310984 short_1
-0.007415727405310984 surp_1
= 21.835117136786582

coupling_2: 
+7.4070039466325635e-05 a1_x2
+0.0023240558266572888 a2_x2
+0.042944435929665091 a3_x2
+0.99901514492384169 a4_x2
+0.0077171534137381332 short_2
-0.0077171534137381332 surp_2
= 82.020878873175008

coupling_3: 
+6.9017895194492529e-05 a1_x3
+0.0015959860152212437 a2_x3
+0.069350270021069818 a3_x3
+1.349331086651044 a4_x3
+0.011394379666510142 short_3
-0.011394379666510142 surp_3
= 78.95811611758333

bounds
  0 <= a1_x1 <= 100
  0 <= a1_x2 <= 100
  0 <= a1_x3 <= 100
  0 <= a1_x4 <= 100
  0 <= a1_x5 <= 100
  0 <= a1_x6 <= 100
  0 <= a2_x1 <= 100
  0 <= a2_x2 <= 100
  0 <= a2_x3 <= 100
  0 <= a2_x4 <= 100
  0 <= a2_x5 <= 100
  0 <= a2_x6 <= 100
  0 <= a3_x1 <= 100
  0 <= a3_x2 <= 100
  0 <= a3_x3 <= 100
  0 <= a3_x4 <= 100
  0 <= a3_x5 <= 100
  0 <= a3_x6 <= 100
  0 <= a4_x1 <= 100
  0 <= a4_x2 <= 100
  0 <= a4_x3 <= 100
  0 <= a4_x4 <= 100
  0 <= a4_x5 <= 100
  0 <= a4_x6 <= 100
  0 <= short_1 <= +inf
  0 <= surp_1 <= +inf
  0 <= short_2 <= +inf
  0 <= surp_2 <= +inf
  0 <= short_3 <= +inf
  0 <= surp_3 <= +inf
 0 <= a1_z1 <= 1
 0 <= a1_z2 <= 1
 0 <= a2_z1 <= 1
 0 <= a2_z2 <= 1
 0 <= a3_z1 <= 1
 0 <= a3_z2 <= 1
 0 <= a4_z1 <= 1
 0 <= a4_z2 <= 1

binary
  a1_z1
  a1_z2
  a2_z1
  a2_z2
  a3_z1
  a3_z2
  a4_z1
  a4_z2
end
