min
obj: 
  +1.5869078218103445 a1_x1
  +1.8591431952918778 a1_x2
  +3.3231109040519993 a1_x3
  +9.2087059181463786 a1_x4
  +9.6203246603591985 a1_x5
  +2.6522167369866532 a1_x6
  +45.971215901918207 a1_z1
  +15.231591264695247 a1_z2
  +7.3851642913844699 a2_x1
  +8.184615433312981 a2_x2
  +6.3286902635835114 a2_x3
  +1.720840343178456 a2_x4
  +2.5195780412124975 a2_x5
  +8.1969421632275719 a2_x6
  +32.909722818284479 a2_z1
  +29.006081337850453 a2_z2
  +9.6251817518945995 a3_x1
  +3.9009418953480735 a3_x2
  +1.3219510135661245 a3_x3
  +4.7485775019531236 a3_x4
  +3.5558983548633152 a3_x5
  +8.1243659823807501 a3_x6
  +20.822115549059351 a3_z1
  +25.222874624514855 a3_z2
  +3.9740281273618923 a4_x1
  +5.8725760658506196 a4_x2
  +8.5449306619724936 a4_x3
  +7.8945369096479574 a4_x4
  +2.7042977066829055 a4_x5
  +9.2622687133164359 a4_x6
  +13.310232891557296 a4_z1
  +27.542990425232677 a4_z2
  +1000000 short_1
  +1000000 surp_1
  +1000000 short_2
  +1000000 surp_2
  +1000000 short_3
  +1000000 surp_3

s.t.

a1_local_1: 
+0.53246830785528043 a1_x4
+0.69012198110526712 a1_x1
+0.49011136726776255 a1_x3
<= 75.931814365354413

a1_local_2: 
+0.92429768641700294 a1_x2
+0.62828860628994887 a1_x4
+0.71668967494412572 a1_x3
<= 152.81183597940191

a1_local_3: 
+0.39363520896456561 a1_x6
+0.78920363589640452 a1_x4
+0.47139043621112853 a1_x1
<= 71.439889216297047

a1_local_4: 
+0.63759636823170895 a1_x6
+0.5666554469122379 a1_x2
+0.52189316502750516 a1_x1
<= 67.621854702021139

a1_local_5: 
+0.4084688047780094 a1_x1
+0.59511297047828338 a1_x2
+0.69209377102509606 a1_x5
<= 88.502184901274092

a1_local_6: 
+0.42686743713977265 a1_x1
+0.67541372727482651 a1_x2
+0.60133226099923198 a1_x6
<= 61.782549730103099

a1_local_7: 
+0.33550665993360723 a1_x5
+0.71373623814206655 a1_x2
+0.61482994681700887 a1_x4
<= 110.23329386021824

a1_local_8: 
+0.63697201480423715 a1_x1
+0.44880667154185594 a1_x2
+0.62676887601072784 a1_x3
<= 107.30496701647061

a1_act_1: 
+0.0099995000374968768 a1_x1
-0.99995000374968757 a1_z1
<= 0

a1_act_2: 
+0.0099995000374968768 a1_x2
-0.99995000374968768 a1_z2
<= 0

a2_local_1: 
+0.53414568675018748 a2_x1
+1.3594891499725241 a2_x5
+0.81447931545808461 a2_x3
<= 144.9652948582937

a2_local_2: 
+0.59598573706145574 a2_x4
+1.4084243656039972 a2_x2
+1.1494553590142265 a2_x5
<= 144.32891672980222

a2_local_3: 
+0.6386154218141098 a2_x2
+0.56816630194893958 a2_x1
+0.51899652826474008 a2_x5
<= 57.358889792003389

a2_local_4: 
+0.63488124547400782 a2_x6
+0.43309552396088674 a2_x2
+0.63980783933179308 a2_x4
<= 79.787787456841102

a2_local_5: 
+0.38430315262398568 a2_x1
+0.69611865206745305 a2_x6
+0.60640737885274598 a2_x2
<= 79.963330176758049

a2_local_6: 
+0.57487758146634427 a2_x4
+0.60226727613655739 a2_x6
+0.55388617460851841 a2_x5
<= 90.770539510562031

a2_local_7: 
+0.97331577736427399 a2_x4
+0.67170539681421759 a2_x6
+1.3040025365436458 a2_x3
<= 181.4255865536588

a2_local_8: 
+0.67337856361790527 a2_x5
+0.58705384102281077 a2_x1
+0.44936521650017708 a2_x4
<= 111.38710584505169

a2_act_1: 
+0.0099995000374968768 a2_x1
-0.99995000374968757 a2_z1
<= 0

a2_act_2: 
+0.0099995000374968751 a2_x2
-0.99995000374968745 a2_z2
<= 0

a3_local_1: 
+0.61901247814665172 a3_x3
+0.71777423678678243 a3_x5
+0.31878471874274789 a3_x4
<= 57.360397372925952

a3_local_2: 
+0.5976449516254726 a3_x3
+0.6644609502547828 a3_x5
+0.44867823368545245 a3_x2
<= 87.120231492733453

a3_local_3: 
+0.46365429726410096 a3_x5
+0.59152824592302933 a3_x6
+0.65963552580478624 a3_x2
<= 86.025905751169972

a3_local_4: 
+0.61059069376005559 a3_x4
+0.53414751294956686 a3_x3
+0.25710486472056515 a3_x1
<= 61.213294620787174

a3_local_5: 
+0.71826790167457422 a3_x1
+0.61124667272427946 a3_x4
+0.33236835966665351 a3_x5
<= 95.346587516316603

a3_local_6: 
+0.3987465530490753 a3_x5
+0.72397073837245529 a3_x4
+0.56290990079401027 a3_x6
<= 68.17385695202087

a3_local_7: 
+0.64657871153568125 a3_x5
+0.49624509506998427 a3_x4
+0.57937619506486504 a3_x2
<= 104.55524219681379

a3_local_8: 
+0.74893859942649499 a3_x6
+0.34223122238462639 a3_x2
+0.56742291521774491 a3_x3
<= 90.497382928690797

a3_act_1: 
+0.0055031354937043996 a3_x1
-0.55031354937043997 a3_z1
<= 0

a3_act_2: 
+0.0099995000374968768 a3_x2
-0.99995000374968757 a3_z2
<= 0

a4_local_1: 
+0.3275959581705406 a4_x3
+0.27465605418401834 a4_x2
+0.44270675371125706 a4_x4
<= 61.850567096709241

a4_local_2: 
+0.64808858862810526 a4_x5
+0.3280427308519947 a4_x4
+0.68729116684648006 a4_x1
<= 66.743244988416052

a4_local_3: 
+0.48683511536909579 a4_x3
+0.58943244357704672 a4_x2
+0.64464018250676147 a4_x6
<= 98.66089488993201

a4_local_4: 
+0.51997354613037328 a4_x1
+0.61544933228311505 a4_x6
+0.5923256120723398 a4_x5
<= 79.817992873673774

a4_local_5: 
+0.56662000448558125 a4_x1
+0.62763989475477278 a4_x2
+0.53386321565451345 a4_x6
<= 67.980090691553883

a4_local_6: 
+0.28357326232914631 a4_x6
+0.83305908349641022 a4_x3
+0.47497238687751719 a4_x5
<= 65.273324420121483

a4_local_7: 
+0.48611282887096735 a4_x1
+0.51038557666546003 a4_x4
+0.70936653483155743 a4_x5
<= 54.928813102811418

a4_local_8: 
+0.2922280258582014 a4_x5
+0.25746241706096146 a4_x1
+0.39557214141718355 a4_x6
<= 53.935018367545972

a4_act_1: 
+0.0099995000374968751 a4_x1
-0.99995000374968745 a4_z1
<= 0

a4_act_2: 
+0.0099995000374968751 a4_x2
-0.99995000374968757 a4_z2
<= 0

coupling_1: 
+0.0001041447756968265 a1_x1
+0.0015192810199091055 a2_x1
+0.023584686167826472 a3_x1
+0.99967042667064299 a4_x1
+0.0070880729944043193 short_1
-0.0070880729944043193 surp_1
= 60.91678187828164

coupling_2: 
+0.00013074080123747528 a1_x2
+0.0013718475771546884 a2_x2
+0.073570094723052273 a3_x2
+0.99715500756960118 a4_x2
+0.011563584703230606 short_2
-0.011563584703230606 surp_2
= 83.344463002561554

coupling_3: 
+7.736439439219013e-05 a1_x3
+0.0014782920818042281 a2_x3
+0.065175522248733062 a3_x3
+0.99773459662846753 a4_x3
+0.011739562545209043 short_3
-0.011739562545209043 surp_3
= 54.266372383254058

bounds
  0 <= a1_x1 <= 100
  0 <= a1_x2 <= 100
  0 <= a1_x3 <= 100
  0 <= a1_x4 <= 100
  0 <= a1_x5 <= 100
  0 <= a1_x6 <= 100
  0 <= a2_x1 <= 100
  0 <= a2_x2 <= 100
  0 <= a2_x3 <= 100
  0 <= a2_x4 <= 100
  0 <= a2_x5 <= 100
  0 <= a2_x6 <= 100
  0 <= a3_x1 <= 100
  0 <= a3_x2 <= 100
  0 <= a3_x3 <= 100
  0 <= a3_x4 <= 100
  0 <= a3_x5 <= 100
  0 <= a3_x6 <= 100
  0 <= a4_x1 <= 100
  0 <= a4_x2 <= 100
  0 <= a4_x3 <= 100
  0 <= a4_x4 <= 100
  0 <= a4_x5 <= 100
  0 <= a4_x6 <= 100
  0 <= short_1 <= +inf
  0 <= surp_1 <= +inf
  0 <= short_2 <= +inf
  0 <= surp_2 <= +inf
  0 <= short_3 <= +inf
  0 <= surp_3 <= +inf
 0 <= a1_z1 <= 1
 0 <= a1_z2 <= 1
 0 <= a2_z1 <= 1
 0 <= a2_z2 <= 1
 0 <= a3_z1 <= 1
 0 <= a3_z2 <= 1
 0 <= a4_z1 <= 1
 0 <= a4_z2 <= 1

binary
  a1_z1
  a1_z2
  a2_z1
  a2_z2
  a3_z1
  a3_z2
  a4_z1
  a4_z2
end
