min
obj: 
  +1.96797315584533505 a1_x1
  +5.12450639908132288 a1_x2
  +5.32896604620880687 a1_x3
  +7.73264361972508052 a1_x4
  +5.13954220661915251 a1_x5
  +1.49202607385126407 a1_x6
  +49.87266735161764331 a1_z1
  +13.86958179616855702 a1_z2
  +7.53413172178710777 a2_x1
  +3.45719216892709458 a2_x2
  +4.76571137466424233 a2_x3
  +9.38617884989886875 a2_x4
  +1.72886855476886026 a2_x5
  +5.90816082155518885 a2_x6
  +23.53717041290824596 a2_z1
  +38.77106799595807018 a2_z2
  +4.90875225577424779 a3_x1
  +9.92442060145863181 a3_x2
  +6.78612387718403109 a3_x3
  +8.67367115140907785 a3_x4
  +9.64439582433125331 a3_x5
  +8.97688831165856627 a3_x6
  +12.68276888992290807 a3_z1
  +43.15224448184653028 a3_z2
  +4.12769081519996917 a4_x1
  +7.02237149328651711 a4_x2
  +1.06108582988083655 a4_x3
  +7.09274128796206593 a4_x4
  +7.93550517031278613 a4_x5
  +7.59713078328193436 a4_x6
  +17.37310151636162914 a4_z1
  +10.31092367888116890 a4_z2
  +1000000.00000000000000000 short_1
  +1000000.00000000000000000 surp_1
  +1000000.00000000000000000 short_2
  +1000000.00000000000000000 surp_2
  +1000000.00000000000000000 short_3
  +1000000.00000000000000000 surp_3

s.t.

a1_local_1: 
+0.79278419846783843 a1_x3
+1.26137731041137546 a1_x6
+0.96330083155746182 a1_x2
<= 206.835487

a1_local_2: 
+1.60711708670549402 a1_x4
+0.89035350617375308 a1_x6
+0.62223219967746590 a1_x2
<= 176.854404

a1_local_3: 
+0.66242483450914402 a1_x4
+0.89265059993673945 a1_x5
+1.50960523806598923 a1_x2
<= 104.394301

a1_local_4: 
+0.74468584340194000 a1_x2
+0.93240342981612423 a1_x1
+1.34284814040738465 a1_x4
<= 202.562742

a1_local_5: 
+0.98797250727600472 a1_x5
+0.94852537017777661 a1_x2
+1.05426805801997259 a1_x4
<= 168.073133

a1_local_6: 
+1.37876651612073298 a1_x4
+0.65224586475465796 a1_x6
+1.53316418552710898 a1_x1
<= 233.255157

a1_local_7: 
+1.40748938498852838 a1_x5
+0.84664723634740968 a1_x4
+0.71048493201115726 a1_x3
<= 121.342654

a1_local_8: 
+1.02346093968631968 a1_x6
+1.24891005168715341 a1_x3
+0.80069817570056334 a1_x2
<= 135.908039

a1_act_1: 
+0.10000000000000001 a1_x1
-10.00000000000000000 a1_z1
<= 0.000000

a1_act_2: 
+0.10000000000000001 a1_x2
-10.00000000000000000 a1_z2
<= 0.000000

a2_local_1: 
+0.58282630080425946 a2_x3
+0.58178625970216458 a2_x6
+0.52718870159965348 a2_x4
<= 99.750357

a2_local_2: 
+1.52565604867619165 a2_x6
+0.89469688747149245 a2_x4
+0.65545573058075413 a2_x3
<= 205.388909

a2_local_3: 
+1.25803570631923733 a2_x2
+1.25387143582649152 a2_x3
+0.79488999793638737 a2_x4
<= 201.720904

a2_local_4: 
+1.05607716132058016 a2_x6
+0.67475619021874422 a2_x5
+1.48201678546412086 a2_x2
<= 184.900701

a2_local_5: 
+0.96770654224011887 a2_x4
+0.71530445937690323 a2_x5
+1.39800610340258902 a2_x3
<= 196.834007

a2_local_6: 
+0.47158739250967924 a2_x2
+0.61357107736613170 a2_x5
+0.41529343549107611 a2_x1
<= 91.154175

a2_local_7: 
+0.93390562585122416 a2_x4
+0.93597867207474383 a2_x3
+1.07077200556376662 a2_x5
<= 113.183979

a2_local_8: 
+1.18721310639934341 a2_x6
+0.84230876041527591 a2_x4
+0.96435703027482411 a2_x3
<= 185.836871

a2_act_1: 
+0.10000000000000001 a2_x1
-10.00000000000000000 a2_z1
<= 0.000000

a2_act_2: 
+0.10000000000000001 a2_x2
-10.00000000000000000 a2_z2
<= 0.000000

a3_local_1: 
+2.34046593144498871 a3_x1
+2.06069930852160210 a3_x3
+1.44190769732416912 a3_x4
<= 348.497356

a3_local_2: 
+1.02582577358404037 a3_x1
+1.04982237047483817 a3_x6
+0.95254209485714880 a3_x5
<= 210.256082

a3_local_3: 
+1.09970988898367228 a3_x6
+2.18345050933810869 a3_x2
+1.40368633319224045 a3_x3
<= 327.500924

a3_local_4: 
+1.65265421710089644 a3_x1
+3.17565645508336258 a3_x6
+1.23712579354619279 a3_x2
<= 414.767193

a3_local_5: 
+0.78459986633396495 a3_x4
+1.04768327835999742 a3_x6
+1.27453501193224783 a3_x3
<= 158.576417

a3_local_6: 
+2.31781005481401969 a3_x6
+1.78021805486781126 a3_x3
+1.59273586926870858 a3_x1
<= 266.000363

a3_local_7: 
+1.19380679864705241 a3_x6
+2.40896910972650602 a3_x5
+2.25122942429201123 a3_x1
<= 294.426078

a3_local_8: 
+0.81069305837257788 a3_x4
+1.23351247389171603 a3_x6
+1.16143290466165494 a3_x5
<= 205.842989

a3_act_1: 
+0.10000000000000001 a3_x1
-10.00000000000000000 a3_z1
<= 0.000000

a3_act_2: 
+0.10000000000000001 a3_x2
-10.00000000000000000 a3_z2
<= 0.000000

a4_local_1: 
+1.08936335548512231 a4_x4
+1.05623008970144516 a4_x1
+0.91796735677295993 a4_x5
<= 143.156389

a4_local_2: 
+1.14747148616150429 a4_x4
+1.17660344826055474 a4_x1
+0.84990401947092842 a4_x6
<= 139.574410

a4_local_3: 
+0.73006257958608989 a4_x3
+0.76438239092082139 a4_x5
+1.36974559162716147 a4_x1
<= 120.924337

a4_local_4: 
+0.76073816140888317 a4_x3
+1.48308294601122648 a4_x5
+0.67427112063388950 a4_x6
<= 199.826147

a4_local_5: 
+1.35892966172127871 a4_x4
+0.73587325979282603 a4_x5
+0.74969633297147620 a4_x6
<= 149.290313

a4_local_6: 
+0.77152106304397949 a4_x5
+0.98162300975849581 a4_x2
+1.29614089348976891 a4_x1
<= 147.303674

a4_local_7: 
+1.41005529977297073 a4_x2
+1.48845984654731178 a4_x3
+0.67183538898925510 a4_x1
<= 169.079533

a4_local_8: 
+1.68437075447436402 a4_x1
+1.15305002259948797 a4_x2
+0.59369351868856601 a4_x4
<= 116.796658

a4_act_1: 
+0.10000000000000001 a4_x1
-10.00000000000000000 a4_z1
<= 0.000000

a4_act_2: 
+0.10000000000000001 a4_x2
-10.00000000000000000 a4_z2
<= 0.000000

coupling_1: 
+0.01423742639718519 a1_x1
+0.05784742855480808 a2_x1
+0.26664576278433688 a3_x1
+1.42372764789419692 a4_x1
+0.10143334915417133 short_1
-0.10143334915417133 surp_1
= 75.557489

coupling_2: 
+0.00638895964305189 a1_x2
+0.03816407421307558 a2_x2
+0.18046690492171119 a3_x2
+0.69418434052830835 a4_x2
+0.10143334915417133 short_2
-0.10143334915417133 surp_2
= 22.644959

coupling_3: 
+0.01444854124284327 a1_x3
+0.04245426589014051 a2_x3
+0.18376848592218148 a3_x3
+0.73922231795292725 a4_x3
+0.10143334915417133 short_3
-0.10143334915417133 surp_3
= 52.405151

bounds
  0.000000 <= a1_x1 <= 100.000000
  0.000000 <= a1_x2 <= 100.000000
  0.000000 <= a1_x3 <= 100.000000
  0.000000 <= a1_x4 <= 100.000000
  0.000000 <= a1_x5 <= 100.000000
  0.000000 <= a1_x6 <= 100.000000
  0.000000 <= a2_x1 <= 100.000000
  0.000000 <= a2_x2 <= 100.000000
  0.000000 <= a2_x3 <= 100.000000
  0.000000 <= a2_x4 <= 100.000000
  0.000000 <= a2_x5 <= 100.000000
  0.000000 <= a2_x6 <= 100.000000
  0.000000 <= a3_x1 <= 100.000000
  0.000000 <= a3_x2 <= 100.000000
  0.000000 <= a3_x3 <= 100.000000
  0.000000 <= a3_x4 <= 100.000000
  0.000000 <= a3_x5 <= 100.000000
  0.000000 <= a3_x6 <= 100.000000
  0.000000 <= a4_x1 <= 100.000000
  0.000000 <= a4_x2 <= 100.000000
  0.000000 <= a4_x3 <= 100.000000
  0.000000 <= a4_x4 <= 100.000000
  0.000000 <= a4_x5 <= 100.000000
  0.000000 <= a4_x6 <= 100.000000
  0.000000 <= short_1 <= +inf
  0.000000 <= surp_1 <= +inf
  0.000000 <= short_2 <= +inf
  0.000000 <= surp_2 <= +inf
  0.000000 <= short_3 <= +inf
  0.000000 <= surp_3 <= +inf
 0 <= a1_z1 <= 1
 0 <= a1_z2 <= 1
 0 <= a2_z1 <= 1
 0 <= a2_z2 <= 1
 0 <= a3_z1 <= 1
 0 <= a3_z2 <= 1
 0 <= a4_z1 <= 1
 0 <= a4_z2 <= 1

binary
  a1_z1
  a1_z2
  a2_z1
  a2_z2
  a3_z1
  a3_z2
  a4_z1
  a4_z2
end
