min
obj: 
  +4.08711411622905185 a1_x1
  +7.66136637275760890 a1_x2
  +4.89991689432673461 a1_x3
  +9.18560754331382867 a1_x4
  +7.80552329567271030 a1_x5
  +3.48617462290993085 a1_x6
  +23.40237872614093462 a1_z1
  +18.26756086639244359 a1_z2
  +9.86731097874472596 a2_x1
  +9.26152928173022261 a2_x2
  +3.50078905131847584 a2_x3
  +7.16373731684462012 a2_x4
  +7.92452849914212010 a2_x5
  +2.45821067970353369 a2_x6
  +33.65890549127213660 a2_z1
  +35.25440952037810405 a2_z2
  +2.67328543975586186 a3_x1
  +9.89718173180398963 a3_x2
  +5.22112132820410846 a3_x3
  +8.01142911451852413 a3_x4
  +2.58297506253818687 a3_x5
  +9.90251287309686745 a3_x6
  +27.09261525514139990 a3_z1
  +47.99613585574002173 a3_z2
  +8.20462741556096375 a4_x1
  +7.12140565612760490 a4_x2
  +6.26647229654029836 a4_x3
  +7.50796663445631296 a4_x4
  +5.57360575198759278 a4_x5
  +1.80810837019631565 a4_x6
  +27.56107960188447947 a4_z1
  +34.98595155711783633 a4_z2
  +1000000.00000000000000000 short_1
  +1000000.00000000000000000 surp_1
  +1000000.00000000000000000 short_2
  +1000000.00000000000000000 surp_2
  +1000000.00000000000000000 short_3
  +1000000.00000000000000000 surp_3

s.t.

a1_local_1: 
+0.09461766637496948 a1_x6
+0.05260010021145917 a1_x4
+0.14987129748420233 a1_x2
<= 20.591128

a1_local_2: 
+0.13536689756057896 a1_x6
+0.08049528102114248 a1_x3
+0.07918605924700511 a1_x2
<= 9.137931

a1_local_3: 
+0.09891980936169364 a1_x6
+0.12946813061984647 a1_x4
+0.14975850057512069 a1_x1
<= 20.190418

a1_local_4: 
+0.14474765578933677 a1_x4
+0.05770272586103400 a1_x5
+0.07490489832430040 a1_x2
<= 18.466552

a1_local_5: 
+0.10746080283071419 a1_x5
+0.11548177741338389 a1_x1
+0.08371339331382642 a1_x4
<= 20.751407

a1_local_6: 
+0.09243102718792183 a1_x2
+0.11549181048212116 a1_x6
+0.06487909103080634 a1_x1
<= 13.394619

a1_local_7: 
+0.12579723798032078 a1_x2
+0.12472186077572289 a1_x1
+0.07308610695168809 a1_x3
<= 14.419186

a1_local_8: 
+0.10805879833041243 a1_x2
+0.12523873946530140 a1_x4
+0.14900163456101853 a1_x3
<= 21.896594

a1_act_1: 
+1.00000000000000000 a1_x1
-100.00000000000000000 a1_z1
<= 0.000000

a1_act_2: 
+1.00000000000000000 a1_x2
-100.00000000000000000 a1_z2
<= 0.000000

a2_local_1: 
+0.63676979229140496 a2_x6
+0.67530625543603739 a2_x2
+0.67192086742914170 a2_x4
<= 95.334311

a2_local_2: 
+0.50357863186560414 a2_x2
+0.35955563751158837 a2_x3
+0.38548869849063416 a2_x6
<= 86.185753

a2_local_3: 
+0.31125431327357905 a2_x4
+0.61889551639039064 a2_x6
+0.51668688046025457 a2_x2
<= 43.941670

a2_local_4: 
+0.57897019630146507 a2_x6
+0.63979303083761030 a2_x2
+0.62515195144137559 a2_x4
<= 100.439997

a2_local_5: 
+0.35863055138360755 a2_x2
+0.59322906296440114 a2_x3
+0.33372328686389263 a2_x1
<= 71.736515

a2_local_6: 
+0.46658843108408976 a2_x4
+0.53671075354728992 a2_x6
+0.51462429463162274 a2_x2
<= 95.176988

a2_local_7: 
+0.64497908506506463 a2_x5
+0.62322398699758264 a2_x2
+0.44325598011732043 a2_x3
<= 115.488460

a2_local_8: 
+0.23590559571345707 a2_x5
+0.47902267806306648 a2_x4
+0.53949925980088242 a2_x6
<= 54.766306

a2_act_1: 
+1.00000000000000000 a2_x1
-100.00000000000000000 a2_z1
<= 0.000000

a2_act_2: 
+1.00000000000000000 a2_x2
-100.00000000000000000 a2_z2
<= 0.000000

a3_local_1: 
+1.36436836675838635 a3_x3
+1.86760844542599158 a3_x5
+3.06199437060505231 a3_x6
<= 394.379239

a3_local_2: 
+2.71725635391394649 a3_x4
+2.17765999021275825 a3_x1
+1.76257506611128578 a3_x2
<= 433.277042

a3_local_3: 
+1.95496675623809435 a3_x3
+2.30017507198077853 a3_x5
+1.90486868229249273 a3_x2
<= 245.148621

a3_local_4: 
+2.49493036198365692 a3_x2
+1.98178505812947803 a3_x6
+1.56751815168751740 a3_x4
<= 411.194275

a3_local_5: 
+1.87901892479908805 a3_x2
+2.52521668408888544 a3_x3
+2.58750477572769721 a3_x1
<= 394.822354

a3_local_6: 
+2.68113097241054765 a3_x1
+2.17255529928409352 a3_x5
+3.15516560384807621 a3_x4
<= 357.493585

a3_local_7: 
+1.42813261727753482 a3_x2
+3.11298945308389063 a3_x1
+1.74450152936399006 a3_x3
<= 242.333935

a3_local_8: 
+1.78153778449639555 a3_x4
+1.87710591073465327 a3_x5
+2.28922974715423111 a3_x2
<= 327.437191

a3_act_1: 
+1.00000000000000000 a3_x1
-100.00000000000000000 a3_z1
<= 0.000000

a3_act_2: 
+1.00000000000000000 a3_x2
-100.00000000000000000 a3_z2
<= 0.000000

a4_local_1: 
+14.18008387288876548 a4_x3
+6.61409100471709266 a4_x2
+7.28843014214229967 a4_x6
<= 1781.841585

a4_local_2: 
+11.86378350859548014 a4_x6
+10.73947649569903717 a4_x1
+6.64281487999935027 a4_x5
<= 1313.037431

a4_local_3: 
+5.01201374675739242 a4_x4
+10.03627165200717108 a4_x5
+10.94624206380141018 a4_x6
<= 1308.423598

a4_local_4: 
+10.24675404102811882 a4_x6
+12.98328756598882627 a4_x2
+8.24670852759859585 a4_x4
<= 1722.277237

a4_local_5: 
+5.42909181989843503 a4_x3
+5.90121864907429217 a4_x6
+7.48058629737371916 a4_x1
<= 1306.577081

a4_local_6: 
+8.26820867746205046 a4_x5
+14.74106464345025458 a4_x6
+10.81170206791591326 a4_x2
<= 1981.965045

a4_local_7: 
+11.39256435803327605 a4_x4
+5.11990381987565257 a4_x3
+8.06962615782638260 a4_x2
<= 1565.185991

a4_local_8: 
+13.10617920790094360 a4_x3
+6.13951944434552033 a4_x6
+10.90821458377012121 a4_x2
<= 2007.886093

a4_act_1: 
+1.00000000000000000 a4_x1
-100.00000000000000000 a4_z1
<= 0.000000

a4_act_2: 
+1.00000000000000000 a4_x2
-100.00000000000000000 a4_z2
<= 0.000000

coupling_1: 
+0.00063012756282464 a1_x1
+0.00404266788259682 a2_x1
+0.02193842059710645 a3_x1
+0.10558664823144960 a4_x1
+0.00819463119237340 short_1
-0.00819463119237340 surp_1
= 7.828080

coupling_2: 
+0.00115649894989362 a1_x2
+0.00428847612992755 a2_x2
+0.02624231692913042 a3_x2
+0.09951944881722929 a4_x2
+0.00819463119237340 short_2
-0.00819463119237340 surp_2
= 8.600408

coupling_3: 
+0.00094938969768820 a1_x3
+0.00411781631977941 a2_x3
+0.01422224332983547 a3_x3
+0.08305198435709221 a4_x3
+0.00819463119237340 short_3
-0.00819463119237340 surp_3
= 6.821486

bounds
  0.000000 <= a1_x1 <= 100.000000
  0.000000 <= a1_x2 <= 100.000000
  0.000000 <= a1_x3 <= 100.000000
  0.000000 <= a1_x4 <= 100.000000
  0.000000 <= a1_x5 <= 100.000000
  0.000000 <= a1_x6 <= 100.000000
  0.000000 <= a2_x1 <= 100.000000
  0.000000 <= a2_x2 <= 100.000000
  0.000000 <= a2_x3 <= 100.000000
  0.000000 <= a2_x4 <= 100.000000
  0.000000 <= a2_x5 <= 100.000000
  0.000000 <= a2_x6 <= 100.000000
  0.000000 <= a3_x1 <= 100.000000
  0.000000 <= a3_x2 <= 100.000000
  0.000000 <= a3_x3 <= 100.000000
  0.000000 <= a3_x4 <= 100.000000
  0.000000 <= a3_x5 <= 100.000000
  0.000000 <= a3_x6 <= 100.000000
  0.000000 <= a4_x1 <= 100.000000
  0.000000 <= a4_x2 <= 100.000000
  0.000000 <= a4_x3 <= 100.000000
  0.000000 <= a4_x4 <= 100.000000
  0.000000 <= a4_x5 <= 100.000000
  0.000000 <= a4_x6 <= 100.000000
  0.000000 <= short_1 <= +inf
  0.000000 <= surp_1 <= +inf
  0.000000 <= short_2 <= +inf
  0.000000 <= surp_2 <= +inf
  0.000000 <= short_3 <= +inf
  0.000000 <= surp_3 <= +inf
 0 <= a1_z1 <= 1
 0 <= a1_z2 <= 1
 0 <= a2_z1 <= 1
 0 <= a2_z2 <= 1
 0 <= a3_z1 <= 1
 0 <= a3_z2 <= 1
 0 <= a4_z1 <= 1
 0 <= a4_z2 <= 1

binary
  a1_z1
  a1_z2
  a2_z1
  a2_z2
  a3_z1
  a3_z2
  a4_z1
  a4_z2
end
