min
obj: 
  +4.61217347674817457 a1_x1
  +8.37266539443051627 a1_x2
  +3.88741117842564377 a1_x3
  +3.57352147071314707 a1_x4
  +7.90632682258909369 a1_x5
  +6.50433465125659094 a1_x6
  +46.95512094955829951 a1_z1
  +19.80665349763778238 a1_z2
  +7.65671715801393571 a2_x1
  +8.20437447093011585 a2_x2
  +3.61886914738285226 a2_x3
  +5.28592570462095690 a2_x4
  +3.39477691808076010 a2_x5
  +2.52109627660840552 a2_x6
  +31.13088232979415793 a2_z1
  +23.01056128172705328 a2_z2
  +6.98746639113835144 a3_x1
  +2.08920162411281263 a3_x2
  +9.36108080061404380 a3_x3
  +4.85098195997041159 a3_x4
  +1.72431460157976346 a3_x5
  +7.00389344376385736 a3_x6
  +33.01267747284549614 a3_z1
  +8.00105962872783749 a3_z2
  +6.42161923356443864 a4_x1
  +2.38773349159600956 a4_x2
  +7.47586240964883597 a4_x3
  +7.41060969147519710 a4_x4
  +8.58602476997859654 a4_x5
  +3.43257573175068753 a4_x6
  +23.31726507162430551 a4_z1
  +25.04248719439813797 a4_z2
  +1000000.00000000000000000 short_1
  +1000000.00000000000000000 surp_1
  +1000000.00000000000000000 short_2
  +1000000.00000000000000000 surp_2
  +1000000.00000000000000000 short_3
  +1000000.00000000000000000 surp_3

s.t.

a1_local_1: 
+0.12906075671666126 a1_x1
+0.11467248542671236 a1_x6
+0.12535136551582124 a1_x2
<= 22.465327

a1_local_2: 
+0.10554806069745443 a1_x4
+0.07927326562046512 a1_x6
+0.07291764094080083 a1_x2
<= 9.657603

a1_local_3: 
+0.14722491353981429 a1_x2
+0.14175620560284771 a1_x1
+0.06670419818276201 a1_x5
<= 13.668465

a1_local_4: 
+0.14888987575584070 a1_x1
+0.07656930983319098 a1_x2
+0.05927113466916023 a1_x4
<= 8.988817

a1_local_5: 
+0.09222410886129062 a1_x2
+0.05994988858808856 a1_x6
+0.06654848604632174 a1_x3
<= 7.668066

a1_local_6: 
+0.13144594820566921 a1_x4
+0.11225350297812919 a1_x6
+0.09661097731948920 a1_x1
<= 18.629389

a1_local_7: 
+0.09824804878600941 a1_x1
+0.05003432399262635 a1_x5
+0.13055023507662786 a1_x6
<= 15.460263

a1_local_8: 
+0.14330935271795203 a1_x2
+0.08406747422774635 a1_x1
+0.10553827722453196 a1_x4
<= 17.666060

a1_act_1: 
+1.00000000000000000 a1_x1
-100.00000000000000000 a1_z1
<= 0.000000

a1_act_2: 
+1.00000000000000000 a1_x2
-100.00000000000000000 a1_z2
<= 0.000000

a2_local_1: 
+0.53762771409426813 a2_x4
+0.63805236758035289 a2_x2
+0.50924922686811580 a2_x6
<= 62.935855

a2_local_2: 
+0.25654329375471274 a2_x2
+0.51304202949093014 a2_x6
+0.33776148788416915 a2_x5
<= 53.841383

a2_local_3: 
+0.55237007187951215 a2_x2
+0.40854450639927925 a2_x1
+0.58208568596110666 a2_x3
<= 51.535613

a2_local_4: 
+0.43374738377742261 a2_x3
+0.50261180441065423 a2_x2
+0.63896641404520371 a2_x4
<= 95.839154

a2_local_5: 
+0.35902910665669163 a2_x2
+0.50031562820236541 a2_x5
+0.66549302845553282 a2_x6
<= 93.230459

a2_local_6: 
+0.66594698657532880 a2_x6
+0.60656319352996069 a2_x5
+0.53408383509445312 a2_x1
<= 83.096032

a2_local_7: 
+0.32994533333758369 a2_x5
+0.36454916372252538 a2_x4
+0.31642846529721641 a2_x3
<= 52.318393

a2_local_8: 
+0.39023415239372405 a2_x6
+0.31807388865787833 a2_x4
+0.37228520174848773 a2_x3
<= 32.436273

a2_act_1: 
+1.00000000000000000 a2_x1
-100.00000000000000000 a2_z1
<= 0.000000

a2_act_2: 
+1.00000000000000000 a2_x2
-100.00000000000000000 a2_z2
<= 0.000000

a3_local_1: 
+2.40390931923206619 a3_x2
+2.12054009353212924 a3_x1
+1.25008926633298789 a3_x6
<= 345.696442

a3_local_2: 
+2.98788100271296608 a3_x3
+1.18845630043138040 a3_x5
+1.47256596935462181 a3_x6
<= 322.945318

a3_local_3: 
+1.48746888410392120 a3_x4
+1.56300703208139669 a3_x5
+1.15286352363979749 a3_x3
<= 265.983947

a3_local_4: 
+2.21336352112616153 a3_x1
+1.13910713833385535 a3_x5
+2.25401373948266848 a3_x6
<= 259.413126

a3_local_5: 
+2.22017448455551047 a3_x3
+1.92139092010985024 a3_x5
+1.49112991256060456 a3_x1
<= 201.764380

a3_local_6: 
+2.45078954856940667 a3_x3
+2.56647366809056932 a3_x4
+1.30089899735244630 a3_x6
<= 194.552832

a3_local_7: 
+2.12853766905958919 a3_x2
+3.11644590540073052 a3_x3
+2.60032628461859394 a3_x1
<= 418.761282

a3_local_8: 
+2.18730766538581944 a3_x1
+2.20201251256348041 a3_x3
+1.54943287831461185 a3_x5
<= 217.841952

a3_act_1: 
+1.00000000000000000 a3_x1
-100.00000000000000000 a3_z1
<= 0.000000

a3_act_2: 
+1.00000000000000000 a3_x2
-100.00000000000000000 a3_z2
<= 0.000000

a4_local_1: 
+14.65779485203141341 a4_x4
+12.99436699245997673 a4_x2
+5.35903494458383101 a4_x6
<= 2306.998863

a4_local_2: 
+6.62157819133437098 a4_x5
+6.13185978153326516 a4_x6
+7.24767407192739821 a4_x2
<= 952.044553

a4_local_3: 
+13.50630972108056582 a4_x1
+13.78567077585775458 a4_x3
+9.73338375978516979 a4_x6
<= 1895.856714

a4_local_4: 
+11.26543855526268523 a4_x5
+10.61659702820929141 a4_x1
+6.23081474549094061 a4_x6
<= 1390.863782

a4_local_5: 
+5.05819209299200079 a4_x5
+9.26797282763819652 a4_x1
+11.03606584008927882 a4_x6
<= 1676.306165

a4_local_6: 
+13.14918444879523918 a4_x6
+10.84388322141911942 a4_x1
+14.90722265350423825 a4_x5
<= 1844.860691

a4_local_7: 
+12.07492944135202606 a4_x2
+14.92725686799851914 a4_x6
+5.90329247442182403 a4_x1
<= 1737.544601

a4_local_8: 
+9.22896124764749182 a4_x2
+10.43819923426986307 a4_x3
+9.86051449372700972 a4_x6
<= 1070.297134

a4_act_1: 
+1.00000000000000000 a4_x1
-100.00000000000000000 a4_z1
<= 0.000000

a4_act_2: 
+1.00000000000000000 a4_x2
-100.00000000000000000 a4_z2
<= 0.000000

coupling_1: 
+0.00194647049989210 a1_x1
+0.00963771966507669 a2_x1
+0.04104805237904921 a3_x1
+0.20324885786606633 a4_x1
+0.01756636929398566 short_1
-0.01756636929398566 surp_1
= 10.447269

coupling_2: 
+0.00121061135292324 a1_x2
+0.00647236864000075 a2_x2
+0.03104472499467636 a3_x2
+0.21188175253792516 a4_x2
+0.01756636929398566 short_2
-0.01756636929398566 surp_2
= 9.983899

coupling_3: 
+0.00105497518412468 a1_x3
+0.00755275252995317 a2_x3
+0.02754634291169989 a3_x3
+0.14020636722593993 a4_x3
+0.01756636929398566 short_3
-0.01756636929398566 surp_3
= 4.154852

bounds
  0.000000 <= a1_x1 <= 100.000000
  0.000000 <= a1_x2 <= 100.000000
  0.000000 <= a1_x3 <= 100.000000
  0.000000 <= a1_x4 <= 100.000000
  0.000000 <= a1_x5 <= 100.000000
  0.000000 <= a1_x6 <= 100.000000
  0.000000 <= a2_x1 <= 100.000000
  0.000000 <= a2_x2 <= 100.000000
  0.000000 <= a2_x3 <= 100.000000
  0.000000 <= a2_x4 <= 100.000000
  0.000000 <= a2_x5 <= 100.000000
  0.000000 <= a2_x6 <= 100.000000
  0.000000 <= a3_x1 <= 100.000000
  0.000000 <= a3_x2 <= 100.000000
  0.000000 <= a3_x3 <= 100.000000
  0.000000 <= a3_x4 <= 100.000000
  0.000000 <= a3_x5 <= 100.000000
  0.000000 <= a3_x6 <= 100.000000
  0.000000 <= a4_x1 <= 100.000000
  0.000000 <= a4_x2 <= 100.000000
  0.000000 <= a4_x3 <= 100.000000
  0.000000 <= a4_x4 <= 100.000000
  0.000000 <= a4_x5 <= 100.000000
  0.000000 <= a4_x6 <= 100.000000
  0.000000 <= short_1 <= +inf
  0.000000 <= surp_1 <= +inf
  0.000000 <= short_2 <= +inf
  0.000000 <= surp_2 <= +inf
  0.000000 <= short_3 <= +inf
  0.000000 <= surp_3 <= +inf
 0 <= a1_z1 <= 1
 0 <= a1_z2 <= 1
 0 <= a2_z1 <= 1
 0 <= a2_z2 <= 1
 0 <= a3_z1 <= 1
 0 <= a3_z2 <= 1
 0 <= a4_z1 <= 1
 0 <= a4_z2 <= 1

binary
  a1_z1
  a1_z2
  a2_z1
  a2_z2
  a3_z1
  a3_z2
  a4_z1
  a4_z2
end
