min
obj: 
  +4.61217347674817457 a1_x1
  +8.37266539443051627 a1_x2
  +3.88741117842564377 a1_x3
  +3.57352147071314707 a1_x4
  +7.90632682258909369 a1_x5
  +6.50433465125659094 a1_x6
  +46.95512094955829951 a1_z1
  +19.80665349763778238 a1_z2
  +7.65671715801393571 a2_x1
  +8.20437447093011585 a2_x2
  +3.61886914738285226 a2_x3
  +5.28592570462095690 a2_x4
  +3.39477691808076010 a2_x5
  +2.52109627660840552 a2_x6
  +31.13088232979415793 a2_z1
  +23.01056128172705328 a2_z2
  +6.98746639113835144 a3_x1
  +2.08920162411281263 a3_x2
  +9.36108080061404380 a3_x3
  +4.85098195997041159 a3_x4
  +1.72431460157976346 a3_x5
  +7.00389344376385736 a3_x6
  +33.01267747284549614 a3_z1
  +8.00105962872783749 a3_z2
  +6.42161923356443864 a4_x1
  +2.38773349159600956 a4_x2
  +7.47586240964883597 a4_x3
  +7.41060969147519710 a4_x4
  +8.58602476997859654 a4_x5
  +3.43257573175068753 a4_x6
  +23.31726507162430551 a4_z1
  +25.04248719439813797 a4_z2
  +1000000.00000000000000000 short_1
  +1000000.00000000000000000 surp_1
  +1000000.00000000000000000 short_2
  +1000000.00000000000000000 surp_2
  +1000000.00000000000000000 short_3
  +1000000.00000000000000000 surp_3

s.t.

a1_local_1: 
+0.60491706249635802 a1_x1
+0.53747819862680390 a1_x6
+0.58753087876439558 a1_x2
<= 105.296606

a1_local_2: 
+0.69990565180277420 a1_x4
+0.52567338781966111 a1_x6
+0.48352824934302857 a1_x2
<= 64.041070

a1_local_3: 
+0.68480817352744205 a1_x2
+0.65937079473179183 a1_x1
+0.31027072134633354 a1_x5
<= 63.578077

a1_local_4: 
+0.83831251093083770 a1_x1
+0.43111736147704843 a1_x2
+0.33372137277960195 a1_x4
<= 50.610814

a1_local_5: 
+0.71735581896345657 a1_x2
+0.46631409027284165 a1_x6
+0.51764060719024030 a1_x3
<= 59.645268

a1_local_6: 
+0.66379590026935587 a1_x4
+0.56687494810541716 a1_x6
+0.48788092399280780 a1_x1
<= 94.077542

a1_local_7: 
+0.57495837050331111 a1_x1
+0.29280635847224784 a1_x5
+0.76399431190709699 a1_x6
<= 90.475159

a1_local_8: 
+0.72807576124488504 a1_x2
+0.42710045878697112 a1_x1
+0.53618176394916672 a1_x4
<= 89.751506

a1_act_1: 
+0.00999950003749688 a1_x1
-0.99995000374968757 a1_z1
<= 0.000000

a1_act_2: 
+0.00999950003749688 a1_x2
-0.99995000374968757 a1_z2
<= 0.000000

a2_local_1: 
+0.53762771409426813 a2_x4
+0.63805236758035289 a2_x2
+0.50924922686811580 a2_x6
<= 62.935855

a2_local_2: 
+0.25654329375471274 a2_x2
+0.51304202949093014 a2_x6
+0.33776148788416915 a2_x5
<= 53.841383

a2_local_3: 
+0.55237007187951215 a2_x2
+0.40854450639927925 a2_x1
+0.58208568596110666 a2_x3
<= 51.535613

a2_local_4: 
+0.43374738377742261 a2_x3
+0.50261180441065423 a2_x2
+0.63896641404520371 a2_x4
<= 95.839154

a2_local_5: 
+0.35902910665669163 a2_x2
+0.50031562820236541 a2_x5
+0.66549302845553282 a2_x6
<= 93.230459

a2_local_6: 
+0.66594698657532880 a2_x6
+0.60656319352996069 a2_x5
+0.53408383509445312 a2_x1
<= 83.096032

a2_local_7: 
+0.32994533333758369 a2_x5
+0.36454916372252538 a2_x4
+0.31642846529721641 a2_x3
<= 52.318393

a2_local_8: 
+0.39023415239372405 a2_x6
+0.31807388865787833 a2_x4
+0.37228520174848773 a2_x3
<= 32.436273

a2_act_1: 
+0.00999950003749688 a2_x1
-0.99995000374968757 a2_z1
<= 0.000000

a2_act_2: 
+0.00999950003749688 a2_x2
-0.99995000374968757 a2_z2
<= 0.000000

a3_local_1: 
+0.69867525853724743 a3_x2
+0.61631646677939145 a3_x1
+0.36332753251643030 a3_x6
<= 100.473653

a3_local_2: 
+0.84481953524521003 a3_x3
+0.33603450019529901 a3_x5
+0.41636614601401345 a3_x6
<= 91.312376

a3_local_3: 
+0.60803495757039128 a3_x4
+0.63891280321225097 a3_x5
+0.47125780658131894 a3_x3
<= 108.726670

a3_local_4: 
+0.65910351258831223 a3_x1
+0.33920750429114421 a3_x5
+0.67120848380091425 a3_x6
<= 77.248993

a3_local_5: 
+0.67419358963411657 a3_x3
+0.58346289921379824 a3_x5
+0.45280685610676602 a3_x1
<= 61.269172

a3_local_6: 
+0.64842294956242197 a3_x3
+0.67903032588375112 a3_x4
+0.34418816802873342 a3_x6
<= 51.474237

a3_local_7: 
+0.46443408613077619 a3_x2
+0.67998970706036754 a3_x3
+0.56737551756471349 a3_x1
<= 91.371187

a3_local_8: 
+0.63053091360848323 a3_x1
+0.63476985121754992 a3_x3
+0.44665199313257425 a3_x5
<= 62.796875

a3_act_1: 
+0.00999950003749688 a3_x1
-0.99995000374968757 a3_z1
<= 0.000000

a3_act_2: 
+0.00999950003749688 a3_x2
-0.99995000374968757 a3_z2
<= 0.000000

a4_local_1: 
+0.72176661556773447 a4_x4
+0.63985752156253584 a4_x2
+0.26388502184047374 a4_x6
<= 113.599268

a4_local_2: 
+0.57207320132353545 a4_x5
+0.52976383483313783 a4_x6
+0.62616493963677766 a4_x2
<= 82.252170

a4_local_3: 
+0.62486109271384593 a4_x1
+0.63778555968925610 a4_x3
+0.45030899909320121 a4_x6
<= 87.710642

a4_local_4: 
+0.67511563291984966 a4_x5
+0.63623183305244890 a4_x1
+0.37340050454967499 a4_x6
<= 83.351738

a4_local_5: 
+0.33117753441898878 a4_x5
+0.60680660870351322 a4_x1
+0.72256984460320572 a4_x6
<= 109.753630

a4_local_6: 
+0.58071136016027658 a4_x6
+0.47890165351710923 a4_x1
+0.65835212647896890 a4_x5
<= 81.475134

a4_local_7: 
+0.60114033138653333 a4_x2
+0.74314108284476976 a4_x6
+0.29389051187269016 a4_x1
<= 86.502215

a4_local_8: 
+0.54067744072133672 a4_x2
+0.61152048386410263 a4_x3
+0.57767690183149889 a4_x6
<= 62.703212

a4_act_1: 
+0.00999950003749688 a4_x1
-0.99995000374968757 a4_z1
<= 0.000000

a4_act_2: 
+0.00999950003749688 a4_x2
-0.99995000374968757 a4_z2
<= 0.000000

coupling_1: 
+0.00931028632362218 a1_x1
+0.04609878731459940 a2_x1
+0.19633953902572543 a3_x1
+0.97217248439529935 a4_x1
+0.08402281349887254 short_1
-0.08402281349887254 surp_1
= 49.970993

coupling_2: 
+0.00561297955752767 a1_x2
+0.03000903037740714 a2_x2
+0.14393835506615793 a3_x2
+0.98238624868068736 a4_x2
+0.08144618131082020 short_2
-0.08144618131082020 surp_2
= 46.290184

coupling_3: 
+0.00726413655509792 a1_x3
+0.05200522872010726 a2_x3
+0.18967308379880687 a3_x3
+0.96540488605755592 a4_x3
+0.12095498287446974 short_3
-0.12095498287446974 surp_3
= 28.608644

bounds
  0.000000 <= a1_x1 <= 100.000000
  0.000000 <= a1_x2 <= 100.000000
  0.000000 <= a1_x3 <= 100.000000
  0.000000 <= a1_x4 <= 100.000000
  0.000000 <= a1_x5 <= 100.000000
  0.000000 <= a1_x6 <= 100.000000
  0.000000 <= a2_x1 <= 100.000000
  0.000000 <= a2_x2 <= 100.000000
  0.000000 <= a2_x3 <= 100.000000
  0.000000 <= a2_x4 <= 100.000000
  0.000000 <= a2_x5 <= 100.000000
  0.000000 <= a2_x6 <= 100.000000
  0.000000 <= a3_x1 <= 100.000000
  0.000000 <= a3_x2 <= 100.000000
  0.000000 <= a3_x3 <= 100.000000
  0.000000 <= a3_x4 <= 100.000000
  0.000000 <= a3_x5 <= 100.000000
  0.000000 <= a3_x6 <= 100.000000
  0.000000 <= a4_x1 <= 100.000000
  0.000000 <= a4_x2 <= 100.000000
  0.000000 <= a4_x3 <= 100.000000
  0.000000 <= a4_x4 <= 100.000000
  0.000000 <= a4_x5 <= 100.000000
  0.000000 <= a4_x6 <= 100.000000
  0.000000 <= short_1 <= +inf
  0.000000 <= surp_1 <= +inf
  0.000000 <= short_2 <= +inf
  0.000000 <= surp_2 <= +inf
  0.000000 <= short_3 <= +inf
  0.000000 <= surp_3 <= +inf
 0 <= a1_z1 <= 1
 0 <= a1_z2 <= 1
 0 <= a2_z1 <= 1
 0 <= a2_z2 <= 1
 0 <= a3_z1 <= 1
 0 <= a3_z2 <= 1
 0 <= a4_z1 <= 1
 0 <= a4_z2 <= 1

binary
  a1_z1
  a1_z2
  a2_z1
  a2_z2
  a3_z1
  a3_z2
  a4_z1
  a4_z2
end
