min
obj: 
  +5.71291625483064269 a1_x1
  +9.00563589084773142 a1_x2
  +9.01724711762336106 a1_x3
  +9.40638568868457803 a1_x4
  +5.77535620951187667 a1_x5
  +7.28815966502164514 a1_x6
  +20.35589591192510284 a1_z1
  +36.98632201902846361 a1_z2
  +9.57055811069523088 a2_x1
  +1.26049992587512483 a2_x2
  +5.39403189015226747 a2_x3
  +5.18163926236740036 a2_x4
  +3.59512023493198285 a2_x5
  +8.32429931763050135 a2_x6
  +8.22405720557796727 a2_z1
  +9.84830187035061044 a2_z2
  +4.44432428569451421 a3_x1
  +6.87835612826100196 a3_x2
  +6.09227189830646143 a3_x3
  +7.96998209317280093 a3_x4
  +3.38862436120579025 a3_x5
  +8.87685055794251454 a3_x6
  +46.43685776379189178 a3_z1
  +46.77504748135883261 a3_z2
  +2.14266889482626155 a4_x1
  +3.71753864038075932 a4_x2
  +7.47528281002840789 a4_x3
  +1.46230104481487744 a4_x4
  +9.33481878718765401 a4_x5
  +5.50998435696904032 a4_x6
  +29.02492698326168252 a4_z1
  +40.43054682310305736 a4_z2
  +1000000.00000000000000000 short_1
  +1000000.00000000000000000 surp_1
  +1000000.00000000000000000 short_2
  +1000000.00000000000000000 surp_2
  +1000000.00000000000000000 short_3
  +1000000.00000000000000000 surp_3

s.t.

a1_local_1: 
+0.10601880956378679 a1_x1
+0.06981007658341432 a1_x3
+0.08467905479561277 a1_x4
<= 9.104077

a1_local_2: 
+0.11880899091204906 a1_x3
+0.05313637228352748 a1_x4
+0.10707181094441542 a1_x5
<= 11.720934

a1_local_3: 
+0.09890263386845205 a1_x2
+0.06091994067420689 a1_x4
+0.10710427981409186 a1_x1
<= 11.222312

a1_local_4: 
+0.08232104721828709 a1_x2
+0.10098440835338417 a1_x3
+0.06557993717278077 a1_x4
<= 8.161136

a1_local_5: 
+0.11708067214223417 a1_x1
+0.06108504613283301 a1_x3
+0.10819518953873022 a1_x2
<= 9.916667

a1_local_6: 
+0.08511277913413827 a1_x2
+0.08346863115007740 a1_x3
+0.07556958787145374 a1_x4
<= 15.243654

a1_local_7: 
+0.08665280746029930 a1_x1
+0.12501795037520813 a1_x2
+0.13720974339065811 a1_x4
<= 23.041306

a1_local_8: 
+0.12314793063897081 a1_x2
+0.11782398371553562 a1_x6
+0.06969614774812281 a1_x5
<= 18.422220

a1_act_1: 
+1.00000000000000000 a1_x1
-100.00000000000000000 a1_z1
<= 0.000000

a1_act_2: 
+1.00000000000000000 a1_x2
-100.00000000000000000 a1_z2
<= 0.000000

a2_local_1: 
+0.33820536481278862 a2_x5
+0.48778173978046802 a2_x6
+0.54554938484551596 a2_x2
<= 51.932806

a2_local_2: 
+0.50042309546837249 a2_x4
+0.61519349163932335 a2_x6
+0.61686924455462411 a2_x2
<= 77.758009

a2_local_3: 
+0.63241446966091830 a2_x6
+0.26871087639233177 a2_x1
+0.67440777994715950 a2_x2
<= 77.059195

a2_local_4: 
+0.49578885918991755 a2_x6
+0.62453989901379936 a2_x2
+0.68973973569201630 a2_x5
<= 97.469539

a2_local_5: 
+0.62033792694412293 a2_x2
+0.43079246751818473 a2_x5
+0.26697972952220134 a2_x1
<= 83.199871

a2_local_6: 
+0.41867061427744201 a2_x2
+0.34489115079170474 a2_x4
+0.66193391179116723 a2_x3
<= 59.325626

a2_local_7: 
+0.30659693631178969 a2_x5
+0.27439507775419025 a2_x1
+0.25704932180207113 a2_x6
<= 42.778921

a2_local_8: 
+0.29935784194281662 a2_x3
+0.41502606140354453 a2_x2
+0.61287656635003629 a2_x5
<= 80.296464

a2_act_1: 
+1.00000000000000000 a2_x1
-100.00000000000000000 a2_z1
<= 0.000000

a2_act_2: 
+1.00000000000000000 a2_x2
-100.00000000000000000 a2_z2
<= 0.000000

a3_local_1: 
+2.89699684127215873 a3_x6
+2.30104547741208432 a3_x4
+3.14236600070794037 a3_x5
<= 481.955711

a3_local_2: 
+3.20776124550529884 a3_x3
+2.36449886849332547 a3_x6
+2.07557121911622211 a3_x5
<= 252.953457

a3_local_3: 
+2.08059540181297198 a3_x3
+1.70949510080760159 a3_x5
+2.50372234583672437 a3_x2
<= 220.194414

a3_local_4: 
+1.50806319649140841 a3_x1
+3.15007826580341588 a3_x4
+1.65820395726739656 a3_x2
<= 343.772859

a3_local_5: 
+1.54706863678186224 a3_x2
+2.52406778425509914 a3_x5
+2.17808471630376888 a3_x3
<= 328.091471

a3_local_6: 
+1.94951505293723759 a3_x5
+2.19183984469877435 a3_x3
+2.35266677535552082 a3_x2
<= 316.774717

a3_local_7: 
+2.36811137766814950 a3_x5
+2.03282065906173059 a3_x6
+3.15714605365230971 a3_x1
<= 342.056119

a3_local_8: 
+2.67954195671269169 a3_x4
+3.01535807155580171 a3_x2
+1.21378143603156952 a3_x1
<= 340.130036

a3_act_1: 
+1.00000000000000000 a3_x1
-100.00000000000000000 a3_z1
<= 0.000000

a3_act_2: 
+1.00000000000000000 a3_x2
-100.00000000000000000 a3_z2
<= 0.000000

a4_local_1: 
+13.90666935569382900 a4_x2
+14.59418574293947835 a4_x5
+6.05393787529297089 a4_x4
<= 1496.191913

a4_local_2: 
+10.30335893590630825 a4_x2
+9.35717836375452450 a4_x4
+8.84008782649426195 a4_x3
<= 1623.130541

a4_local_3: 
+9.10225653023292836 a4_x6
+14.32316377422506726 a4_x4
+11.61264874235653721 a4_x1
<= 1332.190063

a4_local_4: 
+11.21937278696216111 a4_x1
+7.25756564584927233 a4_x6
+10.45794756277784643 a4_x3
<= 985.626884

a4_local_5: 
+9.96683136825384786 a4_x1
+12.22523794397180552 a4_x3
+10.61334598663367856 a4_x6
<= 1626.767776

a4_local_6: 
+8.24416714363083436 a4_x6
+6.39972145295143147 a4_x2
+7.79536156318577156 a4_x4
<= 1457.263706

a4_local_7: 
+11.25746677886341196 a4_x3
+7.04931229726349073 a4_x6
+7.32532387804752805 a4_x4
<= 1405.676101

a4_local_8: 
+6.08938812892098813 a4_x4
+9.30525652058925523 a4_x5
+11.97745130510976352 a4_x6
<= 1350.509727

a4_act_1: 
+1.00000000000000000 a4_x1
-100.00000000000000000 a4_z1
<= 0.000000

a4_act_2: 
+1.00000000000000000 a4_x2
-100.00000000000000000 a4_z2
<= 0.000000

coupling_1: 
+0.03718960872737673 a1_x1
+0.07677358716991374 a2_x1
+0.65166865978976662 a3_x1
+1.63762904788158314 a4_x1
+0.28490577426787828 short_1
-0.28490577426787828 surp_1
= 181.838855

coupling_2: 
+0.03870015526804282 a1_x2
+0.17911500114153461 a2_x2
+0.78530997471973440 a3_x2
+4.17627655308229873 a4_x2
+0.28490577426787828 short_2
-0.28490577426787828 surp_2
= 398.603572

coupling_3: 
+0.02979977656848879 a1_x3
+0.08446386248994361 a2_x3
+0.37071358607195171 a3_x3
+2.06443211613081701 a4_x3
+0.28490577426787828 short_3
-0.28490577426787828 surp_3
= 72.657952

bounds
  0.000000 <= a1_x1 <= 100.000000
  0.000000 <= a1_x2 <= 100.000000
  0.000000 <= a1_x3 <= 100.000000
  0.000000 <= a1_x4 <= 100.000000
  0.000000 <= a1_x5 <= 100.000000
  0.000000 <= a1_x6 <= 100.000000
  0.000000 <= a2_x1 <= 100.000000
  0.000000 <= a2_x2 <= 100.000000
  0.000000 <= a2_x3 <= 100.000000
  0.000000 <= a2_x4 <= 100.000000
  0.000000 <= a2_x5 <= 100.000000
  0.000000 <= a2_x6 <= 100.000000
  0.000000 <= a3_x1 <= 100.000000
  0.000000 <= a3_x2 <= 100.000000
  0.000000 <= a3_x3 <= 100.000000
  0.000000 <= a3_x4 <= 100.000000
  0.000000 <= a3_x5 <= 100.000000
  0.000000 <= a3_x6 <= 100.000000
  0.000000 <= a4_x1 <= 100.000000
  0.000000 <= a4_x2 <= 100.000000
  0.000000 <= a4_x3 <= 100.000000
  0.000000 <= a4_x4 <= 100.000000
  0.000000 <= a4_x5 <= 100.000000
  0.000000 <= a4_x6 <= 100.000000
  0.000000 <= short_1 <= +inf
  0.000000 <= surp_1 <= +inf
  0.000000 <= short_2 <= +inf
  0.000000 <= surp_2 <= +inf
  0.000000 <= short_3 <= +inf
  0.000000 <= surp_3 <= +inf
 0 <= a1_z1 <= 1
 0 <= a1_z2 <= 1
 0 <= a2_z1 <= 1
 0 <= a2_z2 <= 1
 0 <= a3_z1 <= 1
 0 <= a3_z2 <= 1
 0 <= a4_z1 <= 1
 0 <= a4_z2 <= 1

binary
  a1_z1
  a1_z2
  a2_z1
  a2_z2
  a3_z1
  a3_z2
  a4_z1
  a4_z2
end
