min
obj: 
  +8.05560131874530505 a1_x1
  +1.97423451738110156 a1_x2
  +4.43855917145081946 a1_x3
  +2.09177435273224699 a1_x4
  +8.36067334918018190 a1_x5
  +3.13328512039077767 a1_x6
  +12.32473257168471292 a1_z1
  +43.38047102379790942 a1_z2
  +7.63381403352449350 a2_x1
  +9.96116936913966633 a2_x2
  +9.94077753687388643 a2_x3
  +8.29981383037531018 a2_x4
  +5.15933962158974069 a2_x5
  +2.23730116212215036 a2_x6
  +36.51341922859109701 a2_z1
  +11.46217618633665936 a2_z2
  +8.77356431574039775 a3_x1
  +3.66477499322525757 a3_x2
  +8.98940674965133013 a3_x3
  +1.83133745097963319 a3_x4
  +5.96614000496332153 a3_x5
  +2.35435503869091178 a3_x6
  +18.83602233642604062 a3_z1
  +16.87083221217522322 a3_z2
  +7.85154573325681415 a4_x1
  +9.06414056673653157 a4_x2
  +3.88034584638911362 a4_x3
  +5.56052955494331336 a4_x4
  +7.24881590451171665 a4_x5
  +9.98170521647477038 a4_x6
  +15.56555023854576802 a4_z1
  +24.43179263140065771 a4_z2
  +1000000.00000000000000000 short_1
  +1000000.00000000000000000 surp_1
  +1000000.00000000000000000 short_2
  +1000000.00000000000000000 surp_2
  +1000000.00000000000000000 short_3
  +1000000.00000000000000000 surp_3

s.t.

a1_local_1: 
+0.13625450699833155 a1_x2
+0.05735599807648564 a1_x5
+0.07280381327783586 a1_x3
<= 12.802383

a1_local_2: 
+0.05521562618655699 a1_x6
+0.11014589296677813 a1_x4
+0.09605351117197521 a1_x2
<= 11.188119

a1_local_3: 
+0.08662869302450664 a1_x5
+0.11610654624935744 a1_x3
+0.05163353738993584 a1_x4
<= 11.697351

a1_local_4: 
+0.05198698779231588 a1_x6
+0.12581561841619035 a1_x1
+0.14957376987882973 a1_x4
<= 10.237828

a1_local_5: 
+0.12853150925022228 a1_x3
+0.11652160198196732 a1_x4
+0.08761140415615920 a1_x1
<= 10.506495

a1_local_6: 
+0.07475135722712294 a1_x3
+0.10524936581547828 a1_x5
+0.06321899443317616 a1_x1
<= 10.098485

a1_local_7: 
+0.07770870310475689 a1_x3
+0.14720515431321471 a1_x6
+0.05949879752467903 a1_x5
<= 16.963190

a1_local_8: 
+0.07338337191674056 a1_x5
+0.09991655719110598 a1_x6
+0.05267577677557958 a1_x2
<= 15.037862

a1_act_1: 
+1.00000000000000000 a1_x1
-100.00000000000000000 a1_z1
<= 0.000000

a1_act_2: 
+1.00000000000000000 a1_x2
-100.00000000000000000 a1_z2
<= 0.000000

a2_local_1: 
+0.26797659064423018 a2_x1
+0.34218035095632082 a2_x6
+0.39626499414060323 a2_x5
<= 31.068054

a2_local_2: 
+0.66975995717254755 a2_x2
+0.28384346900607854 a2_x4
+0.64537967061717549 a2_x3
<= 107.456926

a2_local_3: 
+0.61303451322557734 a2_x6
+0.67357377337805568 a2_x3
+0.59055562606995238 a2_x1
<= 113.393836

a2_local_4: 
+0.60820612403187646 a2_x4
+0.63217956389271190 a2_x3
+0.58803222179024772 a2_x1
<= 72.934087

a2_local_5: 
+0.34356407514661369 a2_x3
+0.27228723824384471 a2_x5
+0.28582416220671775 a2_x2
<= 41.296387

a2_local_6: 
+0.35816453125501330 a2_x6
+0.28479957911726389 a2_x4
+0.60851777979769506 a2_x1
<= 56.992658

a2_local_7: 
+0.43239067335974063 a2_x2
+0.61975983238952714 a2_x1
+0.44948412996090192 a2_x6
<= 85.403455

a2_local_8: 
+0.65595381900059357 a2_x3
+0.54071318072203889 a2_x4
+0.39678324138785931 a2_x6
<= 83.763554

a2_act_1: 
+1.00000000000000000 a2_x1
-100.00000000000000000 a2_z1
<= 0.000000

a2_act_2: 
+1.00000000000000000 a2_x2
-100.00000000000000000 a2_z2
<= 0.000000

a3_local_1: 
+2.29090075690648298 a3_x5
+1.56174276014834268 a3_x6
+1.84258778229006226 a3_x2
<= 319.369055

a3_local_2: 
+2.33401868784126032 a3_x4
+1.92522579394460069 a3_x6
+2.59278080361648389 a3_x1
<= 313.854331

a3_local_3: 
+1.35312542381631307 a3_x4
+1.26930610161648882 a3_x5
+2.80450786844887334 a3_x3
<= 167.350132

a3_local_4: 
+2.04396957324980377 a3_x2
+1.36922219053219663 a3_x3
+2.85106060298317443 a3_x6
<= 273.344968

a3_local_5: 
+1.95404468216594651 a3_x5
+2.24411430487675689 a3_x3
+1.77962804012697418 a3_x2
<= 207.816979

a3_local_6: 
+3.07463103413105543 a3_x1
+2.93694209730691425 a3_x5
+2.78654235550271956 a3_x3
<= 605.257852

a3_local_7: 
+2.16461641996311949 a3_x5
+2.44581147314553027 a3_x6
+2.09141462129614464 a3_x3
<= 341.259934

a3_local_8: 
+1.55133986206475072 a3_x5
+2.12050182823923716 a3_x6
+1.91764233115222593 a3_x3
<= 231.625844

a3_act_1: 
+1.00000000000000000 a3_x1
-100.00000000000000000 a3_z1
<= 0.000000

a3_act_2: 
+1.00000000000000000 a3_x2
-100.00000000000000000 a3_z2
<= 0.000000

a4_local_1: 
+12.38358497505455702 a4_x2
+6.85191135229876025 a4_x5
+10.15644258955024526 a4_x4
<= 1832.588594

a4_local_2: 
+10.49062116131368683 a4_x4
+13.26471077902538909 a4_x1
+13.86718726641731969 a4_x3
<= 1558.174432

a4_local_3: 
+11.64568758959620709 a4_x3
+7.79480667418356532 a4_x1
+10.16365479119948390 a4_x6
<= 1029.286754

a4_local_4: 
+10.28664980257392614 a4_x2
+5.93183895209926337 a4_x3
+10.79623111051635043 a4_x5
<= 982.365355

a4_local_5: 
+12.77879931413430370 a4_x4
+6.52917786947162515 a4_x5
+8.59336579576905280 a4_x6
<= 1619.088107

a4_local_6: 
+5.16361199622065481 a4_x2
+14.46475839166456723 a4_x4
+5.32892674940008071 a4_x3
<= 1423.149441

a4_local_7: 
+12.66908377012194720 a4_x2
+9.26463053165495154 a4_x6
+10.89369263234566532 a4_x1
<= 1362.520732

a4_local_8: 
+10.78776628891137435 a4_x5
+11.52380891661334950 a4_x4
+8.97884710389165441 a4_x2
<= 1101.680724

a4_act_1: 
+1.00000000000000000 a4_x1
-100.00000000000000000 a4_z1
<= 0.000000

a4_act_2: 
+1.00000000000000000 a4_x2
-100.00000000000000000 a4_z2
<= 0.000000

coupling_1: 
+0.00182248063232553 a1_x1
+0.01519718258547561 a2_x1
+0.06141530600662524 a3_x1
+0.18668921254590565 a4_x1
+0.02351835457339103 short_1
-0.02351835457339103 surp_1
= 18.149351

coupling_2: 
+0.00314473547092128 a1_x2
+0.00755786482367289 a2_x2
+0.06679806271546247 a3_x2
+0.18806861817686507 a4_x2
+0.02351835457339103 short_2
-0.02351835457339103 surp_2
= 20.832057

coupling_3: 
+0.00237612264545233 a1_x3
+0.00795589688982252 a2_x3
+0.05243746320529755 a3_x3
+0.34413261933700506 a4_x3
+0.02351835457339103 short_3
-0.02351835457339103 surp_3
= 24.953290

bounds
  0.000000 <= a1_x1 <= 100.000000
  0.000000 <= a1_x2 <= 100.000000
  0.000000 <= a1_x3 <= 100.000000
  0.000000 <= a1_x4 <= 100.000000
  0.000000 <= a1_x5 <= 100.000000
  0.000000 <= a1_x6 <= 100.000000
  0.000000 <= a2_x1 <= 100.000000
  0.000000 <= a2_x2 <= 100.000000
  0.000000 <= a2_x3 <= 100.000000
  0.000000 <= a2_x4 <= 100.000000
  0.000000 <= a2_x5 <= 100.000000
  0.000000 <= a2_x6 <= 100.000000
  0.000000 <= a3_x1 <= 100.000000
  0.000000 <= a3_x2 <= 100.000000
  0.000000 <= a3_x3 <= 100.000000
  0.000000 <= a3_x4 <= 100.000000
  0.000000 <= a3_x5 <= 100.000000
  0.000000 <= a3_x6 <= 100.000000
  0.000000 <= a4_x1 <= 100.000000
  0.000000 <= a4_x2 <= 100.000000
  0.000000 <= a4_x3 <= 100.000000
  0.000000 <= a4_x4 <= 100.000000
  0.000000 <= a4_x5 <= 100.000000
  0.000000 <= a4_x6 <= 100.000000
  0.000000 <= short_1 <= +inf
  0.000000 <= surp_1 <= +inf
  0.000000 <= short_2 <= +inf
  0.000000 <= surp_2 <= +inf
  0.000000 <= short_3 <= +inf
  0.000000 <= surp_3 <= +inf
 0 <= a1_z1 <= 1
 0 <= a1_z2 <= 1
 0 <= a2_z1 <= 1
 0 <= a2_z2 <= 1
 0 <= a3_z1 <= 1
 0 <= a3_z2 <= 1
 0 <= a4_z1 <= 1
 0 <= a4_z2 <= 1

binary
  a1_z1
  a1_z2
  a2_z1
  a2_z2
  a3_z1
  a3_z2
  a4_z1
  a4_z2
end
