min
obj: 
  +1.85914319529187777 a1_x1
  +3.32311090405199927 a1_x2
  +9.20870591814637862 a1_x3
  +9.62032466035919853 a1_x4
  +2.65221673698665317 a1_x5
  +9.19424318038364063 a1_x6
  +15.23159126469524693 a1_z1
  +37.87053616888882601 a1_z2
  +9.50992409015265672 a2_x1
  +7.57539983332453648 a2_x2
  +7.25458697589536605 a2_x3
  +4.07761765395989872 a2_x4
  +7.08231795774132511 a2_x5
  +8.34807126494008500 a2_x6
  +13.29578844905750223 a2_z1
  +34.63921833196101829 a2_z2
  +8.76504266892960793 a3_x1
  +7.77977201232387294 a3_x2
  +6.04838547653606717 a3_x3
  +6.48681552366104786 a3_x4
  +7.59141867997845843 a3_x5
  +2.66707871930021945 a3_x6
  +17.07642873173313092 a3_z1
  +32.16693189471635606 a3_z2
  +3.95786841150633606 a4_x1
  +4.77265222387028487 a4_x2
  +6.62265288598760282 a4_x3
  +9.50730455200969438 a4_x4
  +5.10859874083684673 a4_x5
  +6.19908634988090146 a4_x6
  +14.10084107909216655 a4_z1
  +36.13532285979064795 a4_z2
  +1000000.00000000000000000 short_1
  +1000000.00000000000000000 surp_1
  +1000000.00000000000000000 short_2
  +1000000.00000000000000000 surp_2
  +1000000.00000000000000000 short_3
  +1000000.00000000000000000 surp_3

s.t.

a1_local_1: 
+0.08946433144493565 a1_x5
+0.06353584874365197 a1_x4
+0.08583631245585777 a1_x3
<= 8.526220

a1_local_2: 
+0.12771120422091706 a1_x2
+0.08681131164421248 a1_x4
+0.09902578226136322 a1_x3
<= 21.114176

a1_local_3: 
+0.11067179300559848 a1_x1
+0.06572229729482777 a1_x6
+0.13176736938999684 a1_x3
<= 12.783092

a1_local_4: 
+0.13139489388724201 a1_x3
+0.13130321782795032 a1_x6
+0.13943613878262112 a1_x5
<= 23.954662

a1_local_5: 
+0.11988124675651493 a1_x2
+0.11702439438557387 a1_x3
+0.10980022465551174 a1_x5
<= 11.522606

a1_local_6: 
+0.13613608138366118 a1_x4
+0.14982391289795802 a1_x3
+0.13747143622915470 a1_x2
<= 27.664765

a1_local_7: 
+0.08074061641326594 a1_x6
+0.08150040708539695 a1_x4
+0.06583045993830637 a1_x5
<= 15.232033

a1_local_8: 
+0.09770575757282707 a1_x3
+0.13568482395949522 a1_x4
+0.06663549166475016 a1_x2
<= 20.597386

a1_act_1: 
+1.00000000000000000 a1_x1
-100.00000000000000000 a1_z1
<= 0.000000

a1_act_2: 
+1.00000000000000000 a1_x2
-100.00000000000000000 a1_z2
<= 0.000000

a2_local_1: 
+0.51140652514905904 a2_x5
+0.62428331511328938 a2_x1
+0.26245015307816461 a2_x3
<= 89.962024

a2_local_2: 
+0.51995823675303232 a2_x3
+0.47969357296189841 a2_x1
+0.60003905109844158 a2_x2
<= 95.762200

a2_local_3: 
+0.37318171882349138 a2_x4
+0.50512066611548001 a2_x6
+0.51616734720599278 a2_x2
<= 45.903105

a2_local_4: 
+0.66876191396897688 a2_x5
+0.54579570241004216 a2_x2
+0.41498759817513420 a2_x3
<= 88.612445

a2_local_5: 
+0.63772816619695083 a2_x2
+0.56737692429587161 a2_x1
+0.51827546427339344 a2_x5
<= 57.279199

a2_local_6: 
+0.24483118808278814 a2_x4
+0.68910359429491985 a2_x3
+0.47008426278471183 a2_x2
<= 98.065070

a2_local_7: 
+0.48717608762904308 a2_x1
+0.52877324142735838 a2_x4
+0.25739550338611256 a2_x6
<= 63.895698

a2_local_8: 
+0.34788775042305126 a2_x4
+0.34647969473880214 a2_x5
+0.43833459420870002 a2_x1
<= 70.264062

a2_act_1: 
+1.00000000000000000 a2_x1
-100.00000000000000000 a2_z1
<= 0.000000

a2_act_2: 
+1.00000000000000000 a2_x2
-100.00000000000000000 a2_z2
<= 0.000000

a3_local_1: 
+2.38028795288582007 a3_x3
+1.45776209052965489 a3_x2
+1.26287552689675375 a3_x1
<= 295.619427

a3_local_2: 
+2.97023123181216864 a3_x3
+1.15188022011013569 a3_x5
+2.08789106320770568 a3_x1
<= 365.152732

a3_local_3: 
+1.59920258805324700 a3_x1
+1.41475554871262710 a3_x6
+1.32572945168005818 a3_x5
<= 247.077380

a3_local_4: 
+2.04541429219861515 a3_x4
+1.46155074249982753 a3_x5
+2.49288194533105667 a3_x3
<= 203.796060

a3_local_5: 
+1.32750274105753707 a3_x5
+1.61130976700376949 a3_x2
+1.26824555285251050 a3_x3
<= 145.695784

a3_local_6: 
+1.71759331530914583 a3_x1
+2.20421032244208126 a3_x4
+2.89854356952819936 a3_x6
<= 339.300856

a3_local_7: 
+2.08345460746643285 a3_x2
+2.32333905432024634 a3_x6
+2.16338635167391491 a3_x3
<= 392.162163

a3_local_8: 
+3.02346240724633075 a3_x4
+2.64493865011604079 a3_x3
+1.27310635610220579 a3_x1
<= 303.109918

a3_act_1: 
+1.00000000000000000 a3_x1
-100.00000000000000000 a3_z1
<= 0.000000

a3_act_2: 
+1.00000000000000000 a3_x2
-100.00000000000000000 a3_z2
<= 0.000000

a4_local_1: 
+6.74598445900503751 a4_x4
+13.54675729885730462 a4_x1
+7.56001097921247656 a4_x2
<= 977.562115

a4_local_2: 
+9.21430124243657112 a4_x5
+8.47264134319442697 a4_x4
+5.40620179994179573 a4_x1
<= 749.619904

a4_local_3: 
+14.74917304923557992 a4_x1
+6.64689360191581091 a4_x2
+8.54676615375718995 a4_x4
<= 1187.883424

a4_local_4: 
+12.63107087243325211 a4_x6
+6.23435034297762947 a4_x3
+14.25640685331016044 a4_x4
<= 1431.455946

a4_local_5: 
+5.00320416837540805 a4_x6
+13.72319951599012100 a4_x3
+12.17565931191054673 a4_x5
<= 965.026230

a4_local_6: 
+7.14948257366068418 a4_x4
+7.34877505525547825 a4_x1
+10.85081555288665633 a4_x5
<= 1264.327218

a4_local_7: 
+5.89023088516301918 a4_x1
+5.97864983256162219 a4_x2
+13.17173984177864554 a4_x3
<= 1282.333188

a4_local_8: 
+7.53101219579647019 a4_x2
+10.21841937882258478 a4_x3
+7.17340516538810391 a4_x4
<= 1637.507524

a4_act_1: 
+1.00000000000000000 a4_x1
-100.00000000000000000 a4_z1
<= 0.000000

a4_act_2: 
+1.00000000000000000 a4_x2
-100.00000000000000000 a4_z2
<= 0.000000

coupling_1: 
+0.00015844074315419 a1_x1
+0.00095717176626637 a2_x1
+0.00524618635101034 a3_x1
+0.02788870074731776 a4_x1
+0.00246190834935505 short_1
-0.00246190834935505 surp_1
= 2.650892

coupling_2: 
+0.00023232585798609 a1_x2
+0.00100059899492942 a2_x2
+0.00549715249199311 a3_x2
+0.02455685004469769 a4_x2
+0.00246190834935505 short_2
-0.00246190834935505 surp_2
= 1.385903

coupling_3: 
+0.00034056785120108 a1_x3
+0.00166533886133424 a2_x3
+0.00482181475871710 a3_x3
+0.03682742212239428 a4_x3
+0.00246190834935505 short_3
-0.00246190834935505 surp_3
= 3.054238

bounds
  0.000000 <= a1_x1 <= 100.000000
  0.000000 <= a1_x2 <= 100.000000
  0.000000 <= a1_x3 <= 100.000000
  0.000000 <= a1_x4 <= 100.000000
  0.000000 <= a1_x5 <= 100.000000
  0.000000 <= a1_x6 <= 100.000000
  0.000000 <= a2_x1 <= 100.000000
  0.000000 <= a2_x2 <= 100.000000
  0.000000 <= a2_x3 <= 100.000000
  0.000000 <= a2_x4 <= 100.000000
  0.000000 <= a2_x5 <= 100.000000
  0.000000 <= a2_x6 <= 100.000000
  0.000000 <= a3_x1 <= 100.000000
  0.000000 <= a3_x2 <= 100.000000
  0.000000 <= a3_x3 <= 100.000000
  0.000000 <= a3_x4 <= 100.000000
  0.000000 <= a3_x5 <= 100.000000
  0.000000 <= a3_x6 <= 100.000000
  0.000000 <= a4_x1 <= 100.000000
  0.000000 <= a4_x2 <= 100.000000
  0.000000 <= a4_x3 <= 100.000000
  0.000000 <= a4_x4 <= 100.000000
  0.000000 <= a4_x5 <= 100.000000
  0.000000 <= a4_x6 <= 100.000000
  0.000000 <= short_1 <= +inf
  0.000000 <= surp_1 <= +inf
  0.000000 <= short_2 <= +inf
  0.000000 <= surp_2 <= +inf
  0.000000 <= short_3 <= +inf
  0.000000 <= surp_3 <= +inf
 0 <= a1_z1 <= 1
 0 <= a1_z2 <= 1
 0 <= a2_z1 <= 1
 0 <= a2_z2 <= 1
 0 <= a3_z1 <= 1
 0 <= a3_z2 <= 1
 0 <= a4_z1 <= 1
 0 <= a4_z2 <= 1

binary
  a1_z1
  a1_z2
  a2_z1
  a2_z2
  a3_z1
  a3_z2
  a4_z1
  a4_z2
end
