min
obj: 
  +8.05560131874530505 a1_x1
  +1.97423451738110156 a1_x2
  +4.43855917145081946 a1_x3
  +2.09177435273224699 a1_x4
  +8.36067334918018190 a1_x5
  +3.13328512039077767 a1_x6
  +12.32473257168471292 a1_z1
  +43.38047102379790942 a1_z2
  +7.63381403352449350 a2_x1
  +9.96116936913966633 a2_x2
  +9.94077753687388643 a2_x3
  +8.29981383037531018 a2_x4
  +5.15933962158974069 a2_x5
  +2.23730116212215036 a2_x6
  +36.51341922859109701 a2_z1
  +11.46217618633665936 a2_z2
  +8.77356431574039775 a3_x1
  +3.66477499322525757 a3_x2
  +8.98940674965133013 a3_x3
  +1.83133745097963319 a3_x4
  +5.96614000496332153 a3_x5
  +2.35435503869091178 a3_x6
  +18.83602233642604062 a3_z1
  +16.87083221217522322 a3_z2
  +7.85154573325681415 a4_x1
  +9.06414056673653157 a4_x2
  +3.88034584638911362 a4_x3
  +5.56052955494331336 a4_x4
  +7.24881590451171665 a4_x5
  +9.98170521647477038 a4_x6
  +15.56555023854576802 a4_z1
  +24.43179263140065771 a4_z2
  +1000000.00000000000000000 short_1
  +1000000.00000000000000000 surp_1
  +1000000.00000000000000000 short_2
  +1000000.00000000000000000 surp_2
  +1000000.00000000000000000 short_3
  +1000000.00000000000000000 surp_3

s.t.

a1_local_1: 
+1.54129588028449538 a1_x2
+0.64880469272091867 a1_x5
+0.82354866599388232 a1_x3
<= 144.819138

a1_local_2: 
+0.70802215372229949 a1_x6
+1.41238518419611503 a1_x4
+1.23168056851863317 a1_x2
<= 143.463662

a1_local_3: 
+1.11883867236860257 a1_x5
+1.49955504952828722 a1_x3
+0.66686448111029228 a1_x4
<= 151.075216

a1_local_4: 
+0.58954859312620811 a1_x6
+1.42678820182638999 a1_x1
+1.69621302070671565 a1_x4
<= 116.100148

a1_local_5: 
+1.21122404325348665 a1_x3
+1.09804799385196561 a1_x4
+0.82561108786602810 a1_x1
<= 99.008559

a1_local_6: 
+0.91640098371995959 a1_x3
+1.29028590178172498 a1_x5
+0.77502203086860355 a1_x1
<= 123.800581

a1_local_7: 
+0.83033636448900061 a1_x3
+1.57292282309360543 a1_x6
+0.63575910103027955 a1_x5
<= 181.255800

a1_local_8: 
+1.01151763446851972 a1_x5
+1.37725150717870082 a1_x6
+0.72608379427262315 a1_x2
<= 207.282137

a1_act_1: 
+0.10000000000000001 a1_x1
-10.00000000000000000 a1_z1
<= 0.000000

a1_act_2: 
+0.10000000000000001 a1_x2
-10.00000000000000000 a1_z2
<= 0.000000

a2_local_1: 
+0.82234787478925853 a2_x1
+1.05005920004838194 a2_x6
+1.21603038161467603 a2_x5
<= 95.339478

a2_local_2: 
+1.53610228957803652 a2_x2
+0.65099831357890736 a2_x4
+1.48018581741929944 a2_x3
<= 246.453715

a2_local_3: 
+0.61303451322557734 a2_x6
+0.67357377337805568 a2_x3
+0.59055562606995238 a2_x1
<= 113.393836

a2_local_4: 
+0.60820612403187646 a2_x4
+0.63217956389271190 a2_x3
+0.58803222179024772 a2_x1
<= 72.934087

a2_local_5: 
+1.12328569765905950 a2_x3
+0.89024546656653047 a2_x5
+0.93450455585374570 a2_x2
<= 135.018893

a2_local_6: 
+0.86035218936046809 a2_x6
+0.68412117906788994 a2_x4
+1.46172934064472670 a2_x1
<= 136.902886

a2_local_7: 
+0.43239067335974063 a2_x2
+0.61975983238952714 a2_x1
+0.44948412996090192 a2_x6
<= 85.403455

a2_local_8: 
+0.65595381900059357 a2_x3
+0.54071318072203889 a2_x4
+0.39678324138785931 a2_x6
<= 83.763554

a2_act_1: 
+0.10000000000000001 a2_x1
-10.00000000000000000 a2_z1
<= 0.000000

a2_act_2: 
+0.10000000000000001 a2_x2
-10.00000000000000000 a2_z2
<= 0.000000

a3_local_1: 
+2.29090075690648298 a3_x5
+1.56174276014834268 a3_x6
+1.84258778229006226 a3_x2
<= 319.369055

a3_local_2: 
+1.04467353286536069 a3_x4
+0.86170365395995119 a3_x6
+1.16049177162532513 a3_x1
<= 140.476730

a3_local_3: 
+1.35312542381631307 a3_x4
+1.26930610161648882 a3_x5
+2.80450786844887334 a3_x3
<= 167.350132

a3_local_4: 
+2.04396957324980377 a3_x2
+1.36922219053219663 a3_x3
+2.85106060298317443 a3_x6
<= 273.344968

a3_local_5: 
+1.95404468216594651 a3_x5
+2.24411430487675689 a3_x3
+1.77962804012697418 a3_x2
<= 207.816979

a3_local_6: 
+1.05042168519705426 a3_x1
+1.00338142461089896 a3_x5
+0.95199862502115473 a3_x3
<= 206.781225

a3_local_7: 
+0.95708253145273703 a3_x5
+1.08141258404302176 a3_x6
+0.92471644472764625 a3_x3
<= 150.887667

a3_local_8: 
+1.55133986206475072 a3_x5
+2.12050182823923716 a3_x6
+1.91764233115222593 a3_x3
<= 231.625844

a3_act_1: 
+0.10000000000000001 a3_x1
-10.00000000000000000 a3_z1
<= 0.000000

a3_act_2: 
+0.10000000000000001 a3_x2
-10.00000000000000000 a3_z2
<= 0.000000

a4_local_1: 
+1.34436540007055472 a4_x2
+0.74384538604423922 a4_x5
+1.10258620849284239 a4_x4
<= 198.946323

a4_local_2: 
+0.86977398108841164 a4_x4
+1.09977284708415879 a4_x1
+1.14972397627786815 a4_x3
<= 129.187734

a4_local_3: 
+1.22230585908216138 a4_x3
+0.81812583370164593 a4_x1
+1.06675494301168694 a4_x6
<= 108.031683

a4_local_4: 
+1.28541449484135106 a4_x2
+0.74123955966548294 a4_x3
+1.34909151428897589 a4_x5
<= 122.755872

a4_local_5: 
+1.39899375205651255 a4_x4
+0.71479947535863264 a4_x5
+0.94078205329664621 a4_x6
<= 177.254067

a4_local_6: 
+0.59747702325111229 a4_x2
+1.67370452935344471 a4_x4
+0.61660544860557898 a4_x3
<= 164.671376

a4_local_7: 
+1.16938778112406183 a4_x2
+0.85514832302998800 a4_x6
+1.00551478597284705 a4_x1
<= 125.764035

a4_local_8: 
+1.06053063145751780 a4_x5
+1.13288998109774797 a4_x4
+0.88269824668324814 a4_x2
<= 108.304734

a4_act_1: 
+0.10000000000000001 a4_x1
-10.00000000000000000 a4_z1
<= 0.000000

a4_act_2: 
+0.10000000000000001 a4_x2
-10.00000000000000000 a4_z2
<= 0.000000

coupling_1: 
+0.00911636922437496 a1_x1
+0.07601898487264157 a2_x1
+0.30721018136140166 a3_x1
+0.93385233378561916 a4_x1
+0.11764295325718636 short_1
-0.11764295325718636 surp_1
= 90.786254

coupling_2: 
+0.01552979022401070 a1_x2
+0.03732334765145907 a2_x2
+0.32987191162299584 a3_x2
+0.92874781202205503 a4_x2
+0.11614176019443283 short_2
-0.11614176019443283 surp_2
= 102.875894

coupling_3: 
+0.00679302342073710 a1_x3
+0.02274486715110013 a2_x3
+0.14991183908767325 a3_x3
+0.98383008447397047 a4_x3
+0.06723589531037526 short_3
-0.06723589531037526 surp_3
= 71.338189

bounds
  0.000000 <= a1_x1 <= 100.000000
  0.000000 <= a1_x2 <= 100.000000
  0.000000 <= a1_x3 <= 100.000000
  0.000000 <= a1_x4 <= 100.000000
  0.000000 <= a1_x5 <= 100.000000
  0.000000 <= a1_x6 <= 100.000000
  0.000000 <= a2_x1 <= 100.000000
  0.000000 <= a2_x2 <= 100.000000
  0.000000 <= a2_x3 <= 100.000000
  0.000000 <= a2_x4 <= 100.000000
  0.000000 <= a2_x5 <= 100.000000
  0.000000 <= a2_x6 <= 100.000000
  0.000000 <= a3_x1 <= 100.000000
  0.000000 <= a3_x2 <= 100.000000
  0.000000 <= a3_x3 <= 100.000000
  0.000000 <= a3_x4 <= 100.000000
  0.000000 <= a3_x5 <= 100.000000
  0.000000 <= a3_x6 <= 100.000000
  0.000000 <= a4_x1 <= 100.000000
  0.000000 <= a4_x2 <= 100.000000
  0.000000 <= a4_x3 <= 100.000000
  0.000000 <= a4_x4 <= 100.000000
  0.000000 <= a4_x5 <= 100.000000
  0.000000 <= a4_x6 <= 100.000000
  0.000000 <= short_1 <= +inf
  0.000000 <= surp_1 <= +inf
  0.000000 <= short_2 <= +inf
  0.000000 <= surp_2 <= +inf
  0.000000 <= short_3 <= +inf
  0.000000 <= surp_3 <= +inf
 0 <= a1_z1 <= 1
 0 <= a1_z2 <= 1
 0 <= a2_z1 <= 1
 0 <= a2_z2 <= 1
 0 <= a3_z1 <= 1
 0 <= a3_z2 <= 1
 0 <= a4_z1 <= 1
 0 <= a4_z2 <= 1

binary
  a1_z1
  a1_z2
  a2_z1
  a2_z2
  a3_z1
  a3_z2
  a4_z1
  a4_z2
end
