min
obj: 
  +5.71291625483064269 a1_x1
  +9.00563589084773142 a1_x2
  +9.01724711762336106 a1_x3
  +9.40638568868457803 a1_x4
  +5.77535620951187667 a1_x5
  +7.28815966502164514 a1_x6
  +20.35589591192510284 a1_z1
  +36.98632201902846361 a1_z2
  +9.57055811069523088 a2_x1
  +1.26049992587512483 a2_x2
  +5.39403189015226747 a2_x3
  +5.18163926236740036 a2_x4
  +3.59512023493198285 a2_x5
  +8.32429931763050135 a2_x6
  +8.22405720557796727 a2_z1
  +9.84830187035061044 a2_z2
  +4.44432428569451421 a3_x1
  +6.87835612826100196 a3_x2
  +6.09227189830646143 a3_x3
  +7.96998209317280093 a3_x4
  +3.38862436120579025 a3_x5
  +8.87685055794251454 a3_x6
  +46.43685776379189178 a3_z1
  +46.77504748135883261 a3_z2
  +2.14266889482626155 a4_x1
  +3.71753864038075932 a4_x2
  +7.47528281002840789 a4_x3
  +1.46230104481487744 a4_x4
  +9.33481878718765401 a4_x5
  +5.50998435696904032 a4_x6
  +29.02492698326168252 a4_z1
  +40.43054682310305736 a4_z2
  +1000000.00000000000000000 short_1
  +1000000.00000000000000000 surp_1
  +1000000.00000000000000000 short_2
  +1000000.00000000000000000 surp_2
  +1000000.00000000000000000 short_3
  +1000000.00000000000000000 surp_3

s.t.

a1_local_1: 
+1.23234527562789919 a1_x1
+0.81146089474841721 a1_x3
+0.98429546182768979 a1_x4
<= 105.824302

a1_local_2: 
+1.49530127330705986 a1_x3
+0.66876155183655095 a1_x4
+1.34757996016478332 a1_x5
<= 147.516850

a1_local_3: 
+1.22440391310802199 a1_x2
+0.75418227837105534 a1_x4
+1.32593940308420111 a1_x1
<= 138.931015

a1_local_4: 
+1.01157532146211282 a1_x2
+1.24091394357338980 a1_x3
+0.80585765449645630 a1_x4
<= 100.285458

a1_local_5: 
+1.38444322513827101 a1_x1
+0.72231203262244648 a1_x3
+1.27937510443632685 a1_x2
<= 117.261567

a1_local_6: 
+1.06126504209930994 a1_x2
+1.04076428067108862 a1_x3
+0.94227168551776641 a1_x4
<= 190.072009

a1_local_7: 
+0.79469200336156565 a1_x1
+1.14653833328307697 a1_x2
+1.25834914126476249 a1_x4
<= 211.311579

a1_local_8: 
+1.32925766104637999 a1_x2
+1.27179102560832580 a1_x6
+0.75229959495799226 a1_x5
<= 198.849279

a1_act_1: 
+0.10000000000000001 a1_x1
-10.00000000000000000 a1_z1
<= 0.000000

a1_act_2: 
+0.10000000000000001 a1_x2
-10.00000000000000000 a1_z2
<= 0.000000

a2_local_1: 
+0.78735975213671516 a2_x5
+1.13558136472187177 a2_x6
+1.27006745936178156 a2_x2
<= 120.902285

a2_local_2: 
+0.50042309546837249 a2_x4
+0.61519349163932335 a2_x6
+0.61686924455462411 a2_x2
<= 77.758009

a2_local_3: 
+1.48558631307037570 a2_x6
+0.63122085166019215 a2_x1
+1.58423156866550174 a2_x2
<= 181.017498

a2_local_4: 
+0.49578885918991755 a2_x6
+0.62453989901379936 a2_x2
+0.68973973569201630 a2_x5
<= 97.469539

a2_local_5: 
+1.52431605120596947 a2_x2
+1.05855831870770700 a2_x5
+0.65603192934224197 a2_x1
<= 204.441632

a2_local_6: 
+0.87624214611492035 a2_x2
+0.72182797607453419 a2_x4
+1.38537163028541688 a2_x3
<= 124.163512

a2_local_7: 
+1.09213336273169581 a2_x5
+0.97742665856242417 a2_x1
+0.91563909145560063 a2_x6
<= 152.383410

a2_local_8: 
+0.69888997605858483 a2_x3
+0.96893253985114847 a2_x2
+1.43084038154265158 a2_x5
<= 187.462582

a2_act_1: 
+0.10000000000000001 a2_x1
-10.00000000000000000 a2_z1
<= 0.000000

a2_act_2: 
+0.10000000000000001 a2_x2
-10.00000000000000000 a2_z2
<= 0.000000

a3_local_1: 
+1.07735054832083210 a3_x6
+0.85572499475438224 a3_x4
+1.16859973254261318 a3_x5
<= 179.232246

a3_local_2: 
+1.24317480005367043 a3_x3
+0.91636664423984615 a3_x6
+0.80439210958654250 a3_x5
<= 98.032659

a3_local_3: 
+1.00568187103283124 a3_x3
+0.82630588821045059 a3_x5
+1.21020558399471501 a3_x2
<= 106.433731

a3_local_4: 
+0.69190918930061074 a3_x1
+1.44527636785805780 a3_x4
+0.76079474549691750 a3_x2
<= 157.725220

a3_local_5: 
+1.54706863678186224 a3_x2
+2.52406778425509914 a3_x5
+2.17808471630376888 a3_x3
<= 328.091471

a3_local_6: 
+0.91029694822628682 a3_x5
+1.02344689189445659 a3_x3
+1.09854262606119857 a3_x2
<= 147.913225

a3_local_7: 
+0.93477105234406310 a3_x5
+0.80242083401035436 a3_x6
+1.24622885849334275 a3_x1
<= 135.020743

a3_local_8: 
+2.67954195671269169 a3_x4
+3.01535807155580171 a3_x2
+1.21378143603156952 a3_x1
<= 340.130036

a3_act_1: 
+0.10000000000000001 a3_x1
-10.00000000000000000 a3_z1
<= 0.000000

a3_act_2: 
+0.10000000000000001 a3_x2
-10.00000000000000000 a3_z2
<= 0.000000

a4_local_1: 
+1.47949742755167857 a4_x2
+1.55264065835072662 a4_x5
+0.64406403028388926 a4_x4
<= 159.176294

a4_local_2: 
+1.07959564722780410 a4_x2
+0.98045395629565901 a4_x4
+0.92627272309573450 a4_x3
<= 170.073146

a4_local_3: 
+0.79717754452400935 a4_x6
+1.25442570086077221 a4_x4
+1.01703822333545157 a4_x1
<= 116.673486

a4_local_4: 
+1.24333684270755529 a4_x1
+0.80428727409247169 a4_x6
+1.15895529552379717 a4_x3
<= 109.227694

a4_local_5: 
+0.90292129301725321 a4_x1
+1.10751624502988855 a4_x3
+0.96149074138189872 a4_x6
<= 147.373143

a4_local_6: 
+1.13499215098742190 a4_x6
+0.88106336165410393 a4_x2
+1.07320412531425990 a4_x4
<= 200.624616

a4_local_7: 
+1.26370865954839395 a4_x3
+0.79132163291289426 a4_x6
+0.82230535523906789 a4_x4
<= 157.794386

a4_local_8: 
+0.71302477651448681 a4_x4
+1.08958048173861344 a4_x5
+1.40247580860842991 a4_x6
<= 158.135247

a4_act_1: 
+0.10000000000000001 a4_x1
-10.00000000000000000 a4_z1
<= 0.000000

a4_act_2: 
+0.10000000000000001 a4_x2
-10.00000000000000000 a4_z2
<= 0.000000

coupling_1: 
+0.03718960872737673 a1_x1
+0.07677358716991374 a2_x1
+0.65166865978976662 a3_x1
+1.63762904788158314 a4_x1
+0.28490577426787828 short_1
-0.28490577426787828 surp_1
= 181.838855

coupling_2: 
+0.00905804835873069 a1_x2
+0.04192314813408173 a2_x2
+0.18380742088337032 a3_x2
+0.97748742130991673 a4_x2
+0.06668423584158306 short_2
-0.06668423584158306 surp_2
= 93.296019

coupling_3: 
+0.01394024581558144 a1_x3
+0.03951194073341985 a2_x3
+0.17341870014164296 a3_x3
+0.96573513235250374 a4_x3
+0.13327806396281958 short_3
-0.13327806396281958 surp_3
= 33.989171

bounds
  0.000000 <= a1_x1 <= 100.000000
  0.000000 <= a1_x2 <= 100.000000
  0.000000 <= a1_x3 <= 100.000000
  0.000000 <= a1_x4 <= 100.000000
  0.000000 <= a1_x5 <= 100.000000
  0.000000 <= a1_x6 <= 100.000000
  0.000000 <= a2_x1 <= 100.000000
  0.000000 <= a2_x2 <= 100.000000
  0.000000 <= a2_x3 <= 100.000000
  0.000000 <= a2_x4 <= 100.000000
  0.000000 <= a2_x5 <= 100.000000
  0.000000 <= a2_x6 <= 100.000000
  0.000000 <= a3_x1 <= 100.000000
  0.000000 <= a3_x2 <= 100.000000
  0.000000 <= a3_x3 <= 100.000000
  0.000000 <= a3_x4 <= 100.000000
  0.000000 <= a3_x5 <= 100.000000
  0.000000 <= a3_x6 <= 100.000000
  0.000000 <= a4_x1 <= 100.000000
  0.000000 <= a4_x2 <= 100.000000
  0.000000 <= a4_x3 <= 100.000000
  0.000000 <= a4_x4 <= 100.000000
  0.000000 <= a4_x5 <= 100.000000
  0.000000 <= a4_x6 <= 100.000000
  0.000000 <= short_1 <= +inf
  0.000000 <= surp_1 <= +inf
  0.000000 <= short_2 <= +inf
  0.000000 <= surp_2 <= +inf
  0.000000 <= short_3 <= +inf
  0.000000 <= surp_3 <= +inf
 0 <= a1_z1 <= 1
 0 <= a1_z2 <= 1
 0 <= a2_z1 <= 1
 0 <= a2_z2 <= 1
 0 <= a3_z1 <= 1
 0 <= a3_z2 <= 1
 0 <= a4_z1 <= 1
 0 <= a4_z2 <= 1

binary
  a1_z1
  a1_z2
  a2_z1
  a2_z2
  a3_z1
  a3_z2
  a4_z1
  a4_z2
end
