min
obj: 
  +8.52421046785006808 a1_x1
  +7.69307565210918742 a1_x2
  +6.91899621560824230 a1_x3
  +9.20970734213053355 a1_x4
  +1.67836132765545631 a1_x5
  +5.99146020770216658 a1_x6
  +31.08072985890714435 a1_z1
  +20.88386702402789297 a1_z2
  +6.90777420422215815 a2_x1
  +5.08754459362986733 a2_x2
  +7.59170235780382363 a2_x3
  +8.27944903727416381 a2_x4
  +1.03512879040065853 a2_x5
  +5.78577237729060112 a2_x6
  +23.93421358976911506 a2_z1
  +21.52150514949614646 a2_z2
  +3.33875162916421697 a3_x1
  +6.11068986646011059 a3_x2
  +6.55082117265498010 a3_x3
  +5.19513264683116827 a3_x4
  +3.93701514527552376 a3_x5
  +3.37060916575937597 a3_x6
  +38.53959756350231913 a3_z1
  +26.75553244557287869 a3_z2
  +8.54382197580174818 a4_x1
  +7.14956107064012691 a4_x2
  +5.56590579337685210 a4_x3
  +2.52647125500070402 a4_x4
  +2.35011295395534869 a4_x5
  +8.78080461108212518 a4_x6
  +7.45391026181894656 a4_z1
  +36.01444945313909329 a4_z2
  +1000000.00000000000000000 short_1
  +1000000.00000000000000000 surp_1
  +1000000.00000000000000000 short_2
  +1000000.00000000000000000 surp_2
  +1000000.00000000000000000 short_3
  +1000000.00000000000000000 surp_3

s.t.

a1_local_1: 
+0.06307081430059906 a1_x6
+0.13587378415029253 a1_x2
+0.13030043820764078 a1_x4
<= 11.613029

a1_local_2: 
+0.11527811145222584 a1_x5
+0.07017663895281276 a1_x2
+0.08675945441489463 a1_x1
<= 10.625996

a1_local_3: 
+0.08506383897912807 a1_x4
+0.05651012082010289 a1_x2
+0.08000850809955878 a1_x1
<= 9.345667

a1_local_4: 
+0.06699027668009934 a1_x4
+0.12564030974360768 a1_x2
+0.09904907234032848 a1_x6
<= 11.593549

a1_local_5: 
+0.11289596560646827 a1_x5
+0.12007661146972991 a1_x2
+0.07374232075430134 a1_x1
<= 11.578379

a1_local_6: 
+0.14644029138318368 a1_x2
+0.10218749081166199 a1_x5
+0.06185765673868628 a1_x6
<= 10.417481

a1_local_7: 
+0.11557767113027038 a1_x3
+0.08783244488474014 a1_x4
+0.08545932817744524 a1_x6
<= 15.735002

a1_local_8: 
+0.07325222223477895 a1_x6
+0.08183780553817335 a1_x2
+0.09972605477681422 a1_x5
<= 16.360072

a1_act_1: 
+1.00000000000000000 a1_x1
-100.00000000000000000 a1_z1
<= 0.000000

a1_act_2: 
+1.00000000000000000 a1_x2
-100.00000000000000000 a1_z2
<= 0.000000

a2_local_1: 
+0.29450423903590150 a2_x6
+0.33278404550840773 a2_x3
+0.27614423878376343 a2_x2
<= 28.907963

a2_local_2: 
+0.40380059267734619 a2_x5
+0.61929698947330036 a2_x3
+0.49365684382564706 a2_x2
<= 103.095954

a2_local_3: 
+0.47796984006598681 a2_x3
+0.64586124938231404 a2_x5
+0.59572075724092799 a2_x4
<= 77.589973

a2_local_4: 
+0.60129482230625231 a2_x3
+0.40957543212242459 a2_x5
+0.45149667699269963 a2_x4
<= 97.135739

a2_local_5: 
+0.51949070718464119 a2_x3
+0.38900374194358983 a2_x1
+0.54568694490034408 a2_x2
<= 96.365425

a2_local_6: 
+0.38103395351105929 a2_x3
+0.47180071158067677 a2_x6
+0.36566979506885200 a2_x5
<= 48.140416

a2_local_7: 
+0.66515308649609706 a2_x4
+0.63256764105431829 a2_x5
+0.41289164239238374 a2_x2
<= 85.417060

a2_local_8: 
+0.34119797476051650 a2_x4
+0.47486991345575968 a2_x2
+0.38887283525947608 a2_x1
<= 58.321169

a2_act_1: 
+1.00000000000000000 a2_x1
-100.00000000000000000 a2_z1
<= 0.000000

a2_act_2: 
+1.00000000000000000 a2_x2
-100.00000000000000000 a2_z2
<= 0.000000

a3_local_1: 
+2.97681055063771272 a3_x6
+2.64097575485514291 a3_x1
+3.05428756440263394 a3_x5
<= 390.510417

a3_local_2: 
+1.39747975898651200 a3_x4
+2.08297445374520107 a3_x2
+1.77987894120917178 a3_x6
<= 324.426976

a3_local_3: 
+2.46521697599320877 a3_x3
+2.89318603115981299 a3_x2
+2.37541256493450881 a3_x6
<= 241.719506

a3_local_4: 
+2.98810963101886706 a3_x2
+2.68388527194128690 a3_x3
+3.03836825136315847 a3_x5
<= 502.731918

a3_local_5: 
+2.34269666815837185 a3_x6
+1.19148638038893551 a3_x1
+3.20726449839203465 a3_x5
<= 425.281903

a3_local_6: 
+2.95640233982824663 a3_x6
+1.18904656470123071 a3_x2
+2.50863371002008195 a3_x1
<= 438.202656

a3_local_7: 
+2.56731426753321434 a3_x2
+2.30367976232212923 a3_x1
+3.22561003432081916 a3_x6
<= 423.756561

a3_local_8: 
+1.42867348876972722 a3_x1
+2.04191550112984421 a3_x5
+1.91514915520402140 a3_x4
<= 171.537950

a3_act_1: 
+1.00000000000000000 a3_x1
-100.00000000000000000 a3_z1
<= 0.000000

a3_act_2: 
+1.00000000000000000 a3_x2
-100.00000000000000000 a3_z2
<= 0.000000

a4_local_1: 
+6.39812329592952800 a4_x3
+11.06566794702636081 a4_x5
+6.72323728080489236 a4_x6
<= 1012.768196

a4_local_2: 
+14.62953001854187107 a4_x4
+10.10454053974200406 a4_x3
+14.08040935836833896 a4_x2
<= 1204.377246

a4_local_3: 
+7.20328311308666969 a4_x5
+11.70082334498427024 a4_x6
+5.24990070205992687 a4_x4
<= 1331.117470

a4_local_4: 
+8.96525664120032673 a4_x1
+7.08702435233211858 a4_x3
+12.33617301202436067 a4_x6
<= 895.540807

a4_local_5: 
+13.01411707419628705 a4_x6
+8.47315371856750765 a4_x5
+14.66989538255704772 a4_x1
<= 2259.274838

a4_local_6: 
+5.27338613414188995 a4_x4
+9.69164147746728410 a4_x1
+14.66751331322962670 a4_x3
<= 1343.386033

a4_local_7: 
+12.24832470688753006 a4_x6
+13.03291776891180653 a4_x2
+13.91259301324668129 a4_x1
<= 2083.715171

a4_local_8: 
+5.76155602006279643 a4_x3
+13.66371583636540521 a4_x2
+11.30998577640967540 a4_x6
<= 2071.485428

a4_act_1: 
+1.00000000000000000 a4_x1
-100.00000000000000000 a4_z1
<= 0.000000

a4_act_2: 
+1.00000000000000000 a4_x2
-100.00000000000000000 a4_z2
<= 0.000000

coupling_1: 
+0.00128985253492970 a1_x1
+0.00578790444663931 a2_x1
+0.06185055686016506 a3_x1
+0.11577311207277714 a4_x1
+0.02301627134901173 short_1
-0.02301627134901173 surp_1
= 13.327191

coupling_2: 
+0.00172656687404577 a1_x2
+0.00973748433265711 a2_x2
+0.06550357685140415 a3_x2
+0.28127063902086791 a4_x2
+0.02301627134901173 short_2
-0.02301627134901173 surp_2
= 11.899584

coupling_3: 
+0.00127440095130394 a1_x3
+0.00692227214376566 a2_x3
+0.04685485509225921 a3_x3
+0.24581647292529707 a4_x3
+0.02301627134901173 short_3
-0.02301627134901173 surp_3
= 7.000287

bounds
  0.000000 <= a1_x1 <= 100.000000
  0.000000 <= a1_x2 <= 100.000000
  0.000000 <= a1_x3 <= 100.000000
  0.000000 <= a1_x4 <= 100.000000
  0.000000 <= a1_x5 <= 100.000000
  0.000000 <= a1_x6 <= 100.000000
  0.000000 <= a2_x1 <= 100.000000
  0.000000 <= a2_x2 <= 100.000000
  0.000000 <= a2_x3 <= 100.000000
  0.000000 <= a2_x4 <= 100.000000
  0.000000 <= a2_x5 <= 100.000000
  0.000000 <= a2_x6 <= 100.000000
  0.000000 <= a3_x1 <= 100.000000
  0.000000 <= a3_x2 <= 100.000000
  0.000000 <= a3_x3 <= 100.000000
  0.000000 <= a3_x4 <= 100.000000
  0.000000 <= a3_x5 <= 100.000000
  0.000000 <= a3_x6 <= 100.000000
  0.000000 <= a4_x1 <= 100.000000
  0.000000 <= a4_x2 <= 100.000000
  0.000000 <= a4_x3 <= 100.000000
  0.000000 <= a4_x4 <= 100.000000
  0.000000 <= a4_x5 <= 100.000000
  0.000000 <= a4_x6 <= 100.000000
  0.000000 <= short_1 <= +inf
  0.000000 <= surp_1 <= +inf
  0.000000 <= short_2 <= +inf
  0.000000 <= surp_2 <= +inf
  0.000000 <= short_3 <= +inf
  0.000000 <= surp_3 <= +inf
 0 <= a1_z1 <= 1
 0 <= a1_z2 <= 1
 0 <= a2_z1 <= 1
 0 <= a2_z2 <= 1
 0 <= a3_z1 <= 1
 0 <= a3_z2 <= 1
 0 <= a4_z1 <= 1
 0 <= a4_z2 <= 1

binary
  a1_z1
  a1_z2
  a2_z1
  a2_z2
  a3_z1
  a3_z2
  a4_z1
  a4_z2
end
