min
obj: 
  +4.10293210566149646 a1_x1
  +3.32901181929639423 a1_x2
  +9.10176472428019245 a1_x3
  +1.02767819950250816 a1_x4
  +7.50152284301075145 a1_x5
  +9.69522117714092246 a1_x6
  +46.46239370281180214 a1_z1
  +20.97693906303189948 a1_z2
  +8.73612443817434503 a2_x1
  +2.04228756855595339 a2_x2
  +7.91416373752481395 a2_x3
  +8.85104976446995906 a2_x4
  +5.35890260317347789 a2_x5
  +4.46510259611176785 a2_x6
  +43.59910462783197715 a2_z1
  +13.73633673727412230 a2_z2
  +8.77121756982191414 a3_x1
  +5.76281450528001393 a3_x2
  +8.52709380603204359 a3_x3
  +1.13892657158295396 a3_x4
  +2.91144295006929399 a3_x5
  +3.02757282316255294 a3_x6
  +21.64888772902043002 a3_z1
  +37.44350625095739105 a3_z2
  +3.73746776663401503 a4_x1
  +6.30470396079639350 a4_x2
  +7.23244248154489888 a4_x3
  +3.53129435828251648 a4_x4
  +2.19432544763669313 a4_x5
  +2.79667117057261105 a4_x6
  +25.76781967633817416 a4_z1
  +25.23373202259198678 a4_z2
  +1000000.00000000000000000 short_1
  +1000000.00000000000000000 surp_1
  +1000000.00000000000000000 short_2
  +1000000.00000000000000000 surp_2
  +1000000.00000000000000000 short_3
  +1000000.00000000000000000 surp_3

s.t.

a1_local_1: 
+0.71415339693519386 a1_x6
+0.49741748420529763 a1_x1
+0.49250459089514659 a1_x4
<= 77.016942

a1_local_2: 
+0.44737937552888840 a1_x6
+0.53786898669433558 a1_x5
+0.71452686968636159 a1_x4
<= 75.808377

a1_local_3: 
+0.48782783752968240 a1_x1
+0.67871535643191860 a1_x5
+0.54897127964457981 a1_x6
<= 78.422255

a1_local_4: 
+0.59696960297194590 a1_x4
+0.32650601690610193 a1_x5
+0.73281724464673281 a1_x3
<= 113.623477

a1_local_5: 
+0.34244761139432633 a1_x6
+0.71006424913781585 a1_x2
+0.61525474036911765 a1_x1
<= 64.646293

a1_local_6: 
+0.56540781634392867 a1_x5
+0.45313486529623120 a1_x1
+0.68918995572349739 a1_x6
<= 103.444146

a1_local_7: 
+0.47103547738668566 a1_x5
+0.79789531776988298 a1_x1
+0.37614975863875638 a1_x3
<= 84.476916

a1_local_8: 
+0.39553628862544660 a1_x1
+0.64977978573174167 a1_x3
+0.64910497951781221 a1_x4
<= 95.547127

a1_act_1: 
+0.00999950003749688 a1_x1
-0.99995000374968757 a1_z1
<= 0.000000

a1_act_2: 
+0.00999950003749688 a1_x2
-0.99995000374968757 a1_z2
<= 0.000000

a2_local_1: 
+0.36353975853708448 a2_x4
+0.66538706543969173 a2_x5
+0.58187843579534926 a2_x1
<= 48.470070

a2_local_2: 
+0.68075693279386518 a2_x4
+0.60481592760766745 a2_x5
+0.29195593868319891 a2_x2
<= 75.736665

a2_local_3: 
+0.56767769955076086 a2_x6
+0.65302783320504876 a2_x3
+0.48293400883379917 a2_x4
<= 110.545759

a2_local_4: 
+0.45020832245519266 a2_x3
+0.40198168356660757 a2_x2
+0.53025544856673823 a2_x5
<= 61.757648

a2_local_5: 
+0.64121848835429274 a2_x3
+0.65950491884133822 a2_x4
+0.33403504224279174 a2_x5
<= 113.604867

a2_local_6: 
+0.57264794537031583 a2_x1
+0.37460116245623287 a2_x4
+0.64201923981823039 a2_x5
<= 104.795714

a2_local_7: 
+0.57675983587326018 a2_x6
+0.68388582744126880 a2_x2
+0.62477054855402947 a2_x4
<= 85.701474

a2_local_8: 
+0.68656602140536360 a2_x5
+0.57014699830804050 a2_x1
+0.40639793740128471 a2_x3
<= 60.572309

a2_act_1: 
+0.00999950003749688 a2_x1
-0.99995000374968757 a2_z1
<= 0.000000

a2_act_2: 
+0.00999950003749688 a2_x2
-0.99995000374968757 a2_z2
<= 0.000000

a3_local_1: 
+0.31073696813617063 a3_x4
+0.82345744714744384 a3_x2
+0.47472135971636575 a3_x6
<= 98.016707

a3_local_2: 
+0.68035295515910243 a3_x1
+0.60231018646962087 a3_x4
+0.41754316624896071 a3_x2
<= 109.365157

a3_local_3: 
+0.51122793403997036 a3_x3
+0.55872705184535776 a3_x6
+0.65304676784547266 a3_x5
<= 92.475398

a3_local_4: 
+0.33481949451612891 a3_x6
+0.57798676603309973 a3_x4
+0.74419567613804549 a3_x1
<= 113.222642

a3_local_5: 
+0.42675409405673337 a3_x6
+0.82453758382377473 a3_x4
+0.37150870254661383 a3_x3
<= 54.369782

a3_local_6: 
+0.49382611132272158 a3_x2
+0.44420104054656451 a3_x6
+0.74754344847187859 a3_x5
<= 85.974553

a3_local_7: 
+0.48670053330768620 a3_x3
+0.40651655200425718 a3_x4
+0.77321852268591185 a3_x5
<= 115.183695

a3_local_8: 
+0.39338963232188406 a3_x5
+0.70881497427790463 a3_x1
+0.58551338961723698 a3_x6
<= 75.486347

a3_act_1: 
+0.00999950003749688 a3_x1
-0.99995000374968757 a3_z1
<= 0.000000

a3_act_2: 
+0.00999950003749688 a3_x2
-0.99995000374968757 a3_z2
<= 0.000000

a4_local_1: 
+0.72092581497932895 a4_x5
+0.54493029806463444 a4_x2
+0.42815527504350448 a4_x1
<= 86.879863

a4_local_2: 
+0.60563662410296837 a4_x4
+0.48343156649465174 a4_x6
+0.63205869985444152 a4_x2
<= 120.272688

a4_local_3: 
+0.84876174958217054 a4_x3
+0.36336238643023216 a4_x6
+0.38415005996867863 a4_x4
<= 52.908013

a4_local_4: 
+0.61061676789435204 a4_x6
+0.69934962234254361 a4_x1
+0.37156058522883761 a4_x2
<= 52.580396

a4_local_5: 
+0.59235179150408668 a4_x5
+0.40664735829253290 a4_x6
+0.69552662141402122 a4_x1
<= 114.910856

a4_local_6: 
+0.67759465028893862 a4_x1
+0.49705380418864570 a4_x3
+0.54203598186965984 a4_x6
<= 87.946771

a4_local_7: 
+0.64610659315214292 a4_x1
+0.32822878004391903 a4_x3
+0.68906613487836677 a4_x6
<= 100.549880

a4_local_8: 
+0.58907579279263722 a4_x1
+0.67829366958435333 a4_x3
+0.43921225864895669 a4_x4
<= 107.102595

a4_act_1: 
+0.00999950003749688 a4_x1
-0.99995000374968757 a4_z1
<= 0.000000

a4_act_2: 
+0.00999950003749688 a4_x2
-0.99995000374968757 a4_z2
<= 0.000000

coupling_1: 
+0.00829678578748051 a1_x1
+0.06554852973141134 a2_x1
+0.12240101372285378 a3_x1
+0.97848097466511175 a4_x1
+0.10776717416188805 short_1
-0.10776717416188805 surp_1
= 48.574065

coupling_2: 
+0.00868045436924723 a1_x2
+0.06749455131333902 a2_x2
+0.20508981217789959 a3_x2
+0.95792677244751434 a4_x2
+0.13357320619060600 short_2
-0.13357320619060600 surp_2
= 58.657104

coupling_3: 
+0.01106496039893646 a1_x3
+0.06422105573677578 a2_x3
+0.14192819832706427 a3_x3
+0.97220361334871774 a4_x3
+0.12334857794631103 short_3
-0.12334857794631103 surp_3
= 45.898964

bounds
  0.000000 <= a1_x1 <= 100.000000
  0.000000 <= a1_x2 <= 100.000000
  0.000000 <= a1_x3 <= 100.000000
  0.000000 <= a1_x4 <= 100.000000
  0.000000 <= a1_x5 <= 100.000000
  0.000000 <= a1_x6 <= 100.000000
  0.000000 <= a2_x1 <= 100.000000
  0.000000 <= a2_x2 <= 100.000000
  0.000000 <= a2_x3 <= 100.000000
  0.000000 <= a2_x4 <= 100.000000
  0.000000 <= a2_x5 <= 100.000000
  0.000000 <= a2_x6 <= 100.000000
  0.000000 <= a3_x1 <= 100.000000
  0.000000 <= a3_x2 <= 100.000000
  0.000000 <= a3_x3 <= 100.000000
  0.000000 <= a3_x4 <= 100.000000
  0.000000 <= a3_x5 <= 100.000000
  0.000000 <= a3_x6 <= 100.000000
  0.000000 <= a4_x1 <= 100.000000
  0.000000 <= a4_x2 <= 100.000000
  0.000000 <= a4_x3 <= 100.000000
  0.000000 <= a4_x4 <= 100.000000
  0.000000 <= a4_x5 <= 100.000000
  0.000000 <= a4_x6 <= 100.000000
  0.000000 <= short_1 <= +inf
  0.000000 <= surp_1 <= +inf
  0.000000 <= short_2 <= +inf
  0.000000 <= surp_2 <= +inf
  0.000000 <= short_3 <= +inf
  0.000000 <= surp_3 <= +inf
 0 <= a1_z1 <= 1
 0 <= a1_z2 <= 1
 0 <= a2_z1 <= 1
 0 <= a2_z2 <= 1
 0 <= a3_z1 <= 1
 0 <= a3_z2 <= 1
 0 <= a4_z1 <= 1
 0 <= a4_z2 <= 1

binary
  a1_z1
  a1_z2
  a2_z1
  a2_z2
  a3_z1
  a3_z2
  a4_z1
  a4_z2
end
