min
obj: 
  +4.10293210566149646 a1_x1
  +3.32901181929639423 a1_x2
  +9.10176472428019245 a1_x3
  +1.02767819950250816 a1_x4
  +7.50152284301075145 a1_x5
  +9.69522117714092246 a1_x6
  +46.46239370281180214 a1_z1
  +20.97693906303189948 a1_z2
  +8.73612443817434503 a2_x1
  +2.04228756855595339 a2_x2
  +7.91416373752481395 a2_x3
  +8.85104976446995906 a2_x4
  +5.35890260317347789 a2_x5
  +4.46510259611176785 a2_x6
  +43.59910462783197715 a2_z1
  +13.73633673727412230 a2_z2
  +8.77121756982191414 a3_x1
  +5.76281450528001393 a3_x2
  +8.52709380603204359 a3_x3
  +1.13892657158295396 a3_x4
  +2.91144295006929399 a3_x5
  +3.02757282316255294 a3_x6
  +21.64888772902043002 a3_z1
  +37.44350625095739105 a3_z2
  +3.73746776663401503 a4_x1
  +6.30470396079639350 a4_x2
  +7.23244248154489888 a4_x3
  +3.53129435828251648 a4_x4
  +2.19432544763669313 a4_x5
  +2.79667117057261105 a4_x6
  +25.76781967633817416 a4_z1
  +25.23373202259198678 a4_z2
  +1000000.00000000000000000 short_1
  +1000000.00000000000000000 surp_1
  +1000000.00000000000000000 short_2
  +1000000.00000000000000000 surp_2
  +1000000.00000000000000000 short_3
  +1000000.00000000000000000 surp_3

s.t.

a1_local_1: 
+0.10828677723760305 a1_x6
+0.07542320254637938 a1_x1
+0.07467826261365410 a1_x4
<= 11.678046

a1_local_2: 
+0.06330130572145626 a1_x6
+0.07610500400152996 a1_x5
+0.10110095882435435 a1_x4
<= 10.726398

a1_local_3: 
+0.09732237321283835 a1_x1
+0.13540471482407490 a1_x5
+0.10952058011131521 a1_x6
<= 15.645356

a1_local_4: 
+0.11305541739845237 a1_x4
+0.06183442815288571 a1_x5
+0.13878254279257429 a1_x3
<= 21.518264

a1_local_5: 
+0.05619073357209151 a1_x6
+0.11651134280048088 a1_x2
+0.10095446440488796 a1_x1
<= 10.607528

a1_local_6: 
+0.11999305552737832 a1_x5
+0.09616605126627309 a1_x1
+0.14626258469645409 a1_x6
<= 21.953321

a1_local_7: 
+0.07361468493146865 a1_x5
+0.12469721548745545 a1_x1
+0.05878569088440114 a1_x3
<= 13.202279

a1_local_8: 
+0.07744716567446444 a1_x1
+0.12722878826710685 a1_x3
+0.12709665923078006 a1_x4
<= 18.708408

a1_act_1: 
+1.00000000000000000 a1_x1
-100.00000000000000000 a1_z1
<= 0.000000

a1_act_2: 
+1.00000000000000000 a1_x2
-100.00000000000000000 a1_z2
<= 0.000000

a2_local_1: 
+0.36353975853708448 a2_x4
+0.66538706543969173 a2_x5
+0.58187843579534926 a2_x1
<= 48.470070

a2_local_2: 
+0.68075693279386518 a2_x4
+0.60481592760766745 a2_x5
+0.29195593868319891 a2_x2
<= 75.736665

a2_local_3: 
+0.56767769955076086 a2_x6
+0.65302783320504876 a2_x3
+0.48293400883379917 a2_x4
<= 110.545759

a2_local_4: 
+0.45020832245519266 a2_x3
+0.40198168356660757 a2_x2
+0.53025544856673823 a2_x5
<= 61.757648

a2_local_5: 
+0.64121848835429274 a2_x3
+0.65950491884133822 a2_x4
+0.33403504224279174 a2_x5
<= 113.604867

a2_local_6: 
+0.57264794537031583 a2_x1
+0.37460116245623287 a2_x4
+0.64201923981823039 a2_x5
<= 104.795714

a2_local_7: 
+0.57675983587326018 a2_x6
+0.68388582744126880 a2_x2
+0.62477054855402947 a2_x4
<= 85.701474

a2_local_8: 
+0.68656602140536360 a2_x5
+0.57014699830804050 a2_x1
+0.40639793740128471 a2_x3
<= 60.572309

a2_act_1: 
+1.00000000000000000 a2_x1
-100.00000000000000000 a2_z1
<= 0.000000

a2_act_2: 
+1.00000000000000000 a2_x2
-100.00000000000000000 a2_z2
<= 0.000000

a3_local_1: 
+1.15810557743215892 a3_x4
+3.06899648290831895 a3_x2
+1.76926954559451999 a3_x6
<= 365.304765

a3_local_2: 
+2.62416451945249962 a3_x1
+2.32314860845835458 a3_x4
+1.61049048718270971 a3_x2
<= 421.828351

a3_local_3: 
+1.52011244657534528 a3_x3
+1.66134886064749332 a3_x6
+1.94180414233798171 a3_x5
<= 274.971288

a3_local_4: 
+1.16725675397535178 a3_x6
+2.01499305569260212 a3_x4
+2.59443504180292495 a3_x1
<= 394.719828

a3_local_5: 
+1.53559266261154770 a3_x6
+2.96694016859019971 a3_x4
+1.33680272942167688 a3_x3
<= 195.639222

a3_local_6: 
+1.73116475814952420 a3_x2
+1.55719831190744551 a3_x6
+2.62060033584242102 a3_x5
<= 301.393775

a3_local_7: 
+1.43455849429300319 a3_x3
+1.19821478062720010 a3_x4
+2.27907537336212851 a3_x5
<= 339.505993

a3_local_8: 
+1.70066513099467898 a3_x5
+3.06428236038254065 a3_x1
+2.53123652388930287 a3_x6
<= 326.335490

a3_act_1: 
+1.00000000000000000 a3_x1
-100.00000000000000000 a3_z1
<= 0.000000

a3_act_2: 
+1.00000000000000000 a3_x2
-100.00000000000000000 a3_z2
<= 0.000000

a4_local_1: 
+13.86228281926399220 a4_x5
+10.47816259537659001 a4_x2
+8.23276041707980966 a4_x1
<= 1670.564719

a4_local_2: 
+13.62738171900508277 a4_x4
+10.87765539509240931 a4_x6
+14.22190275314349428 a4_x2
<= 2706.246237

a4_local_3: 
+13.92127859432740422 a4_x3
+5.95982207572985345 a4_x6
+6.30077876327980757 a4_x4
<= 867.790264

a4_local_4: 
+10.85360608939362237 a4_x6
+12.43081703413924721 a4_x1
+6.60442431727671497 a4_x2
<= 934.607326

a4_local_5: 
+12.37064234421627518 a4_x5
+8.49240114034936511 a4_x6
+14.52533983656334193 a4_x1
<= 2399.792026

a4_local_6: 
+12.66114410270273538 a4_x1
+9.28766164099062408 a4_x3
+10.12817275398397854 a4_x6
<= 1643.322802

a4_local_7: 
+12.24787473328308707 a4_x1
+6.22204605934056332 a4_x3
+13.06223430063413282 a4_x6
<= 1906.066813

a4_local_8: 
+11.89323672531353537 a4_x1
+13.69451483213136989 a4_x3
+8.86754375019867425 a4_x4
<= 2162.364397

a4_act_1: 
+1.00000000000000000 a4_x1
-100.00000000000000000 a4_z1
<= 0.000000

a4_act_2: 
+1.00000000000000000 a4_x2
-100.00000000000000000 a4_z2
<= 0.000000

coupling_1: 
+68.92083174776834653 a1_x1
+544.50715067865723995 a2_x1
+1016.77684450749791267 a3_x1
+8128.17449439843858272 a4_x1
+895.21454073836207499 short_1
-895.21454073836207499 surp_1
= 403501.434141

coupling_2: 
+58.17685442451018218 a1_x2
+452.35197596508692186 a2_x2
+1374.52253528273536176 a3_x2
+6420.07480477692752174 a4_x2
+895.21454073836207499 short_2
-895.21454073836207499 surp_2
= 393122.949031

coupling_3: 
+80.30504774958626513 a1_x3
+466.09068279777341104 a2_x3
+1030.05797876720362183 a3_x3
+7055.86416737589479453 a4_x3
+895.21454073836207499 short_3
-895.21454073836207499 surp_3
= 333116.284927

bounds
  0.000000 <= a1_x1 <= 100.000000
  0.000000 <= a1_x2 <= 100.000000
  0.000000 <= a1_x3 <= 100.000000
  0.000000 <= a1_x4 <= 100.000000
  0.000000 <= a1_x5 <= 100.000000
  0.000000 <= a1_x6 <= 100.000000
  0.000000 <= a2_x1 <= 100.000000
  0.000000 <= a2_x2 <= 100.000000
  0.000000 <= a2_x3 <= 100.000000
  0.000000 <= a2_x4 <= 100.000000
  0.000000 <= a2_x5 <= 100.000000
  0.000000 <= a2_x6 <= 100.000000
  0.000000 <= a3_x1 <= 100.000000
  0.000000 <= a3_x2 <= 100.000000
  0.000000 <= a3_x3 <= 100.000000
  0.000000 <= a3_x4 <= 100.000000
  0.000000 <= a3_x5 <= 100.000000
  0.000000 <= a3_x6 <= 100.000000
  0.000000 <= a4_x1 <= 100.000000
  0.000000 <= a4_x2 <= 100.000000
  0.000000 <= a4_x3 <= 100.000000
  0.000000 <= a4_x4 <= 100.000000
  0.000000 <= a4_x5 <= 100.000000
  0.000000 <= a4_x6 <= 100.000000
  0.000000 <= short_1 <= +inf
  0.000000 <= surp_1 <= +inf
  0.000000 <= short_2 <= +inf
  0.000000 <= surp_2 <= +inf
  0.000000 <= short_3 <= +inf
  0.000000 <= surp_3 <= +inf
 0 <= a1_z1 <= 1
 0 <= a1_z2 <= 1
 0 <= a2_z1 <= 1
 0 <= a2_z2 <= 1
 0 <= a3_z1 <= 1
 0 <= a3_z2 <= 1
 0 <= a4_z1 <= 1
 0 <= a4_z2 <= 1

binary
  a1_z1
  a1_z2
  a2_z1
  a2_z2
  a3_z1
  a3_z2
  a4_z1
  a4_z2
end
