min
obj: 
  +5.24362332399284625 a1_x1
  +8.06959664561268042 a1_x2
  +3.47810228856863679 a1_x3
  +9.41205830682384104 a1_x4
  +8.31656886029670339 a1_x5
  +6.80028019197109046 a1_x6
  +10.41050343041974102 a1_z1
  +29.39644014342060530 a1_z2
  +8.28066141375753872 a2_x1
  +6.06494311381576523 a2_x2
  +8.65417661359723311 a2_x3
  +4.32929045080204133 a2_x4
  +7.27024404204758401 a2_x5
  +4.53185167774403475 a2_x6
  +14.32924585982750010 a2_z1
  +33.49545064378996528 a2_z2
  +3.46672163395224064 a3_x1
  +8.73068689063360637 a3_x2
  +5.78731633243780319 a3_x3
  +5.65993509091970015 a3_x4
  +4.88699203046912878 a3_x5
  +4.33566741350590856 a3_x6
  +5.90058593924896702 a3_z1
  +40.30367968473242257 a3_z2
  +4.52735162287015491 a4_x1
  +9.79326185053260900 a4_x2
  +5.17425215108361947 a4_x3
  +5.44899982766291835 a4_x4
  +4.65504731238401082 a4_x5
  +5.18157972709797487 a4_x6
  +20.49298729783527051 a4_z1
  +8.57422142752452210 a4_z2
  +1000000.00000000000000000 short_1
  +1000000.00000000000000000 surp_1
  +1000000.00000000000000000 short_2
  +1000000.00000000000000000 surp_2
  +1000000.00000000000000000 short_3
  +1000000.00000000000000000 surp_3

s.t.

a1_local_1: 
+0.13899837350269162 a1_x4
+0.08477497689183433 a1_x6
+0.10650777214201806 a1_x1
<= 21.669982

a1_local_2: 
+0.09067742765808201 a1_x5
+0.05000906387770783 a1_x4
+0.14117513695807093 a1_x1
<= 8.810491

a1_local_3: 
+0.10315489260569351 a1_x3
+0.07146114855497247 a1_x6
+0.10204305282558707 a1_x5
<= 9.715977

a1_local_4: 
+0.07375803914245212 a1_x3
+0.14156802199848759 a1_x5
+0.14756165375539262 a1_x4
<= 20.748627

a1_local_5: 
+0.10382173348933013 a1_x5
+0.13673131826474630 a1_x2
+0.14545232606186659 a1_x1
<= 23.848026

a1_local_6: 
+0.08172850974320499 a1_x3
+0.05943793147384570 a1_x2
+0.08585469617854252 a1_x5
<= 13.899892

a1_local_7: 
+0.06359602888726366 a1_x1
+0.14513754083666613 a1_x5
+0.07244328605708444 a1_x6
<= 17.579890

a1_local_8: 
+0.11579374288391542 a1_x1
+0.14877492569468567 a1_x5
+0.10344051335741114 a1_x3
<= 21.537957

a1_act_1: 
+1.00000000000000000 a1_x1
-100.00000000000000000 a1_z1
<= 0.000000

a1_act_2: 
+1.00000000000000000 a1_x2
-100.00000000000000000 a1_z2
<= 0.000000

a2_local_1: 
+0.33500971416455477 a2_x2
+0.61649091701610470 a2_x5
+0.55874365309521212 a2_x6
<= 77.016831

a2_local_2: 
+0.66344745442923447 a2_x5
+0.50149622458314169 a2_x3
+0.32574793535447438 a2_x4
<= 52.006957

a2_local_3: 
+0.58591545832703640 a2_x3
+0.52869010244594272 a2_x1
+0.47581168389098355 a2_x2
<= 78.916334

a2_local_4: 
+0.27833717259492180 a2_x1
+0.62624213382597171 a2_x3
+0.50749433822435397 a2_x4
<= 98.543096

a2_local_5: 
+0.33676782934670380 a2_x4
+0.48140944719235146 a2_x5
+0.58104999301047666 a2_x2
<= 63.250204

a2_local_6: 
+0.33175991017694112 a2_x6
+0.39217656844989979 a2_x1
+0.44547743238388532 a2_x3
<= 43.535436

a2_local_7: 
+0.52000824122231959 a2_x4
+0.33733296645497685 a2_x6
+0.65264541715230073 a2_x2
<= 100.986228

a2_local_8: 
+0.39070231529925448 a2_x6
+0.47684152191124934 a2_x5
+0.35477976601576117 a2_x4
<= 66.932430

a2_act_1: 
+1.00000000000000000 a2_x1
-100.00000000000000000 a2_z1
<= 0.000000

a2_act_2: 
+1.00000000000000000 a2_x2
-100.00000000000000000 a2_z2
<= 0.000000

a3_local_1: 
+2.64626395626165856 a3_x4
+1.81271240918700505 a3_x1
+1.44396489123540350 a3_x5
<= 354.789004

a3_local_2: 
+1.19605112638038791 a3_x2
+1.10377854139945830 a3_x4
+2.82468275382743261 a3_x3
<= 278.929881

a3_local_3: 
+3.11006307770041612 a3_x4
+2.38608041734320153 a3_x6
+2.80637000948246085 a3_x5
<= 344.228059

a3_local_4: 
+3.12083930233349127 a3_x4
+1.40115509644687530 a3_x2
+2.11147856539312651 a3_x6
<= 386.577984

a3_local_5: 
+2.45391534490188956 a3_x3
+1.26928398043340041 a3_x4
+1.25956351162356173 a3_x2
<= 178.017611

a3_local_6: 
+3.06641976258988214 a3_x4
+2.98323780724980470 a3_x1
+2.16155152368026959 a3_x6
<= 420.309792

a3_local_7: 
+2.98636962845241749 a3_x4
+1.81315474827001077 a3_x5
+1.48854272352653116 a3_x2
<= 421.141487

a3_local_8: 
+1.46023513189816656 a3_x2
+2.39281896445502973 a3_x5
+2.10809852494812144 a3_x3
<= 312.937318

a3_act_1: 
+1.00000000000000000 a3_x1
-100.00000000000000000 a3_z1
<= 0.000000

a3_act_2: 
+1.00000000000000000 a3_x2
-100.00000000000000000 a3_z2
<= 0.000000

a4_local_1: 
+14.14086860102149146 a4_x5
+7.40298982162893004 a4_x6
+7.30234848520399815 a4_x2
<= 1016.821151

a4_local_2: 
+13.06878543069146303 a4_x5
+6.99130696613099811 a4_x4
+13.25515988923481991 a4_x1
<= 1736.544949

a4_local_3: 
+8.70425917591208353 a4_x6
+8.65300394619715263 a4_x2
+12.86304387827838625 a4_x3
<= 1283.649433

a4_local_4: 
+11.28892147443634286 a4_x2
+10.20868280223018232 a4_x6
+14.36992771361708421 a4_x4
<= 2140.024183

a4_local_5: 
+12.18600411575199516 a4_x2
+6.91603516826217835 a4_x1
+9.69498868074712306 a4_x3
<= 1316.166743

a4_local_6: 
+12.12565389080293343 a4_x3
+12.25695822995239048 a4_x5
+11.96232554883721377 a4_x2
<= 1828.244374

a4_local_7: 
+5.28656197988794130 a4_x5
+12.83557970847133944 a4_x2
+5.57955480154802341 a4_x4
<= 1154.987203

a4_local_8: 
+11.54503655933345385 a4_x1
+13.63718999890558514 a4_x5
+7.80339334521399763 a4_x4
<= 1990.227780

a4_act_1: 
+1.00000000000000000 a4_x1
-100.00000000000000000 a4_z1
<= 0.000000

a4_act_2: 
+1.00000000000000000 a4_x2
-100.00000000000000000 a4_z2
<= 0.000000

coupling_1: 
+0.00025141379910345 a1_x1
+0.00084688436404579 a2_x1
+0.00586490350320896 a3_x1
+0.03254689782223238 a4_x1
+0.00242511097575557 short_1
-0.00242511097575557 surp_1
= 1.104898

coupling_2: 
+0.00021401022846825 a1_x2
+0.00085741408421024 a2_x2
+0.00600377333468041 a3_x2
+0.02862353307508185 a4_x2
+0.00242511097575557 short_2
-0.00242511097575557 surp_2
= 2.400501

coupling_3: 
+0.00028424929081624 a1_x3
+0.00093103562735697 a2_x3
+0.00482442940158441 a3_x3
+0.01788986555491742 a4_x3
+0.00242511097575557 short_3
-0.00242511097575557 surp_3
= 1.220721

bounds
  0.000000 <= a1_x1 <= 100.000000
  0.000000 <= a1_x2 <= 100.000000
  0.000000 <= a1_x3 <= 100.000000
  0.000000 <= a1_x4 <= 100.000000
  0.000000 <= a1_x5 <= 100.000000
  0.000000 <= a1_x6 <= 100.000000
  0.000000 <= a2_x1 <= 100.000000
  0.000000 <= a2_x2 <= 100.000000
  0.000000 <= a2_x3 <= 100.000000
  0.000000 <= a2_x4 <= 100.000000
  0.000000 <= a2_x5 <= 100.000000
  0.000000 <= a2_x6 <= 100.000000
  0.000000 <= a3_x1 <= 100.000000
  0.000000 <= a3_x2 <= 100.000000
  0.000000 <= a3_x3 <= 100.000000
  0.000000 <= a3_x4 <= 100.000000
  0.000000 <= a3_x5 <= 100.000000
  0.000000 <= a3_x6 <= 100.000000
  0.000000 <= a4_x1 <= 100.000000
  0.000000 <= a4_x2 <= 100.000000
  0.000000 <= a4_x3 <= 100.000000
  0.000000 <= a4_x4 <= 100.000000
  0.000000 <= a4_x5 <= 100.000000
  0.000000 <= a4_x6 <= 100.000000
  0.000000 <= short_1 <= +inf
  0.000000 <= surp_1 <= +inf
  0.000000 <= short_2 <= +inf
  0.000000 <= surp_2 <= +inf
  0.000000 <= short_3 <= +inf
  0.000000 <= surp_3 <= +inf
 0 <= a1_z1 <= 1
 0 <= a1_z2 <= 1
 0 <= a2_z1 <= 1
 0 <= a2_z2 <= 1
 0 <= a3_z1 <= 1
 0 <= a3_z2 <= 1
 0 <= a4_z1 <= 1
 0 <= a4_z2 <= 1

binary
  a1_z1
  a1_z2
  a2_z1
  a2_z2
  a3_z1
  a3_z2
  a4_z1
  a4_z2
end
