min
obj: 
  +4.10293210566149646 a1_x1
  +3.32901181929639423 a1_x2
  +9.10176472428019245 a1_x3
  +1.02767819950250816 a1_x4
  +7.50152284301075145 a1_x5
  +9.69522117714092246 a1_x6
  +46.46239370281180214 a1_z1
  +20.97693906303189948 a1_z2
  +8.73612443817434503 a2_x1
  +2.04228756855595339 a2_x2
  +7.91416373752481395 a2_x3
  +8.85104976446995906 a2_x4
  +5.35890260317347789 a2_x5
  +4.46510259611176785 a2_x6
  +43.59910462783197715 a2_z1
  +13.73633673727412230 a2_z2
  +8.77121756982191414 a3_x1
  +5.76281450528001393 a3_x2
  +8.52709380603204359 a3_x3
  +1.13892657158295396 a3_x4
  +2.91144295006929399 a3_x5
  +3.02757282316255294 a3_x6
  +21.64888772902043002 a3_z1
  +37.44350625095739105 a3_z2
  +3.73746776663401503 a4_x1
  +6.30470396079639350 a4_x2
  +7.23244248154489888 a4_x3
  +3.53129435828251648 a4_x4
  +2.19432544763669313 a4_x5
  +2.79667117057261105 a4_x6
  +25.76781967633817416 a4_z1
  +25.23373202259198678 a4_z2
  +1000000.00000000000000000 short_1
  +1000000.00000000000000000 surp_1
  +1000000.00000000000000000 short_2
  +1000000.00000000000000000 surp_2
  +1000000.00000000000000000 short_3
  +1000000.00000000000000000 surp_3

s.t.

a1_local_1: 
+1.20417778670723985 a1_x6
+0.83872608849912589 a1_x1
+0.83044215815876044 a1_x4
<= 129.862983

a1_local_2: 
+0.79127728181851420 a1_x6
+0.95132572721491093 a1_x5
+1.26377949042312832 a1_x4
<= 134.081833

a1_local_3: 
+0.84779226898492177 a1_x1
+1.17953422858800017 a1_x5
+0.95405298954288509 a1_x6
<= 136.289437

a1_local_4: 
+1.22041850214126968 a1_x4
+0.66749459622215124 a1_x5
+1.49813946908296258 a1_x3
<= 232.286857

a1_local_5: 
+0.69446161690028996 a1_x6
+1.43996439207608318 a1_x2
+1.24769683766404138 a1_x1
<= 131.098503

a1_local_6: 
+1.01176254673477573 a1_x5
+0.81085699927352517 a1_x1
+1.23326307955155423 a1_x6
<= 185.106943

a1_local_7: 
+0.85980559423271752 a1_x5
+1.45643988779098432 a1_x1
+0.68660574897926130 a1_x3
<= 154.200116

a1_local_8: 
+0.78020740659331989 a1_x1
+1.28171046769009433 a1_x3
+1.28037939182862903 a1_x4
<= 188.469625

a1_act_1: 
+0.10000000000000001 a1_x1
-10.00000000000000000 a1_z1
<= 0.000000

a1_act_2: 
+0.10000000000000001 a1_x2
-10.00000000000000000 a1_z2
<= 0.000000

a2_local_1: 
+0.73916055019772731 a2_x4
+1.35288605396012729 a2_x5
+1.18309366348662781 a2_x1
<= 98.550882

a2_local_2: 
+1.52699417230705703 a2_x4
+1.35665220915943041 a2_x5
+0.65488134672390486 a2_x2
<= 169.883611

a2_local_3: 
+0.56767769955076086 a2_x6
+0.65302783320504876 a2_x3
+0.48293400883379917 a2_x4
<= 110.545759

a2_local_4: 
+0.97514189800707007 a2_x3
+0.87068399744261094 a2_x2
+1.14852231456787801 a2_x5
<= 133.765786

a2_local_5: 
+1.36615822705863144 a2_x3
+1.40511867175437066 a2_x4
+0.71168366067717470 a2_x5
<= 242.042653

a2_local_6: 
+1.16769420507330390 a2_x1
+0.76385431948245108 a2_x4
+1.30915015402092538 a2_x5
<= 213.690364

a2_local_7: 
+0.57675983587326018 a2_x6
+0.68388582744126880 a2_x2
+0.62477054855402947 a2_x4
<= 85.701474

a2_local_8: 
+0.68656602140536360 a2_x5
+0.57014699830804050 a2_x1
+0.40639793740128471 a2_x3
<= 60.572309

a2_act_1: 
+0.10000000000000001 a2_x1
-10.00000000000000000 a2_z1
<= 0.000000

a2_act_2: 
+0.10000000000000001 a2_x2
-10.00000000000000000 a2_z2
<= 0.000000

a3_local_1: 
+1.15810557743215892 a3_x4
+3.06899648290831895 a3_x2
+1.76926954559451999 a3_x6
<= 365.304765

a3_local_2: 
+1.27648715123422241 a3_x1
+1.13006228348955151 a3_x4
+0.78339997314748544 a3_x2
<= 205.192344

a3_local_3: 
+1.52011244657534528 a3_x3
+1.66134886064749332 a3_x6
+1.94180414233798171 a3_x5
<= 274.971288

a3_local_4: 
+1.16725675397535178 a3_x6
+2.01499305569260212 a3_x4
+2.59443504180292495 a3_x1
<= 394.719828

a3_local_5: 
+1.53559266261154770 a3_x6
+2.96694016859019971 a3_x4
+1.33680272942167688 a3_x3
<= 195.639222

a3_local_6: 
+0.85697083930190254 a3_x2
+0.77085299826763698 a3_x6
+1.29726420244499607 a3_x5
<= 149.197628

a3_local_7: 
+1.43455849429300319 a3_x3
+1.19821478062720010 a3_x4
+2.27907537336212851 a3_x5
<= 339.505993

a3_local_8: 
+0.74498068518282512 a3_x5
+1.34231668000169768 a3_x1
+1.10881459586575448 a3_x6
<= 142.952091

a3_act_1: 
+0.10000000000000001 a3_x1
-10.00000000000000000 a3_z1
<= 0.000000

a3_act_2: 
+0.10000000000000001 a3_x2
-10.00000000000000000 a3_z2
<= 0.000000

a4_local_1: 
+1.29761136017521128 a4_x5
+0.98083288263523827 a4_x2
+0.77064676735334225 a4_x1
<= 156.377112

a4_local_2: 
+1.09563505908660841 a4_x4
+0.87455836031251577 a4_x6
+1.14343426966115658 a4_x2
<= 217.580920

a4_local_3: 
+1.52835033008549059 a4_x3
+0.65430024799619313 a4_x6
+0.69173224552651802 a4_x4
<= 95.270526

a4_local_4: 
+1.19786185301933923 a4_x6
+1.37193126454161862 a4_x1
+0.72889949070015103 a4_x2
<= 103.148249

a4_local_5: 
+1.11381701990620430 a4_x5
+0.76463134789555998 a4_x6
+1.30781977844908948 a4_x1
<= 216.070365

a4_local_6: 
+1.16757095634734975 a4_x1
+0.85647899561360985 a4_x3
+0.93398829146063678 a4_x6
<= 151.542069

a4_local_7: 
+1.35858054227302971 a4_x1
+0.69017285802046835 a4_x3
+1.44891238242571285 a4_x6
<= 211.428133

a4_local_8: 
+1.07925748165865620 a4_x1
+1.24271532902441106 a4_x3
+0.80468951870501670 a4_x4
<= 196.224796

a4_act_1: 
+0.10000000000000001 a4_x1
-10.00000000000000000 a4_z1
<= 0.000000

a4_act_2: 
+0.10000000000000001 a4_x2
-10.00000000000000000 a4_z2
<= 0.000000

coupling_1: 
+0.00829678578748051 a1_x1
+0.06554852973141134 a2_x1
+0.12240101372285378 a3_x1
+0.97848097466511175 a4_x1
+0.10776717416188805 short_1
-0.10776717416188805 surp_1
= 48.574065

coupling_2: 
+0.00868045436924723 a1_x2
+0.06749455131333902 a2_x2
+0.20508981217789959 a3_x2
+0.95792677244751434 a4_x2
+0.13357320619060600 short_2
-0.13357320619060600 surp_2
= 58.657104

coupling_3: 
+0.01106496039893646 a1_x3
+0.06422105573677578 a2_x3
+0.14192819832706427 a3_x3
+0.97220361334871774 a4_x3
+0.12334857794631103 short_3
-0.12334857794631103 surp_3
= 45.898964

bounds
  0.000000 <= a1_x1 <= 100.000000
  0.000000 <= a1_x2 <= 100.000000
  0.000000 <= a1_x3 <= 100.000000
  0.000000 <= a1_x4 <= 100.000000
  0.000000 <= a1_x5 <= 100.000000
  0.000000 <= a1_x6 <= 100.000000
  0.000000 <= a2_x1 <= 100.000000
  0.000000 <= a2_x2 <= 100.000000
  0.000000 <= a2_x3 <= 100.000000
  0.000000 <= a2_x4 <= 100.000000
  0.000000 <= a2_x5 <= 100.000000
  0.000000 <= a2_x6 <= 100.000000
  0.000000 <= a3_x1 <= 100.000000
  0.000000 <= a3_x2 <= 100.000000
  0.000000 <= a3_x3 <= 100.000000
  0.000000 <= a3_x4 <= 100.000000
  0.000000 <= a3_x5 <= 100.000000
  0.000000 <= a3_x6 <= 100.000000
  0.000000 <= a4_x1 <= 100.000000
  0.000000 <= a4_x2 <= 100.000000
  0.000000 <= a4_x3 <= 100.000000
  0.000000 <= a4_x4 <= 100.000000
  0.000000 <= a4_x5 <= 100.000000
  0.000000 <= a4_x6 <= 100.000000
  0.000000 <= short_1 <= +inf
  0.000000 <= surp_1 <= +inf
  0.000000 <= short_2 <= +inf
  0.000000 <= surp_2 <= +inf
  0.000000 <= short_3 <= +inf
  0.000000 <= surp_3 <= +inf
 0 <= a1_z1 <= 1
 0 <= a1_z2 <= 1
 0 <= a2_z1 <= 1
 0 <= a2_z2 <= 1
 0 <= a3_z1 <= 1
 0 <= a3_z2 <= 1
 0 <= a4_z1 <= 1
 0 <= a4_z2 <= 1

binary
  a1_z1
  a1_z2
  a2_z1
  a2_z2
  a3_z1
  a3_z2
  a4_z1
  a4_z2
end
