min
obj: 
  +1.96797315584533505 a1_x1
  +5.12450639908132288 a1_x2
  +5.32896604620880687 a1_x3
  +7.73264361972508052 a1_x4
  +5.13954220661915251 a1_x5
  +1.49202607385126407 a1_x6
  +49.87266735161764331 a1_z1
  +13.86958179616855702 a1_z2
  +7.53413172178710777 a2_x1
  +3.45719216892709458 a2_x2
  +4.76571137466424233 a2_x3
  +9.38617884989886875 a2_x4
  +1.72886855476886026 a2_x5
  +5.90816082155518885 a2_x6
  +23.53717041290824596 a2_z1
  +38.77106799595807018 a2_z2
  +4.90875225577424779 a3_x1
  +9.92442060145863181 a3_x2
  +6.78612387718403109 a3_x3
  +8.67367115140907785 a3_x4
  +9.64439582433125331 a3_x5
  +8.97688831165856627 a3_x6
  +12.68276888992290807 a3_z1
  +43.15224448184653028 a3_z2
  +4.12769081519996917 a4_x1
  +7.02237149328651711 a4_x2
  +1.06108582988083655 a4_x3
  +7.09274128796206593 a4_x4
  +7.93550517031278613 a4_x5
  +7.59713078328193436 a4_x6
  +17.37310151636162914 a4_z1
  +10.31092367888116890 a4_z2
  +1000000.00000000000000000 short_1
  +1000000.00000000000000000 surp_1
  +1000000.00000000000000000 short_2
  +1000000.00000000000000000 surp_2
  +1000000.00000000000000000 short_3
  +1000000.00000000000000000 surp_3

s.t.

a1_local_1: 
+0.44685866575831845 a1_x3
+0.71098463243539267 a1_x6
+0.54297162474424476 a1_x2
<= 116.584349

a1_local_2: 
+0.82850689794525334 a1_x4
+0.45899830670512554 a1_x6
+0.32077542689389565 a1_x2
<= 91.172631

a1_local_3: 
+0.35334778835277675 a1_x4
+0.47615381976605570 a1_x5
+0.80524709275376838 a1_x2
<= 55.685556

a1_local_4: 
+0.41453565163171713 a1_x2
+0.51903022836685786 a1_x1
+0.74750773612566379 a1_x4
<= 112.758258

a1_local_5: 
+0.57162015603718541 a1_x5
+0.54879687047281289 a1_x2
+0.60997737021242893 a1_x4
<= 97.243587

a1_local_6: 
+0.63753845244283325 a1_x4
+0.30159698133509755 a1_x6
+0.70893157815571617 a1_x1
<= 107.856646

a1_local_7: 
+0.78648775386863090 a1_x5
+0.47309606050022557 a1_x4
+0.39701023986018652 a1_x3
<= 67.804783

a1_local_8: 
+0.56785673666480863 a1_x6
+0.69294484902990783 a1_x3
+0.44425911676330587 a1_x2
<= 75.407172

a1_act_1: 
+0.00999950003749688 a1_x1
-0.99995000374968757 a1_z1
<= 0.000000

a1_act_2: 
+0.00999950003749688 a1_x2
-0.99995000374968757 a1_z2
<= 0.000000

a2_local_1: 
+0.58282630080425946 a2_x3
+0.58178625970216458 a2_x6
+0.52718870159965348 a2_x4
<= 99.750357

a2_local_2: 
+0.56406978040085598 a2_x6
+0.33078981155633108 a2_x4
+0.24233690833001070 a2_x3
<= 75.936956

a2_local_3: 
+0.55541336608486103 a2_x2
+0.55357487177182529 a2_x3
+0.35093799580041857 a2_x4
<= 89.058272

a2_local_4: 
+0.44844911292136991 a2_x6
+0.28652623693084900 a2_x5
+0.62931870616811691 a2_x2
<= 78.515622

a2_local_5: 
+0.45250348597243334 a2_x4
+0.33447925302892162 a2_x5
+0.65371329797565914 a2_x3
<= 92.040376

a2_local_6: 
+0.47158739250967924 a2_x2
+0.61357107736613170 a2_x5
+0.41529343549107611 a2_x1
<= 91.154175

a2_local_7: 
+0.45728351426094060 a2_x4
+0.45829857385162720 a2_x3
+0.52429964240780547 a2_x5
<= 55.420126

a2_local_8: 
+0.41274297189103570 a2_x6
+0.29283455442810263 a2_x4
+0.33526549234856434 a2_x3
<= 64.607493

a2_act_1: 
+0.00999950003749688 a2_x1
-0.99995000374968757 a2_z1
<= 0.000000

a2_act_2: 
+0.00999950003749688 a2_x2
-0.99995000374968757 a2_z2
<= 0.000000

a3_local_1: 
+0.68123898476413824 a3_x1
+0.59980736569607018 a3_x3
+0.41969580614329111 a3_x4
<= 101.437061

a3_local_2: 
+0.58625488668569270 a3_x1
+0.59996883553872804 a3_x6
+0.54437358883348508 a3_x5
<= 120.160420

a3_local_3: 
+0.39009675296958451 a3_x6
+0.77452877572080103 a3_x2
+0.49792539491677279 a3_x3
<= 116.173409

a3_local_4: 
+0.43632330244810213 a3_x1
+0.83841671027425380 a3_x6
+0.32661811902232252 a3_x2
<= 109.504208

a3_local_5: 
+0.42946333906640533 a3_x4
+0.57346627027974162 a3_x6
+0.69763721033885251 a3_x3
<= 86.799349

a3_local_6: 
+0.69637425408187792 a3_x6
+0.53485746922481825 a3_x3
+0.47852939916616483 a3_x1
<= 79.918458

a3_local_7: 
+0.34044432783976447 a3_x6
+0.68697872241726410 a3_x5
+0.64199524498836791 a3_x1
<= 83.963074

a3_local_8: 
+0.43162885350286873 a3_x4
+0.65674618696769393 a3_x6
+0.61836961336016016 a3_x5
<= 109.594837

a3_act_1: 
+0.00999950003749688 a3_x1
-0.99995000374968757 a3_z1
<= 0.000000

a3_act_2: 
+0.00999950003749688 a3_x2
-0.99995000374968757 a3_z2
<= 0.000000

a4_local_1: 
+0.61427456718237727 a4_x4
+0.59559124871372615 a4_x1
+0.51762710571272008 a4_x5
<= 80.723598

a4_local_2: 
+0.62017120756328614 a4_x4
+0.63591609040485697 a4_x1
+0.45934562071897106 a4_x6
<= 75.435452

a4_local_3: 
+0.42196097359866247 a4_x3
+0.44179711012922690 a4_x5
+0.79168443854930792 a4_x1
<= 69.891750

a4_local_4: 
+0.42309620134642051 a4_x3
+0.82483933706823143 a4_x5
+0.37500622985634474 a4_x6
<= 111.136378

a4_local_5: 
+0.79116673665540427 a4_x4
+0.42842426796750249 a4_x5
+0.43647203968472958 a4_x6
<= 86.916588

a4_local_6: 
+0.42870156750027266 a4_x5
+0.54544631784578268 a4_x2
+0.72021058057438070 a4_x1
<= 81.850411

a4_local_7: 
+0.65353698555968520 a4_x2
+0.68987617818661706 a4_x3
+0.31138443647071834 a4_x1
<= 78.365528

a4_local_8: 
+0.79234014268973330 a4_x1
+0.54240304102168113 a4_x2
+0.27927771012532615 a4_x4
<= 54.941990

a4_act_1: 
+0.00999950003749688 a4_x1
-0.99995000374968757 a4_z1
<= 0.000000

a4_act_2: 
+0.00999950003749688 a4_x2
-0.99995000374968757 a4_z2
<= 0.000000

coupling_1: 
+0.01423742639718519 a1_x1
+0.05784742855480808 a2_x1
+0.26664576278433688 a3_x1
+1.42372764789419692 a4_x1
+0.10143334915417133 short_1
-0.10143334915417133 surp_1
= 75.557489

coupling_2: 
+0.00638895964305189 a1_x2
+0.03816407421307558 a2_x2
+0.18046690492171119 a3_x2
+0.69418434052830835 a4_x2
+0.10143334915417133 short_2
-0.10143334915417133 surp_2
= 22.644959

coupling_3: 
+0.01444854124284327 a1_x3
+0.04245426589014051 a2_x3
+0.18376848592218148 a3_x3
+0.73922231795292725 a4_x3
+0.10143334915417133 short_3
-0.10143334915417133 surp_3
= 52.405151

bounds
  0.000000 <= a1_x1 <= 100.000000
  0.000000 <= a1_x2 <= 100.000000
  0.000000 <= a1_x3 <= 100.000000
  0.000000 <= a1_x4 <= 100.000000
  0.000000 <= a1_x5 <= 100.000000
  0.000000 <= a1_x6 <= 100.000000
  0.000000 <= a2_x1 <= 100.000000
  0.000000 <= a2_x2 <= 100.000000
  0.000000 <= a2_x3 <= 100.000000
  0.000000 <= a2_x4 <= 100.000000
  0.000000 <= a2_x5 <= 100.000000
  0.000000 <= a2_x6 <= 100.000000
  0.000000 <= a3_x1 <= 100.000000
  0.000000 <= a3_x2 <= 100.000000
  0.000000 <= a3_x3 <= 100.000000
  0.000000 <= a3_x4 <= 100.000000
  0.000000 <= a3_x5 <= 100.000000
  0.000000 <= a3_x6 <= 100.000000
  0.000000 <= a4_x1 <= 100.000000
  0.000000 <= a4_x2 <= 100.000000
  0.000000 <= a4_x3 <= 100.000000
  0.000000 <= a4_x4 <= 100.000000
  0.000000 <= a4_x5 <= 100.000000
  0.000000 <= a4_x6 <= 100.000000
  0.000000 <= short_1 <= +inf
  0.000000 <= surp_1 <= +inf
  0.000000 <= short_2 <= +inf
  0.000000 <= surp_2 <= +inf
  0.000000 <= short_3 <= +inf
  0.000000 <= surp_3 <= +inf
 0 <= a1_z1 <= 1
 0 <= a1_z2 <= 1
 0 <= a2_z1 <= 1
 0 <= a2_z2 <= 1
 0 <= a3_z1 <= 1
 0 <= a3_z2 <= 1
 0 <= a4_z1 <= 1
 0 <= a4_z2 <= 1

binary
  a1_z1
  a1_z2
  a2_z1
  a2_z2
  a3_z1
  a3_z2
  a4_z1
  a4_z2
end
