min
obj: 
  +2.62040292120299334 a1_x1
  +1.02293933329670939 a1_x2
  +7.19109322240713489 a1_x3
  +4.26327457704359070 a1_x4
  +6.02462654690972954 a1_x5
  +8.55420542223946256 a1_x6
  +28.11411837117618262 a1_z1
  +36.33719979534413369 a1_z2
  +2.39250112218893918 a2_x1
  +1.83547081268154932 a2_x2
  +3.26801901615166557 a2_x3
  +8.57451293041723162 a2_x4
  +5.28554157085463672 a2_x5
  +8.07508570205658316 a2_x6
  +37.67992106218490278 a2_z1
  +30.78606331188496270 a2_z2
  +6.90983361892269166 a3_x1
  +7.22469297213641504 a3_x2
  +2.76350562177570946 a3_x3
  +4.58041526640907559 a3_x4
  +5.53917660184281146 a3_x5
  +2.52802612578793617 a3_x6
  +24.71990871554554658 a3_z1
  +39.06095262734275053 a3_z2
  +7.87721431876430422 a4_x1
  +7.82223412443215427 a4_x2
  +1.26243572521241743 a4_x3
  +2.93412910760232926 a4_x4
  +4.86803560394161750 a4_x5
  +9.50434430207515391 a4_x6
  +34.58728502900768120 a4_z1
  +29.50594267162487938 a4_z2
  +1000000.00000000000000000 short_1
  +1000000.00000000000000000 surp_1
  +1000000.00000000000000000 short_2
  +1000000.00000000000000000 surp_2
  +1000000.00000000000000000 short_3
  +1000000.00000000000000000 surp_3

s.t.

a1_local_1: 
+0.13625371621266164 a1_x3
+0.06330781645516469 a1_x5
+0.09996675918692954 a1_x4
<= 19.599124

a1_local_2: 
+0.13833621076180008 a1_x6
+0.09698315252008416 a1_x5
+0.14112807870089153 a1_x4
<= 19.946549

a1_local_3: 
+0.14490156228902407 a1_x4
+0.10648424990039343 a1_x3
+0.14049519571401553 a1_x1
<= 27.351141

a1_local_4: 
+0.05516341381739587 a1_x4
+0.08635583950821400 a1_x2
+0.11944012359281815 a1_x5
<= 10.910744

a1_local_5: 
+0.05719438769211850 a1_x2
+0.09778447375524886 a1_x4
+0.08417084363464018 a1_x3
<= 7.768944

a1_local_6: 
+0.12896460877189350 a1_x6
+0.08956990511233469 a1_x1
+0.06675784072594645 a1_x4
<= 17.564974

a1_local_7: 
+0.14698989791395142 a1_x2
+0.07862091660912894 a1_x5
+0.13987701313116349 a1_x1
<= 19.227250

a1_local_8: 
+0.11997749428466223 a1_x3
+0.12215878816147048 a1_x4
+0.05482708157714199 a1_x5
<= 9.033349

a1_act_1: 
+1.00000000000000000 a1_x1
-100.00000000000000000 a1_z1
<= 0.000000

a1_act_2: 
+1.00000000000000000 a1_x2
-100.00000000000000000 a1_z2
<= 0.000000

a2_local_1: 
+0.42604651335373184 a2_x1
+0.34181990557675468 a2_x5
+0.69280054148141812 a2_x6
<= 68.629977

a2_local_2: 
+0.50707755247316377 a2_x5
+0.25260518017109557 a2_x2
+0.59978817413885155 a2_x4
<= 78.623615

a2_local_3: 
+0.40082642051304895 a2_x4
+0.61416864583252806 a2_x5
+0.27440151894110087 a2_x1
<= 43.545887

a2_local_4: 
+0.33131833870032146 a2_x6
+0.49775957163541323 a2_x1
+0.41043821269162012 a2_x3
<= 66.903780

a2_local_5: 
+0.49939095828780122 a2_x4
+0.33780380892741874 a2_x5
+0.66545087256867985 a2_x3
<= 46.549743

a2_local_6: 
+0.25905216950999327 a2_x5
+0.23632118273139391 a2_x3
+0.23336864366367233 a2_x1
<= 49.435856

a2_local_7: 
+0.57494112959922850 a2_x3
+0.57722434682487278 a2_x1
+0.54644542738999002 a2_x4
<= 66.794389

a2_local_8: 
+0.26698945401167828 a2_x6
+0.23562293686075322 a2_x1
+0.29857379264275663 a2_x3
<= 49.945501

a2_act_1: 
+1.00000000000000000 a2_x1
-100.00000000000000000 a2_z1
<= 0.000000

a2_act_2: 
+1.00000000000000000 a2_x2
-100.00000000000000000 a2_z2
<= 0.000000

a3_local_1: 
+3.18920939999663666 a3_x2
+1.91665941796424133 a3_x1
+2.47854600361486765 a3_x3
<= 405.032231

a3_local_2: 
+1.52548079442144813 a3_x6
+1.35222906000305465 a3_x5
+2.62560813301485219 a3_x2
<= 211.161547

a3_local_3: 
+2.46967081206431294 a3_x3
+1.24054166269362587 a3_x6
+2.03424201391593806 a3_x4
<= 304.342881

a3_local_4: 
+2.30481158853604962 a3_x1
+1.70445351617298102 a3_x4
+2.78884398400783562 a3_x3
<= 328.726991

a3_local_5: 
+3.05844874202544448 a3_x1
+2.80165719243106848 a3_x2
+2.38937740818493261 a3_x3
<= 393.807825

a3_local_6: 
+1.10254537729103697 a3_x5
+3.15594551435689619 a3_x1
+2.27513708257521996 a3_x2
<= 409.366863

a3_local_7: 
+2.84838639807926164 a3_x5
+1.34070372434234564 a3_x6
+2.31733879412124555 a3_x3
<= 296.152561

a3_local_8: 
+2.50355308805146271 a3_x2
+1.15200101847499559 a3_x6
+2.74781180991899676 a3_x4
<= 271.598194

a3_act_1: 
+1.00000000000000000 a3_x1
-100.00000000000000000 a3_z1
<= 0.000000

a3_act_2: 
+1.00000000000000000 a3_x2
-100.00000000000000000 a3_z2
<= 0.000000

a4_local_1: 
+13.07435960398278141 a4_x5
+9.84010701932309040 a4_x4
+11.27605040209322596 a4_x6
<= 1113.696464

a4_local_2: 
+8.09521309964228664 a4_x6
+13.64417115605275832 a4_x4
+7.00839187116790896 a4_x2
<= 1102.370173

a4_local_3: 
+5.72342328978605064 a4_x1
+8.60737198265504233 a4_x6
+13.68213124288589100 a4_x5
<= 1784.439486

a4_local_4: 
+10.75484912613032051 a4_x3
+7.48655725103661318 a4_x5
+7.15879078571415839 a4_x4
<= 1450.575843

a4_local_5: 
+13.67308924187685548 a4_x2
+5.78204558436547078 a4_x1
+13.51643999040796906 a4_x5
<= 1070.526172

a4_local_6: 
+14.19431422129436626 a4_x6
+9.18516597115876898 a4_x5
+7.57619653850074926 a4_x4
<= 2134.990123

a4_local_7: 
+13.69267338436963044 a4_x6
+10.61908040198186498 a4_x1
+9.22410331280977758 a4_x4
<= 1296.037322

a4_local_8: 
+14.30766966422293152 a4_x6
+13.14329581478662234 a4_x1
+5.60546177856105476 a4_x2
<= 1305.011113

a4_act_1: 
+1.00000000000000000 a4_x1
-100.00000000000000000 a4_z1
<= 0.000000

a4_act_2: 
+1.00000000000000000 a4_x2
-100.00000000000000000 a4_z2
<= 0.000000

coupling_1: 
+2.45735306694641853 a1_x1
+20.43473189652132405 a2_x1
+98.18595722304213780 a3_x1
+414.53555591571517880 a4_x1
+33.21878894272892779 short_1
-33.21878894272892779 surp_1
= 30276.429972

coupling_2: 
+1.67043066693420572 a1_x2
+17.37375727260098301 a2_x2
+48.98296141676672022 a3_x2
+392.65668827951253661 a4_x2
+33.21878894272892779 short_2
-33.21878894272892779 surp_2
= 32238.875797

coupling_3: 
+3.98220593481178620 a1_x3
+18.95277556566475852 a2_x3
+89.19594154530854269 a3_x3
+431.06150529418050610 a4_x3
+33.21878894272892779 short_3
-33.21878894272892779 surp_3
= 19312.857475

bounds
  0.000000 <= a1_x1 <= 100.000000
  0.000000 <= a1_x2 <= 100.000000
  0.000000 <= a1_x3 <= 100.000000
  0.000000 <= a1_x4 <= 100.000000
  0.000000 <= a1_x5 <= 100.000000
  0.000000 <= a1_x6 <= 100.000000
  0.000000 <= a2_x1 <= 100.000000
  0.000000 <= a2_x2 <= 100.000000
  0.000000 <= a2_x3 <= 100.000000
  0.000000 <= a2_x4 <= 100.000000
  0.000000 <= a2_x5 <= 100.000000
  0.000000 <= a2_x6 <= 100.000000
  0.000000 <= a3_x1 <= 100.000000
  0.000000 <= a3_x2 <= 100.000000
  0.000000 <= a3_x3 <= 100.000000
  0.000000 <= a3_x4 <= 100.000000
  0.000000 <= a3_x5 <= 100.000000
  0.000000 <= a3_x6 <= 100.000000
  0.000000 <= a4_x1 <= 100.000000
  0.000000 <= a4_x2 <= 100.000000
  0.000000 <= a4_x3 <= 100.000000
  0.000000 <= a4_x4 <= 100.000000
  0.000000 <= a4_x5 <= 100.000000
  0.000000 <= a4_x6 <= 100.000000
  0.000000 <= short_1 <= +inf
  0.000000 <= surp_1 <= +inf
  0.000000 <= short_2 <= +inf
  0.000000 <= surp_2 <= +inf
  0.000000 <= short_3 <= +inf
  0.000000 <= surp_3 <= +inf
 0 <= a1_z1 <= 1
 0 <= a1_z2 <= 1
 0 <= a2_z1 <= 1
 0 <= a2_z2 <= 1
 0 <= a3_z1 <= 1
 0 <= a3_z2 <= 1
 0 <= a4_z1 <= 1
 0 <= a4_z2 <= 1

binary
  a1_z1
  a1_z2
  a2_z1
  a2_z2
  a3_z1
  a3_z2
  a4_z1
  a4_z2
end
