min
obj: 
  +2.8670230128866887 a1_x1
  +4.6121734767481746 a1_x2
  +8.3726653944305163 a1_x3
  +3.8874111784256438 a1_x4
  +3.5735214707131471 a1_x5
  +7.9063268225890937 a1_x6
  +32.521673256282952 a1_z1
  +46.9551209495583 a1_z2
  +1.341622492975389 a2_x1
  +5.0417707846324316 a2_x2
  +1.1098914253226899 a2_x3
  +7.5349912767704339 a2_x4
  +4.7451420176434915 a2_x5
  +4.9227196469025021 a2_x6
  +7.3717597202086891 a2_z1
  +32.23919956008293 a2_z2
  +7.1988333719011539 a3_x1
  +9.6965932883206509 a3_x2
  +2.6814504435085222 a3_x3
  +4.7418198986047297 a3_x4
  +5.4039251046059666 a3_x5
  +9.8502537099383343 a3_x6
  +17.992052798317559 a3_z1
  +28.73085531973274 a3_z2
  +5.3817190254650331 a4_x1
  +3.7297540390479749 a4_x2
  +6.6577904747627379 a4_x3
  +5.4304281417402382 a4_x4
  +9.7175944926778737 a4_x5
  +8.0479454867151716 a4_x6
  +7.8471654550187315 a4_z1
  +24.374477793367895 a4_z2
  +1000000 short_1
  +1000000 surp_1
  +1000000 short_2
  +1000000 surp_2
  +1000000 short_3
  +1000000 surp_3

s.t.

a1_local_1: 
+0.39177291867941205 a1_x3
+0.68779036958806883 a1_x1
+0.61111241821069406 a1_x2
<= 101.67816044536775

a1_local_2: 
+0.6999056518027742 a1_x4
+0.52567338781966111 a1_x6
+0.48352824934302857 a1_x2
<= 64.041069860702194

a1_local_3: 
+0.82400514536899072 a1_x3
+0.38774036231119741 a1_x4
+0.41312580631111628 a1_x1
<= 106.03853353966034

a1_local_4: 
+0.35648094899768951 a1_x3
+0.32432080677983677 a1_x6
+0.87620622417977756 a1_x1
<= 85.315956664383563

a1_local_5: 
+0.45020744170615423 a1_x5
+0.65088451194159835 a1_x1
+0.61127948726171644 a1_x3
<= 87.333349937401948

a1_local_6: 
+0.67266321542671081 a1_x6
+0.54251822390678717 a1_x3
+0.50318801192081608 a1_x1
<= 78.514808660530989

a1_local_7: 
+0.4753488613648037 a1_x4
+0.64944927450574941 a1_x3
+0.59351419514881076 a1_x6
<= 59.497140617943629

a1_local_8: 
+0.53750857770776128 a1_x6
+0.66337929965646736 a1_x3
+0.52058854547317357 a1_x2
<= 63.282209916442639

a1_act_1: 
+0.0099995000374968751 a1_x1
-0.99995000374968757 a1_z1
<= 0

a1_act_2: 
+0.0099995000374968768 a1_x2
-0.99995000374968768 a1_z2
<= 0

a2_local_1: 
+0.44305386190229845 a2_x3
+0.68979331370255881 a2_x1
+0.57261545545392167 a2_x4
<= 77.099357868251758

a2_local_2: 
+0.72215275482148866 a2_x3
+0.4519359829053432 a2_x4
+0.52368813816919346 a2_x1
<= 110.46492939535648

a2_local_3: 
+0.3959749426997019 a2_x2
+0.55180053242489535 a2_x5
+0.73397548812584323 a2_x6
<= 102.82432565912409

a2_local_4: 
+0.66674037331067437 a2_x3
+0.58707033230575223 a2_x4
+0.45913581816708238 a2_x2
<= 103.08133543225364

a2_local_5: 
+0.38161231068386581 a2_x3
+0.58430848675053237 a2_x5
+0.71620921290208461 a2_x6
<= 105.25026452636943

a2_local_6: 
+0.35439116549475275 a2_x2
+0.82522019450083384 a2_x5
+0.43979373848120723 a2_x1
<= 108.75982796448518

a2_local_7: 
+0.46293115892475639 a2_x6
+0.73408645613147794 a2_x2
+0.49680158717631906 a2_x5
<= 82.501522534459227

a2_local_8: 
+0.52248322477444342 a2_x2
+0.70087229114775906 a2_x4
+0.48558141575907671 a2_x6
<= 111.89103987345452

a2_act_1: 
+0.0099995000374968768 a2_x1
-0.99995000374968757 a2_z1
<= 0

a2_act_2: 
+0.0099995000374968751 a2_x2
-0.99995000374968745 a2_z2
<= 0

a3_local_1: 
+0.50679695135329739 a3_x6
+0.69494598077449909 a3_x2
+0.51010482638804067 a3_x1
<= 87.681780942368249

a3_local_2: 
+0.68894482039042559 a3_x3
+0.47270409627566029 a3_x1
+0.54945961800792564 a3_x4
<= 98.645513246634337

a3_local_3: 
+0.57222014825871059 a3_x4
+0.46253952721860958 a3_x1
+0.67721583537832641 a3_x6
<= 99.77150482458805

a3_local_4: 
+0.63053091360848312 a3_x1
+0.63476985121754981 a3_x3
+0.4466519931325742 a3_x5
<= 62.796874624717276

a3_local_5: 
+0.27427507782991195 a3_x5
+0.58225944812390884 a3_x4
+0.76534117669954016 a3_x6
<= 69.977790111635514

a3_local_6: 
+0.388776180474601 a3_x2
+0.64256106274845282 a3_x3
+0.66027900325177658 a3_x6
<= 90.443702507596456

a3_local_7: 
+0.60103170143918061 a3_x4
+0.34838572651871602 a3_x1
+0.71929707313678815 a3_x2
<= 89.617493274607682

a3_local_8: 
+0.752837361483777 a3_x2
+0.35442509053749 a3_x1
+0.55463389938917085 a3_x5
<= 54.388548249577447

a3_act_1: 
+0.0099995000374968751 a3_x1
-0.99995000374968757 a3_z1
<= 0

a3_act_2: 
+0.0099995000374968734 a3_x2
-0.99995000374968745 a3_z2
<= 0

a4_local_1: 
+0.40835286714628016 a4_x1
+0.72992350926589189 a4_x4
+0.54814195835967328 a4_x3
<= 67.58194210640238

a4_local_2: 
+0.69402579243393325 a4_x1
+0.50114580983945267 a4_x6
+0.51689561491350489 a4_x3
<= 80.323080175010901

a4_local_3: 
+0.55341762310459852 a4_x2
+0.3490249447443603 a4_x5
+0.75624765942345407 a4_x1
<= 94.531552599916665

a4_local_4: 
+0.47799834974959438 a4_x5
+0.49395149325235715 a4_x4
+0.72631226063617493 a4_x3
<= 73.408485874848125

a4_local_5: 
+0.33950806613546902 a4_x1
+0.61535113133073871 a4_x4
+0.71139107261683698 a4_x2
<= 67.47094178306773

a4_local_6: 
+0.59398797369782308 a4_x4
+0.70551761356461118 a4_x2
+0.38655295116251559 a4_x6
<= 85.923719023734122

a4_local_7: 
+0.51319099488252184 a4_x2
+0.54773087930478404 a4_x1
+0.66077672978661672 a4_x3
<= 82.883960259487864

a4_local_8: 
+0.61016323740756162 a4_x1
+0.38072125722768341 a4_x2
+0.69480367587635528 a4_x5
<= 109.84943550541011

a4_act_1: 
+0.0099995000374968768 a4_x1
-0.99995000374968757 a4_z1
<= 0

a4_act_2: 
+0.0099995000374968768 a4_x2
-0.99995000374968757 a4_z2
<= 0

coupling_1: 
+0.00012069809948715899 a1_x1
+0.0021643594291449434 a2_x1
+0.045802836479226644 a3_x1
+0.99888115175497449 a4_x1
+0.0081806423752377299 short_1
-0.0081806423752377299 surp_1
= 26.208921981108389

coupling_2: 
+8.7859289471484313e-05 a1_x2
+0.0022515443790108868 a2_x2
+0.068368591859801958 a3_x2
+0.99748559353100186 a4_x2
+0.013098648286509307 short_2
-0.013098648286509307 surp_2
= 24.238536995137853

coupling_3: 
+0.00022530861035332283 a1_x3
+0.0047056100385552855 a2_x3
+0.076075896452851482 a3_x3
+0.9968551207209152 a4_x3
+0.015331874340399215 short_3
-0.015331874340399215 surp_3
= 22.192835642616092

bounds
  0 <= a1_x1 <= 100
  0 <= a1_x2 <= 100
  0 <= a1_x3 <= 100
  0 <= a1_x4 <= 100
  0 <= a1_x5 <= 100
  0 <= a1_x6 <= 100
  0 <= a2_x1 <= 100
  0 <= a2_x2 <= 100
  0 <= a2_x3 <= 100
  0 <= a2_x4 <= 100
  0 <= a2_x5 <= 100
  0 <= a2_x6 <= 100
  0 <= a3_x1 <= 100
  0 <= a3_x2 <= 100
  0 <= a3_x3 <= 100
  0 <= a3_x4 <= 100
  0 <= a3_x5 <= 100
  0 <= a3_x6 <= 100
  0 <= a4_x1 <= 100
  0 <= a4_x2 <= 100
  0 <= a4_x3 <= 100
  0 <= a4_x4 <= 100
  0 <= a4_x5 <= 100
  0 <= a4_x6 <= 100
  0 <= short_1 <= +inf
  0 <= surp_1 <= +inf
  0 <= short_2 <= +inf
  0 <= surp_2 <= +inf
  0 <= short_3 <= +inf
  0 <= surp_3 <= +inf
 0 <= a1_z1 <= 1
 0 <= a1_z2 <= 1
 0 <= a2_z1 <= 1
 0 <= a2_z2 <= 1
 0 <= a3_z1 <= 1
 0 <= a3_z2 <= 1
 0 <= a4_z1 <= 1
 0 <= a4_z2 <= 1

binary
  a1_z1
  a1_z2
  a2_z1
  a2_z2
  a3_z1
  a3_z2
  a4_z1
  a4_z2
end
