min
obj: 
  +9.9278906915658744 a1_x1
  +4.1029321056614965 a1_x2
  +3.3290118192963942 a1_x3
  +9.1017647242801925 a1_x4
  +1.0276781995025082 a1_x5
  +7.5015228430107515 a1_x6
  +48.476105885704612 a1_z1
  +46.462393702811802 a1_z2
  +3.1850077691017789 a2_x1
  +1.0794293017939207 a2_x2
  +3.499564475939096 a2_x3
  +4.2123952542391079 a2_x4
  +5.825176560091875 a2_x5
  +3.8934254066749405 a2_x6
  +48.499085817086311 a2_z1
  +41.1366386984797 a2_z2
  +2.6719241979528361 a3_x1
  +3.8682188322270532 a3_x2
  +5.9140343670384405 a3_x3
  +8.8118059009872773 a3_x4
  +5.9790956134935263 a3_x5
  +2.6868556403382673 a3_x6
  +5.1863767770133045 a3_z1
  +6.8806666184499186 a3_z2
  +1.2856225251920637 a4_x1
  +5.2994894770405514 a4_x2
  +9.0295106348529277 a4_x3
  +3.0822666442565567 a4_x4
  +2.1929853575171814 a4_x5
  +7.0676293507155048 a4_x6
  +41.576942647234446 a4_z1
  +44.440960753164354 a4_z2
  +1000000 short_1
  +1000000 surp_1
  +1000000 short_2
  +1000000 surp_2
  +1000000 short_3
  +1000000 surp_3

s.t.

a1_local_1: 
+1.2150186794697524 a1_x4
+1.1816463149053793 a1_x6
+0.8230326141458264 a1_x1
<= 128.37354550348246

a1_local_2: 
+0.7912772818185142 a1_x6
+0.95132572721491071 a1_x5
+1.2637794904231281 a1_x4
<= 134.0818325030215

a1_local_3: 
+1.2314885684734134 a1_x3
+0.99607567280722864 a1_x1
+0.81202540210310448 a1_x6
<= 180.52106698494032

a1_local_4: 
+1.2928577326049486 a1_x5
+1.36477642842819 a1_x2
+0.73272074397687093 a1_x4
<= 142.91338333331132

a1_local_5: 
+0.71301792026251265 a1_x4
+1.4024892945633523 a1_x2
+0.86469824810218676 a1_x5
<= 177.74214838946799

a1_local_6: 
+1.4259813184398664 a1_x3
+1.3454616734476363 a1_x4
+0.70127145921804723 a1_x1
<= 133.72484378742823

a1_local_7: 
+1.1577714136341213 a1_x1
+0.86372835624012012 a1_x2
+0.99437982447742579 a1_x5
<= 159.20056922293952

a1_local_8: 
+1.0911945770574756 a1_x5
+1.1807609242233661 a1_x2
+0.84691149536282317 a1_x4
<= 141.59798379707561

a1_act_1: 
+0.099999999999999992 a1_x1
-10 a1_z1
<= 0

a1_act_2: 
+0.099999999999999992 a1_x2
-9.9999999999999982 a1_z2
<= 0

a2_local_1: 
+0.5603401064240896 a2_x6
+0.34159450233765348 a2_x4
+0.80568611668270007 a2_x1
<= 113.17466855697751

a2_local_2: 
+1.0769540369010855 a2_x2
+1.0399443164295965 a2_x1
+0.92854473425577266 a2_x4
<= 169.61908749502484

a2_local_3: 
+1.3661582270586314 a2_x3
+1.4051186717543707 a2_x4
+0.71168366067717481 a2_x5
<= 242.04265309659419

a2_local_4: 
+0.75966402025395918 a2_x4
+1.3019685085939665 a2_x3
+1.3163714133330882 a2_x2
<= 125.05048937869576

a2_local_5: 
+1.1979166843162841 a2_x1
+0.78884095717804725 a2_x4
+1.2676826563079844 a2_x2
<= 141.26076286243259

a2_local_6: 
+0.69602168714649226 a2_x3
+1.4367368409161785 a2_x5
+1.084507447984373 a2_x1
<= 204.14759172879508

a2_local_7: 
+0.80721460123616018 a2_x3
+1.0370496967943299 a2_x6
+1.2388279380335914 a2_x4
<= 202.91017335852422

a2_local_8: 
+1.3399398091607617 a2_x1
+2.4522433257063456 a2_x6
+2.3157978515713666 a2_x5
<= 358.66779550650449

a2_act_1: 
+0.099999999999999992 a2_x1
-9.9999999999999982 a2_z1
<= 0

a2_act_2: 
+0.099999999999999992 a2_x2
-10 a2_z2
<= 0

a3_local_1: 
+1.5351660412828598 a3_x1
+1.3591369364393544 a3_x4
+0.65139533647080361 a3_x2
<= 136.54611506689665

a3_local_2: 
+0.74418733476839072 a3_x6
+1.3437476738450869 a3_x4
+1.15016229358445 a3_x1
<= 125.99921405949327

a3_local_3: 
+1.3962420443705421 a3_x2
+0.85747778462066948 a3_x3
+0.71620819902384669 a3_x5
<= 155.36918079975089

a3_local_4: 
+0.74498068518282523 a3_x5
+1.3423166800016979 a3_x1
+1.1088145958657547 a3_x6
<= 142.95209130377995

a3_local_5: 
+1.0530529378288007 a3_x6
+0.73385772437237728 a3_x3
+1.362661953112557 a3_x1
<= 119.95744514390127

a3_local_6: 
+0.90186303545680035 a3_x2
+1.1088158186830359 a3_x6
+0.94211412005498973 a3_x4
<= 121.81862817287376

a3_local_7: 
+1.4123031394288177 a3_x2
+0.66640384915273376 a3_x5
+1.5005915726198171 a3_x4
<= 189.93885819847259

a3_local_8: 
+1.1519545091647601 a3_x2
+1.2402672083296455 a3_x1
+0.8062778676111011 a3_x5
<= 198.72861027724045

a3_act_1: 
+0.099999999999999992 a3_x1
-9.9999999999999982 a3_z1
<= 0

a3_act_2: 
+0.099999999999999992 a3_x2
-10 a3_z2
<= 0

a4_local_1: 
+1.4926136450452159 a4_x2
+0.66996573649151303 a4_x6
+1.4440750339305359 a4_x5
<= 237.10847516680195

a4_local_2: 
+0.62823343579449831 a4_x3
+1.5917650080743404 a4_x5
+1.2851473160769955 a4_x1
<= 201.80157071851761

a4_local_3: 
+0.83522432276703851 a4_x4
+1.1972831402790944 a4_x3
+1.0462431312050045 a4_x6
<= 188.99023877330134

a4_local_4: 
+1.2359350453004121 a4_x5
+0.80910400898692481 a4_x1
+0.81419027416480205 a4_x4
<= 137.88152348163101

a4_local_5: 
+0.76408964291946735 a4_x5
+1.3705629837085014 a4_x6
+0.72962717648639308 a4_x1
<= 176.37369760672303

a4_local_6: 
+1.076120692229682 a4_x4
+1.0759171606021949 a4_x3
+0.92926379654315305 a4_x2
<= 128.63783926236408

a4_local_7: 
+0.903074992008286 a4_x3
+1.4413667018637968 a4_x6
+0.69378597320648783 a4_x1
<= 184.74101657474728

a4_local_8: 
+0.94438556672081353 a4_x3
+0.97891764358082112 a4_x2
+1.058889541770843 a4_x6
<= 113.36400182943726

a4_act_1: 
+0.15616070134083881 a4_x1
-15.616070134083881 a4_z1
<= 0

a4_act_2: 
+0.099999999999999992 a4_x2
-10 a4_z2
<= 0

coupling_1: 
+0.00010558978998185866 a1_x1
+0.002923187566573521 a2_x1
+0.056130082558866659 a3_x1
+1.2475364828871709 a4_x1
+0.010860894422314043 short_1
-0.010860894422314043 surp_1
= 38.148012980033961

coupling_2: 
+0.00016111414823094213 a1_x2
+0.0026650689546058905 a2_x2
+0.13345740073448947 a3_x2
+1.2378960219127588 a4_x2
+0.022459084730903144 short_2
-0.022459084730903144 surp_2
= 77.259940614224433

coupling_3: 
+6.7080805253872847e-05 a1_x3
+0.0010768684474569091 a2_x3
+0.040214849367824684 a3_x3
+1.2485482385143654 a4_x3
+0.0086493713017999959 short_3
-0.0086493713017999959 surp_3
= 45.747486251688159

bounds
  0 <= a1_x1 <= 100
  0 <= a1_x2 <= 100
  0 <= a1_x3 <= 100
  0 <= a1_x4 <= 100
  0 <= a1_x5 <= 100
  0 <= a1_x6 <= 100
  0 <= a2_x1 <= 100
  0 <= a2_x2 <= 100
  0 <= a2_x3 <= 100
  0 <= a2_x4 <= 100
  0 <= a2_x5 <= 100
  0 <= a2_x6 <= 100
  0 <= a3_x1 <= 100
  0 <= a3_x2 <= 100
  0 <= a3_x3 <= 100
  0 <= a3_x4 <= 100
  0 <= a3_x5 <= 100
  0 <= a3_x6 <= 100
  0 <= a4_x1 <= 100
  0 <= a4_x2 <= 100
  0 <= a4_x3 <= 100
  0 <= a4_x4 <= 100
  0 <= a4_x5 <= 100
  0 <= a4_x6 <= 100
  0 <= short_1 <= +inf
  0 <= surp_1 <= +inf
  0 <= short_2 <= +inf
  0 <= surp_2 <= +inf
  0 <= short_3 <= +inf
  0 <= surp_3 <= +inf
 0 <= a1_z1 <= 1
 0 <= a1_z2 <= 1
 0 <= a2_z1 <= 1
 0 <= a2_z2 <= 1
 0 <= a3_z1 <= 1
 0 <= a3_z2 <= 1
 0 <= a4_z1 <= 1
 0 <= a4_z2 <= 1

binary
  a1_z1
  a1_z2
  a2_z1
  a2_z2
  a3_z1
  a3_z2
  a4_z1
  a4_z2
end
