min
obj: 
  +7.7820756929973847 a1_x1
  +2.6204029212029933 a1_x2
  +1.0229393332967094 a1_x3
  +7.1910932224071349 a1_x4
  +4.2632745770435907 a1_x5
  +6.0246265469097295 a1_x6
  +42.771027111197313 a1_z1
  +28.114118371176183 a1_z2
  +5.7911212590182997 a2_x1
  +5.4348931719458209 a2_x2
  +9.4259627235885386 a2_x3
  +8.9213052519907556 a2_x4
  +6.1484548986939966 a2_x5
  +2.146409388681831 a2_x6
  +31.660946131309107 a2_z1
  +6.9899613369063101 a2_z2
  +2.8186252614454075 a3_x1
  +1.3641205917884647 a3_x2
  +2.33366974601915 a3_x3
  +2.4556775991065138 a3_x4
  +5.2278265061317715 a3_x5
  +6.6696189442115292 a3_x6
  +49.857919593613119 a3_z1
  +30.640944798186169 a3_z2
  +7.0994894146457632 a4_x1
  +9.5674915626052641 a4_x2
  +9.235478138695818 a4_x3
  +8.9478139676632793 a4_x4
  +7.4338997063934436 a4_x5
  +1.7960169742966061 a4_x6
  +7.4304140982629434 a4_z1
  +14.530204301669533 a4_z2
  +1000000 short_1
  +1000000 surp_1
  +1000000 short_2
  +1000000 surp_2
  +1000000 short_3
  +1000000 surp_3

s.t.

a1_local_1: 
+378.27781679787785 a1_x4
+581.21578763873538 a1_x6
+270.0513676063519 a1_x3
<= 61460.900172317291

a1_local_2: 
+0.0006599545165965684 a1_x6
+0.00046267328841045208 a1_x5
+0.00067327355899333583 a1_x4
<= 0.095158128995443181

a1_local_3: 
+62.929668684932459 a1_x4
+83.029331815531478 a1_x2
+88.34283882256409 a1_x3
<= 13591.24566157146

a1_local_4: 
+0.00020933779954202252 a1_x4
+0.00013938074700896758 a1_x5
+0.000219219738780045 a1_x2
<= 0.028940741972385199

a1_local_5: 
+1.2355887652284445 a1_x2
+3.006644431724701 a1_x5
+1.4664476456939555 a1_x4
<= 315.8057513845431

a1_local_6: 
+67.631746507896906 a1_x2
+77.993066675885942 a1_x3
+39.790595847448401 a1_x1
<= 10050.228470733096

a1_local_7: 
+1066.5966882020377 a1_x5
+2227.8519696571011 a1_x2
+1072.0105490549972 a1_x6
<= 239594.66857419477

a1_local_8: 
+3.8982050289274635 a1_x5
+6.9546091574024267 a1_x1
+5.0602461741944618 a1_x6
<= 977.77521451666053

a1_act_1: 
+7.5211378705497252 a1_x1
-752.11378705497248 a1_z1
<= 0

a1_act_2: 
+133684.08856022861 a1_x2
-13368408.856022861 a1_z2
<= 0

a2_local_1: 
+1.5561992807941482e-06 a2_x6
+2.3229630403485259e-06 a2_x4
+2.310919535241099e-06 a2_x3
<= 0.00038952606307466003

a2_local_2: 
+1.728578270651542 a2_x5
+2.3967860072849714 a2_x4
+3.6008365276967451 a2_x6
<= 350.54153911659881

a2_local_3: 
+0.005924576373970359 a2_x4
+0.0040075704859982644 a2_x5
+0.007894645371985835 a2_x3
<= 0.55224769662430329

a2_local_4: 
+0.11586852609325368 a2_x5
+0.11442089306241152 a2_x6
+0.32906157907527001 a2_x4
<= 20.897964808385161

a2_local_5: 
+8.587823427779254 a2_x4
+5.3474978744703758 a2_x2
+10.713638317239232 a2_x3
<= 1173.94571311974

a2_local_6: 
+0.016749022389690432 a2_x5
+0.014805450750533519 a2_x4
+0.015253261428206292 a2_x3
<= 1.7711018284040712

a2_local_7: 
+99653.563392741038 a2_x1
+159847.95969994753 a2_x6
+106796.24861803431 a2_x4
<= 25577647.656697839

a2_local_8: 
+8.4531245290637815e-06 a2_x4
+7.8512432443025145e-06 a2_x3
+5.2797177552654268e-06 a2_x5
<= 0.00082715867506372403

a2_act_1: 
+421.10662114422365 a2_x1
-42110.662114422368 a2_z1
<= 0

a2_act_2: 
+0.00032430849539005925 a2_x2
-0.032430849539005928 a2_z2
<= 0

a3_local_1: 
+17997.775796087659 a3_x6
+27537.175371295758 a3_x2
+22682.189436170796 a3_x1
<= 4555830.3074418437

a3_local_2: 
+20.031068328034188 a3_x1
+13.476790093916719 a3_x6
+11.169426096818503 a3_x2
<= 3064.6117859182759

a3_local_3: 
+0.11584609364447895 a3_x6
+0.27733599354755312 a3_x5
+0.13053896047745503 a3_x3
<= 27.770065274801816

a3_local_4: 
+7970.9343111337494 a3_x2
+3667.79697560566 a3_x6
+8748.6171316897726 a3_x4
<= 864727.56369693961

a3_local_5: 
+2.0687439961368353e-05 a3_x1
+2.758596896333632e-05 a3_x5
+1.847741343109054e-05 a3_x3
<= 0.003308966341797729

a3_local_6: 
+83040.0966554021 a3_x5
+98297.047479601213 a3_x2
+81326.497852369299 a3_x3
<= 13534949.713395024

a3_local_7: 
+1.5251359681286842 a3_x2
+1.2471568380320919 a3_x3
+1.8144228311143731 a3_x1
<= 244.9556769094952

a3_local_8: 
+47.73506113276305 a3_x6
+22.190827976627002 a3_x1
+38.868524415069693 a3_x2
<= 4949.1279052741538

a3_act_1: 
+0.00096353767655552752 a3_x1
-0.096353767655552758 a3_z1
<= 0

a3_act_2: 
+0.00038953720416156734 a3_x2
-0.038953720416156731 a3_z2
<= 0

a4_local_1: 
+1600288.8067796153 a4_x1
+3676886.6759776156 a4_x6
+1940506.357919055 a4_x5
<= 455914794.04151291

a4_local_2: 
+702816.96907015878 a4_x2
+334072.82377224008 a4_x5
+655200.38008749695 a4_x4
<= 113760370.67473416

a4_local_3: 
+458075.57625647489 a4_x6
+356311.13768796704 a4_x2
+209869.5846145527 a4_x5
<= 59648491.517651774

a4_local_4: 
+27366.39372735779 a4_x6
+16622.723953113466 a4_x3
+28708.036338047739 a4_x4
<= 4603207.0251704007

a4_local_5: 
+1436.6369190748474 a4_x5
+1461.4716381919197 a4_x2
+2504.1530958476919 a4_x3
<= 216453.33300539758

a4_local_6: 
+520328.45029751369 a4_x1
+443727.06617543806 a4_x5
+532675.83604250208 a4_x4
<= 82536727.302018344

a4_local_7: 
+0.0042017830588908893 a4_x6
+0.0080895459704312684 a4_x3
+0.0066972415205509058 a4_x2
<= 1.1416992236184009

a4_local_8: 
+16899.658366706502 a4_x3
+26779.595435809952 a4_x6
+13435.627691118125 a4_x4
<= 2058476.7778324464

a4_act_1: 
+270.67735686498156 a4_x1
-27067.735686498156 a4_z1
<= 0

a4_act_2: 
+0.83645193683873353 a4_x2
-83.645193683873359 a4_z2
<= 0

coupling_1: 
+30.207103395789556 a1_x1
+813.9148611102695 a2_x1
+14112.949755406949 a3_x1
+199307.32144241582 a4_x1
+3067.0209961217961 short_1
-3067.0209961217961 surp_1
= 15172861.621535012

coupling_2: 
+5.041332555035247e-05 a1_x2
+0.00096553318618694181 a2_x2
+0.021881305128651038 a3_x2
+0.3561602846406805 a4_x2
+0.0036086311050635951 short_2
-0.0036086311050635951 surp_2
= 10.614539189308134

coupling_3: 
+0.013042866560825333 a1_x3
+0.1978009512036942 a2_x3
+2.73233606987873 a3_x3
+58.160884106861687 a4_x3
+1.1154625157093416 short_3
-1.1154625157093416 surp_3
= 1370.4037996263103

bounds
  0 <= a1_x1 <= 100
  0 <= a1_x2 <= 100
  0 <= a1_x3 <= 100
  0 <= a1_x4 <= 100
  0 <= a1_x5 <= 100
  0 <= a1_x6 <= 100
  0 <= a2_x1 <= 100
  0 <= a2_x2 <= 100
  0 <= a2_x3 <= 100
  0 <= a2_x4 <= 100
  0 <= a2_x5 <= 100
  0 <= a2_x6 <= 100
  0 <= a3_x1 <= 100
  0 <= a3_x2 <= 100
  0 <= a3_x3 <= 100
  0 <= a3_x4 <= 100
  0 <= a3_x5 <= 100
  0 <= a3_x6 <= 100
  0 <= a4_x1 <= 100
  0 <= a4_x2 <= 100
  0 <= a4_x3 <= 100
  0 <= a4_x4 <= 100
  0 <= a4_x5 <= 100
  0 <= a4_x6 <= 100
  0 <= short_1 <= +inf
  0 <= surp_1 <= +inf
  0 <= short_2 <= +inf
  0 <= surp_2 <= +inf
  0 <= short_3 <= +inf
  0 <= surp_3 <= +inf
 0 <= a1_z1 <= 1
 0 <= a1_z2 <= 1
 0 <= a2_z1 <= 1
 0 <= a2_z2 <= 1
 0 <= a3_z1 <= 1
 0 <= a3_z2 <= 1
 0 <= a4_z1 <= 1
 0 <= a4_z2 <= 1

binary
  a1_z1
  a1_z2
  a2_z1
  a2_z2
  a3_z1
  a3_z2
  a4_z1
  a4_z2
end
