min
obj: 
  +3.043052453503527 a1_x1
  +8.5242104678500681 a1_x2
  +7.6930756521091874 a1_x3
  +6.9189962156082423 a1_x4
  +9.2097073421305335 a1_x5
  +1.6783613276554563 a1_x6
  +29.957301038510835 a1_z1
  +31.080729858907144 a1_z2
  +3.9982275243752419 a2_x1
  +4.0716566341487717 a2_x2
  +8.3479540678562252 a2_x3
  +4.8717105490747867 a2_x4
  +6.0061452108085005 a2_x5
  +2.7882654202354971 a2_x6
  +21.648290212377919 a2_z1
  +42.54057128991149 a2_z2
  +2.9928805955584821 a3_x1
  +5.5354110864277946 a3_x2
  +5.213896919227734 a3_x3
  +2.0650047465660801 a3_x4
  +6.4105355661416237 a3_x5
  +2.6598622040549174 a3_x6
  +31.217971703687525 a3_z1
  +44.913093336265895 a3_z2
  +1.3478391985630118 a4_x1
  +6.3176473690479504 a4_x2
  +9.9894359630934186 a4_x3
  +5.7054129264347031 a4_x4
  +4.4415295718065089 a4_x5
  +5.0613340194576661 a4_x6
  +15.238383211322466 a4_z1
  +39.666499040349478 a4_z2
  +1000000 short_1
  +1000000 surp_1
  +1000000 short_2
  +1000000 surp_2
  +1000000 short_3
  +1000000 surp_3

s.t.

a1_local_1: 
+1.9341549887029824e-07 a1_x4
+2.406222980768087e-07 a1_x3
+5.1837387154719383e-07 a1_x1
<= 5.9163979788494081e-05

a1_local_2: 
+1.2895526791424564e-08 a1_x5
+7.8502737106615925e-09 a1_x2
+9.7053018541192413e-09 a1_x1
<= 1.1886715532932288e-06

a1_local_3: 
+472.38693029913145 a1_x1
+668.8177797262573 a1_x5
+672.44404024075527 a1_x4
<= 104212.47111823935

a1_local_4: 
+17.157663527066788 a1_x4
+12.88245959216222 a1_x1
+13.813422351551678 a1_x2
<= 1843.9876968004187

a1_local_5: 
+6658.6282426176749 a1_x4
+13610.064393428309 a1_x6
+5517.4494524071542 a1_x3
<= 1767781.4015178399

a1_local_6: 
+7.5931811489737732e-08 a1_x5
+1.2970895142243547e-07 a1_x1
+7.3096769709880716e-08 a1_x6
<= 1.5080660922655674e-05

a1_local_7: 
+0.12050567091264351 a1_x1
+0.12628206743131359 a1_x2
+0.084501530855955187 a1_x4
<= 18.87426607473504

a1_local_8: 
+0.0013800007467604106 a1_x3
+0.0014655683991039944 a1_x6
+0.00056424892370144145 a1_x5
<= 0.17482171154881798

a1_act_1: 
+0.025452749689395333 a1_x1
-2.5452749689395331 a1_z1
<= 0

a1_act_2: 
+0.019614658831632568 a1_x2
-1.9614658831632568 a1_z2
<= 0

a2_local_1: 
+386.18071770273707 a2_x5
+470.67436459249814 a2_x3
+558.93941981580565 a2_x6
<= 92959.134767193085

a2_local_2: 
+15132.044552458419 a2_x4
+23596.464394821749 a2_x3
+16072.867655840497 a2_x6
<= 2680269.7945494447

a2_local_3: 
+2.7775470357518774e-06 a2_x3
+2.0798758772556356e-06 a2_x1
+2.9176097575846297e-06 a2_x2
<= 0.00051523443166049678

a2_local_4: 
+2583.1922923024017 a2_x4
+2002.1067644959114 a2_x5
+1874.7418604632417 a2_x1
<= 202288.11266843992

a2_local_5: 
+8686.9214531457928 a2_x1
+9749.3375393072874 a2_x6
+5184.5874572218627 a2_x2
<= 1427627.1138943778

a2_local_6: 
+0.081121111119419942 a2_x1
+0.064206330640486795 a2_x5
+0.090230960957493805 a2_x3
<= 12.878052389079949

a2_local_7: 
+6149.9410191634679 a2_x3
+11537.130256261185 a2_x6
+5836.8487779395164 a2_x1
<= 1084840.1940860928

a2_local_8: 
+0.062822780610341397 a2_x4
+0.11017017016068111 a2_x1
+0.11887776296247538 a2_x6
<= 10.491615549378299

a2_act_1: 
+0.0081989731169978368 a2_x1
-0.81989731169978364 a2_z1
<= 0

a2_act_2: 
+3178.8338464666226 a2_x2
-317883.38464666228 a2_z2
<= 0

a3_local_1: 
+2.6050294439177273e-05 a3_x4
+1.0088244563931336e-05 a3_x2
+1.8625589997090265e-05 a3_x5
<= 0.0029296256339592895

a3_local_2: 
+622.21454950448697 a3_x1
+573.77455097729023 a3_x6
+598.34591437227721 a3_x3
<= 57555.558310743349

a3_local_3: 
+32.643961795186392 a3_x2
+27.802418276818383 a3_x6
+24.947420398773897 a3_x5
<= 5967.9867329754743

a3_local_4: 
+35212.399478460255 a3_x1
+50326.925565728998 a3_x5
+47202.525730320413 a3_x4
<= 4227881.9329454899

a3_local_5: 
+196613.40524252589 a3_x4
+110837.95644378803 a3_x2
+170134.60210101708 a3_x6
<= 19350158.620791901

a3_local_6: 
+2035.1976711351276 a3_x5
+1759.7528456104174 a3_x2
+2787.770463819264 a3_x1
<= 328325.16628161748

a3_local_7: 
+4.0172457940302853e-05 a3_x2
+3.7886170173671937e-05 a3_x4
+1.972973782923155e-05 a3_x5
<= 0.0062771815950880471

a3_local_8: 
+0.20206555362615908 a3_x3
+0.21945604857243858 a3_x5
+0.34365648751358308 a3_x6
<= 37.854693561426281

a3_act_1: 
+0.00031946936814620971 a3_x1
-0.03194693681462097 a3_z1
<= 0

a3_act_2: 
+635.92751236185927 a3_x2
-63592.751236185926 a3_z2
<= 0

a4_local_1: 
+44728.199810182945 a4_x6
+70284.565393602985 a4_x2
+54589.410803552135 a4_x1
<= 5234829.803796784

a4_local_2: 
+2779444.6004135599 a4_x1
+3327266.4499503253 a4_x6
+2439800.902118938 a4_x5
<= 282429949.08629245

a4_local_3: 
+212.3402823679809 a4_x6
+171.40354078848372 a4_x3
+213.95662471894184 a4_x2
<= 25668.324570278986

a4_local_4: 
+0.00040187689135503889 a4_x4
+0.00058243117269063502 a4_x6
+0.00053881208608313504 a4_x2
<= 0.0591142761614031

a4_local_5: 
+0.0025027222058878413 a4_x5
+0.0010863787969414807 a4_x6
+0.0015700649131650663 a4_x1
<= 0.18861815498393225

a4_local_6: 
+0.057336027796138389 a4_x5
+0.049287574501562098 a4_x1
+0.038775117758830559 a4_x2
<= 9.4717872279468818

a4_local_7: 
+1276.8157817717492 a4_x4
+1063.4788835091767 a4_x2
+686.19449894926754 a4_x5
<= 144977.02368394937

a4_local_8: 
+0.00086332538110625351 a4_x3
+0.00043924109266804987 a4_x1
+0.00072709268057046222 a4_x2
<= 0.12975628259265348

a4_act_1: 
+1.6372715586305402 a4_x1
-163.72715586305401 a4_z1
<= 0

a4_act_2: 
+0.26079473459132091 a4_x2
-26.079473459132092 a4_z2
<= 0

coupling_1: 
+1166.4154065596424 a1_x1
+34670.181726888164 a2_x1
+456675.73789698532 a3_x1
+8812090.8841375019 a4_x1
+118937.32247378188 short_1
-118937.32247378188 surp_1
= 531864351.23705745

coupling_2: 
+0.19598479675471001 a1_x2
+5.1713104463776167 a2_x2
+52.982519219147221 a3_x2
+2453.3930015771066 a4_x2
+18.311890926015398 short_2
-18.311890926015398 surp_2
= 179518.81650030235

coupling_3: 
+0.24377975601975954 a1_x3
+2.9599883486741572 a2_x3
+120.36981516385686 a3_x3
+2350.1163149376325 a4_x3
+20.066922232758039 short_3
-20.066922232758039 surp_3
= 60799.764347570897

bounds
  0 <= a1_x1 <= 100
  0 <= a1_x2 <= 100
  0 <= a1_x3 <= 100
  0 <= a1_x4 <= 100
  0 <= a1_x5 <= 100
  0 <= a1_x6 <= 100
  0 <= a2_x1 <= 100
  0 <= a2_x2 <= 100
  0 <= a2_x3 <= 100
  0 <= a2_x4 <= 100
  0 <= a2_x5 <= 100
  0 <= a2_x6 <= 100
  0 <= a3_x1 <= 100
  0 <= a3_x2 <= 100
  0 <= a3_x3 <= 100
  0 <= a3_x4 <= 100
  0 <= a3_x5 <= 100
  0 <= a3_x6 <= 100
  0 <= a4_x1 <= 100
  0 <= a4_x2 <= 100
  0 <= a4_x3 <= 100
  0 <= a4_x4 <= 100
  0 <= a4_x5 <= 100
  0 <= a4_x6 <= 100
  0 <= short_1 <= +inf
  0 <= surp_1 <= +inf
  0 <= short_2 <= +inf
  0 <= surp_2 <= +inf
  0 <= short_3 <= +inf
  0 <= surp_3 <= +inf
 0 <= a1_z1 <= 1
 0 <= a1_z2 <= 1
 0 <= a2_z1 <= 1
 0 <= a2_z2 <= 1
 0 <= a3_z1 <= 1
 0 <= a3_z2 <= 1
 0 <= a4_z1 <= 1
 0 <= a4_z2 <= 1

binary
  a1_z1
  a1_z2
  a2_z1
  a2_z2
  a3_z1
  a3_z2
  a4_z1
  a4_z2
end
