min
obj: 
  +3.0571104005516858 a1_x1
  +8.0556013187453051 a1_x2
  +1.9742345173811016 a1_x3
  +4.4385591714508195 a1_x4
  +2.091774352732247 a1_x5
  +8.3606733491801819 a1_x6
  +15.666425601953888 a1_z1
  +12.324732571684713 a1_z2
  +3.9044727049854391 a2_x1
  +3.1906424171049248 a2_x2
  +7.2566205037606055 a2_x3
  +4.240342031508578 a2_x4
  +1.7216538193625648 a2_x5
  +9.8652119955060549 a2_x6
  +47.432933857706239 a2_z1
  +10.018499727455843 a2_z2
  +7.6634289009813905 a3_x1
  +6.6031951543936822 a3_x2
  +5.6627725428325562 a3_x3
  +4.150259343395577 a3_x4
  +2.0433644620272413 a3_x5
  +3.9564814242041457 a3_x6
  +26.646913444644401 a3_z1
  +25.192698563482555 a3_z2
  +2.4319173360803403 a4_x1
  +1.259802781834898 a4_x2
  +6.7186619976265831 a4_x3
  +9.2328283032404528 a4_x4
  +5.8537835915052003 a4_x5
  +9.834988999700645 a4_x6
  +10.083472599865093 a4_z1
  +40.29173016694412 a4_z2
  +1000000 short_1
  +1000000 surp_1
  +1000000 short_2
  +1000000 surp_2
  +1000000 short_3
  +1000000 surp_3

s.t.

a1_local_1: 
+0.0021590096243094899 a1_x5
+0.0035536448675726759 a1_x1
+0.0014958980270025656 a1_x6
<= 0.28200956982419023

a1_local_2: 
+0.0072491406704733412 a1_x6
+0.014460817118931305 a1_x4
+0.012610658657133117 a1_x2
<= 1.4688640237989603

a1_local_3: 
+214.09625863190362 a1_x4
+95.210369546040525 a1_x5
+165.89125847885171 a1_x1
<= 31411.906334852985

a1_local_4: 
+964.3930991523689 a1_x3
+342.8894191252831 a1_x1
+424.84723402505892 a1_x4
<= 76370.39549106521

a1_local_5: 
+8.1615077982693975 a1_x4
+9.6543436792201831 a1_x5
+10.90671895675878 a1_x1
<= 887.17876321272399

a1_local_6: 
+0.043289932106181032 a1_x2
+0.056315894483068618 a1_x5
+0.072381356598419669 a1_x6
<= 6.5232797344200515

a1_local_7: 
+9.7551439530577959e-08 a1_x1
+1.0906326931816893e-07 a1_x3
+8.7953760341229007e-08 a1_x5
<= 1.7271071224799565e-05

a1_local_8: 
+3.7823380742836195 a1_x3
+3.3205582785404397 a1_x4
+2.43680470560852 a1_x1
<= 338.65095711251752

a1_act_1: 
+5.287458637580192e-05 a1_x1
-0.0052874586375801919 a1_z1
<= 0

a1_act_2: 
+11.284120929457155 a1_x2
-1128.4120929457154 a1_z2
<= 0

a2_local_1: 
+358.29139414289074 a2_x2
+205.45245425562973 a2_x6
+527.12536967875599 a2_x4
<= 74230.19021276143

a2_local_2: 
+0.00024114733094288989 a2_x2
+0.00026149944985640413 a2_x5
+0.00027180687868203938 a2_x3
<= 0.04699003828686503

a2_local_3: 
+0.13314042993630934 a2_x3
+0.10551871568785323 a2_x5
+0.11076464215924846 a2_x2
<= 16.003473987394518

a2_local_4: 
+0.00010769234392524782 a2_x1
+0.00023010113368046459 a2_x5
+0.00015594493371996822 a2_x6
<= 0.031689963719607916

a2_local_5: 
+71.164479776713648 a2_x2
+86.116116820959149 a2_x6
+48.515517543749858 a2_x1
<= 12321.839396715386

a2_local_6: 
+2.9430694633994376e-06 a2_x1
+3.7714769801157167e-06 a2_x5
+2.2016248303684164e-06 a2_x4
<= 0.00058408477802367469

a2_local_7: 
+1.6306654923949877 a2_x6
+1.1049029382487583 a2_x3
+1.8248856267607405 a2_x4
<= 144.8396887037768

a2_local_8: 
+0.012730432187320746 a2_x3
+0.014307616086455444 a2_x1
+0.0085473458148107168 a2_x4
<= 1.897919248342065

a2_act_1: 
+276.40564687645121 a2_x1
-27640.564687645121 a2_z1
<= 0

a2_act_2: 
+0.055129284080574416 a2_x2
-5.5129284080574417 a2_z2
<= 0

a3_local_1: 
+17.870535504207766 a3_x5
+16.472569749965327 a3_x6
+9.4532599097327257 a3_x2
<= 2026.8733520386854

a3_local_2: 
+16895.993560408941 a3_x3
+12762.182165908609 a3_x1
+21973.892615689736 a3_x5
<= 3331730.1416185885

a3_local_3: 
+4.707408628144707 a3_x6
+8.8066125881964812 a3_x2
+9.950637863185845 a3_x3
<= 1145.7780594762899

a3_local_4: 
+4564.9349818887031 a3_x5
+6239.7371534079848 a3_x6
+5642.8077265908742 a3_x3
<= 681576.58147403598

a3_local_5: 
+9.4500127360610617e-05 a3_x5
+6.7030363813632012e-05 a3_x6
+5.4366830567318529e-05 a3_x4
<= 0.0081655389258597742

a3_local_6: 
+0.0065203756773284461 a3_x3
+0.0053049500484374009 a3_x6
+0.0069876590837659501 a3_x2
<= 0.60475320988714154

a3_local_7: 
+285152.59440955817 a3_x4
+284122.09869604593 a3_x6
+302178.43102049275 a3_x3
<= 30343623.041123725

a3_local_8: 
+11.309359343241729 a3_x6
+6.8394276989413534 a3_x3
+5.3235136751392655 a3_x5
<= 1227.4314532399715

a3_act_1: 
+1.3128247103083601e-05 a3_x1
-0.0013128247103083601 a3_z1
<= 0

a3_act_2: 
+9.0256259827548515 a3_x2
-902.56259827548513 a3_z2
<= 0

a4_local_1: 
+102957.39652007793 a4_x4
+204984.81031571043 a4_x1
+80553.868993184427 a4_x6
<= 24976461.104142103

a4_local_2: 
+8969.6358626020319 a4_x2
+9879.6848889034754 a4_x6
+4227.351041340351 a4_x1
<= 1226549.6860369963

a4_local_3: 
+6601636.4804570768 a4_x4
+9592911.2639827449 a4_x3
+7198757.6349732187 a4_x5
<= 962647567.46520138

a4_local_4: 
+92.097621484704746 a4_x1
+175.36644362278537 a4_x6
+106.37321720431565 a4_x4
<= 25780.572076759341

a4_local_5: 
+10952971.026048372 a4_x3
+10731169.848254122 a4_x6
+11582159.007823545 a4_x4
<= 2059483057.030864

a4_local_6: 
+0.52513931018092386 a4_x3
+0.31294119502309015 a4_x1
+0.3968582335660622 a4_x5
<= 53.057967898763842

a4_local_7: 
+10971.632530379031 a4_x5
+18538.262019907041 a4_x4
+10579.076370127004 a4_x3
<= 2307394.4897180703

a4_local_8: 
+0.0011545720539075815 a4_x1
+0.0015062853295642975 a4_x4
+0.0011847409361124303 a4_x6
<= 0.1522696062223593

a4_act_1: 
+1.330960424455411 a4_x1
-133.09604244554109 a4_z1
<= 0

a4_act_2: 
+0.00074643660746782654 a4_x2
-0.07464366074678265 a4_z2
<= 0

coupling_1: 
+4.1846897664991068e-06 a1_x1
+4.9995240676661446e-05 a2_x1
+0.0013538105093616774 a3_x1
+0.029981319393087767 a4_x1
+0.00031730102119018771 short_1
-0.00031730102119018771 surp_1
= 0.99207068591164127

coupling_2: 
+0.00011187824103863888 a1_x2
+0.0020270901368094323 a2_x2
+0.037460912842828827 a3_x2
+0.92193297154936138 a4_x2
+0.008387359629645149 short_2
-0.008387359629645149 surp_2
= 42.187988581970608

coupling_3: 
+6.9813438947829374e-09 a1_x3
+2.2977004472090058e-07 a2_x3
+5.1801389239856393e-06 a3_x3
+0.00018774586171248225 a4_x3
+1.2679758985354879e-06 short_3
-1.2679758985354879e-06 surp_3
= 0.013279026108586963

bounds
  0 <= a1_x1 <= 100
  0 <= a1_x2 <= 100
  0 <= a1_x3 <= 100
  0 <= a1_x4 <= 100
  0 <= a1_x5 <= 100
  0 <= a1_x6 <= 100
  0 <= a2_x1 <= 100
  0 <= a2_x2 <= 100
  0 <= a2_x3 <= 100
  0 <= a2_x4 <= 100
  0 <= a2_x5 <= 100
  0 <= a2_x6 <= 100
  0 <= a3_x1 <= 100
  0 <= a3_x2 <= 100
  0 <= a3_x3 <= 100
  0 <= a3_x4 <= 100
  0 <= a3_x5 <= 100
  0 <= a3_x6 <= 100
  0 <= a4_x1 <= 100
  0 <= a4_x2 <= 100
  0 <= a4_x3 <= 100
  0 <= a4_x4 <= 100
  0 <= a4_x5 <= 100
  0 <= a4_x6 <= 100
  0 <= short_1 <= +inf
  0 <= surp_1 <= +inf
  0 <= short_2 <= +inf
  0 <= surp_2 <= +inf
  0 <= short_3 <= +inf
  0 <= surp_3 <= +inf
 0 <= a1_z1 <= 1
 0 <= a1_z2 <= 1
 0 <= a2_z1 <= 1
 0 <= a2_z2 <= 1
 0 <= a3_z1 <= 1
 0 <= a3_z2 <= 1
 0 <= a4_z1 <= 1
 0 <= a4_z2 <= 1

binary
  a1_z1
  a1_z2
  a2_z1
  a2_z2
  a3_z1
  a3_z2
  a4_z1
  a4_z2
end
