min
obj: 
  +1.5869078218103445 a1_x1
  +1.8591431952918778 a1_x2
  +3.3231109040519993 a1_x3
  +9.2087059181463786 a1_x4
  +9.6203246603591985 a1_x5
  +2.6522167369866532 a1_x6
  +45.971215901918207 a1_z1
  +15.231591264695247 a1_z2
  +7.3851642913844699 a2_x1
  +8.184615433312981 a2_x2
  +6.3286902635835114 a2_x3
  +1.720840343178456 a2_x4
  +2.5195780412124975 a2_x5
  +8.1969421632275719 a2_x6
  +32.909722818284479 a2_z1
  +29.006081337850453 a2_z2
  +9.6251817518945995 a3_x1
  +3.9009418953480735 a3_x2
  +1.3219510135661245 a3_x3
  +4.7485775019531236 a3_x4
  +3.5558983548633152 a3_x5
  +8.1243659823807501 a3_x6
  +20.822115549059351 a3_z1
  +25.222874624514855 a3_z2
  +3.9740281273618923 a4_x1
  +5.8725760658506196 a4_x2
  +8.5449306619724936 a4_x3
  +7.8945369096479574 a4_x4
  +2.7042977066829055 a4_x5
  +9.2622687133164359 a4_x6
  +13.310232891557296 a4_z1
  +27.542990425232677 a4_z2
  +1000000 short_1
  +1000000 surp_1
  +1000000 short_2
  +1000000 surp_2
  +1000000 short_3
  +1000000 surp_3

s.t.

a1_local_1: 
+0.53246830785528032 a1_x4
+0.69012198110526701 a1_x1
+0.49011136726776261 a1_x3
<= 75.931814365354413

a1_local_2: 
+0.69617846452001109 a1_x2
+0.47322524293868901 a1_x4
+0.53980868368726553 a1_x3
<= 115.09745279685555

a1_local_3: 
+0.39363520896456561 a1_x6
+0.78920363589640463 a1_x4
+0.47139043621112858 a1_x1
<= 71.439889216297047

a1_local_4: 
+0.63759636823170907 a1_x6
+0.5666554469122379 a1_x2
+0.52189316502750527 a1_x1
<= 67.621854702021139

a1_local_5: 
+0.40846880477800945 a1_x1
+0.59511297047828338 a1_x2
+0.69209377102509606 a1_x5
<= 88.502184901274092

a1_local_6: 
+0.42686743713977265 a1_x1
+0.6754137272748264 a1_x2
+0.60133226099923187 a1_x6
<= 61.782549730103085

a1_local_7: 
+0.33550665993360729 a1_x5
+0.71373623814206666 a1_x2
+0.61482994681700887 a1_x4
<= 110.23329386021825

a1_local_8: 
+0.63697201480423726 a1_x1
+0.44880667154185605 a1_x2
+0.62676887601072795 a1_x3
<= 107.30496701647063

a1_act_1: 
+0.0099995000374968751 a1_x1
-0.99995000374968745 a1_z1
<= 0

a1_act_2: 
+0.0099995000374968734 a1_x2
-0.99995000374968745 a1_z2
<= 0

a2_local_1: 
+0.31939001902648451 a2_x1
+0.8129004431689747 a2_x5
+0.48701425568657258 a2_x3
<= 86.68134823790956

a2_local_2: 
+0.31152223204326318 a2_x4
+0.73618456743677296 a2_x2
+0.60082125595780556 a2_x5
<= 75.440842778789488

a2_local_3: 
+0.6386154218141098 a2_x2
+0.56816630194893947 a2_x1
+0.51899652826474008 a2_x5
<= 57.358889792003389

a2_local_4: 
+0.63488124547400782 a2_x6
+0.43309552396088674 a2_x2
+0.63980783933179308 a2_x4
<= 79.787787456841116

a2_local_5: 
+0.38430315262398562 a2_x1
+0.69611865206745294 a2_x6
+0.60640737885274598 a2_x2
<= 79.963330176758035

a2_local_6: 
+0.57487758146634427 a2_x4
+0.60226727613655739 a2_x6
+0.55388617460851841 a2_x5
<= 90.770539510562031

a2_local_7: 
+0.55289946965362835 a2_x4
+0.3815673867609215 a2_x6
+0.74074861175514728 a2_x3
<= 103.06019168697216

a2_local_8: 
+0.67337856361790538 a2_x5
+0.58705384102281088 a2_x1
+0.44936521650017713 a2_x4
<= 111.38710584505169

a2_act_1: 
+0.0099995000374968751 a2_x1
-0.99995000374968745 a2_z1
<= 0

a2_act_2: 
+0.0099995000374968751 a2_x2
-0.99995000374968757 a2_z2
<= 0

a3_local_1: 
+0.61901247814665172 a3_x3
+0.71777423678678243 a3_x5
+0.31878471874274789 a3_x4
<= 57.360397372925952

a3_local_2: 
+0.5976449516254726 a3_x3
+0.6644609502547828 a3_x5
+0.44867823368545251 a3_x2
<= 87.120231492733453

a3_local_3: 
+0.46365429726410096 a3_x5
+0.59152824592302933 a3_x6
+0.65963552580478635 a3_x2
<= 86.025905751169972

a3_local_4: 
+0.7174798108035142 a3_x4
+0.62765459816003211 a3_x3
+0.30211326766284546 a3_x1
<= 71.929204771733993

a3_local_5: 
+0.71826790167457411 a3_x1
+0.61124667272427935 a3_x4
+0.33236835966665346 a3_x5
<= 95.346587516316589

a3_local_6: 
+0.39874655304907536 a3_x5
+0.7239707383724554 a3_x4
+0.56290990079401038 a3_x6
<= 68.17385695202087

a3_local_7: 
+0.64657871153568125 a3_x5
+0.49624509506998427 a3_x4
+0.57937619506486504 a3_x2
<= 104.55524219681381

a3_local_8: 
+0.74893859942649521 a3_x6
+0.3422312223846265 a3_x2
+0.56742291521774502 a3_x3
<= 90.497382928690811

a3_act_1: 
+0.0099995000374968751 a3_x1
-0.99995000374968745 a3_z1
<= 0

a3_act_2: 
+0.0099995000374968734 a3_x2
-0.99995000374968734 a3_z2
<= 0

a4_local_1: 
+0.53231102975291911 a4_x3
+0.44628892202161408 a4_x2
+0.71935468698283522 a4_x4
<= 100.50105393825342

a4_local_2: 
+0.64808858862810548 a4_x5
+0.32804273085199481 a4_x4
+0.68729116684648017 a4_x1
<= 66.743244988416066

a4_local_3: 
+0.48683511536909591 a4_x3
+0.58943244357704694 a4_x2
+0.64464018250676158 a4_x6
<= 98.660894889932038

a4_local_4: 
+0.5199735461303735 a4_x1
+0.61544933228311527 a4_x6
+0.59232561207234002 a4_x5
<= 79.817992873673788

a4_local_5: 
+0.56662000448558136 a4_x1
+0.62763989475477278 a4_x2
+0.53386321565451345 a4_x6
<= 67.980090691553883

a4_local_6: 
+0.28357326232914631 a4_x6
+0.83305908349641022 a4_x3
+0.47497238687751714 a4_x5
<= 65.273324420121483

a4_local_7: 
+0.48611282887096741 a4_x1
+0.51038557666546025 a4_x4
+0.70936653483155754 a4_x5
<= 54.928813102811432

a4_local_8: 
+0.52642041201404355 a4_x5
+0.46379354365254516 a4_x1
+0.71258480104558752 a4_x6
<= 97.158698272168877

a4_act_1: 
+0.0099995000374968751 a4_x1
-0.99995000374968757 a4_z1
<= 0

a4_act_2: 
+0.0099995000374968751 a4_x2
-0.99995000374968745 a4_z2
<= 0

coupling_1: 
+0.0001041447756968265 a1_x1
+0.0015192810199091053 a2_x1
+0.023584686167826469 a3_x1
+0.99967042667064288 a4_x1
+0.0070880729944043184 short_1
-0.0070880729944043184 surp_1
= 60.916781878281633

coupling_2: 
+0.00013074080123747528 a1_x2
+0.0013718475771546882 a2_x2
+0.073570094723052259 a3_x2
+0.99715500756960118 a4_x2
+0.011563584703230606 short_2
-0.011563584703230606 surp_2
= 83.34446300256154

coupling_3: 
+7.7364394392190103e-05 a1_x3
+0.0014782920818042276 a2_x3
+0.065175522248733062 a3_x3
+0.99773459662846742 a4_x3
+0.011739562545209041 short_3
-0.011739562545209041 surp_3
= 54.266372383254051

bounds
  0 <= a1_x1 <= 100
  0 <= a1_x2 <= 100
  0 <= a1_x3 <= 100
  0 <= a1_x4 <= 100
  0 <= a1_x5 <= 100
  0 <= a1_x6 <= 100
  0 <= a2_x1 <= 100
  0 <= a2_x2 <= 100
  0 <= a2_x3 <= 100
  0 <= a2_x4 <= 100
  0 <= a2_x5 <= 100
  0 <= a2_x6 <= 100
  0 <= a3_x1 <= 100
  0 <= a3_x2 <= 100
  0 <= a3_x3 <= 100
  0 <= a3_x4 <= 100
  0 <= a3_x5 <= 100
  0 <= a3_x6 <= 100
  0 <= a4_x1 <= 100
  0 <= a4_x2 <= 100
  0 <= a4_x3 <= 100
  0 <= a4_x4 <= 100
  0 <= a4_x5 <= 100
  0 <= a4_x6 <= 100
  0 <= short_1 <= +inf
  0 <= surp_1 <= +inf
  0 <= short_2 <= +inf
  0 <= surp_2 <= +inf
  0 <= short_3 <= +inf
  0 <= surp_3 <= +inf
 0 <= a1_z1 <= 1
 0 <= a1_z2 <= 1
 0 <= a2_z1 <= 1
 0 <= a2_z2 <= 1
 0 <= a3_z1 <= 1
 0 <= a3_z2 <= 1
 0 <= a4_z1 <= 1
 0 <= a4_z2 <= 1

binary
  a1_z1
  a1_z2
  a2_z1
  a2_z2
  a3_z1
  a3_z2
  a4_z1
  a4_z2
end
