min
obj: 
  +7.7820756929973847 a1_x1
  +2.6204029212029933 a1_x2
  +1.0229393332967094 a1_x3
  +7.1910932224071349 a1_x4
  +4.2632745770435907 a1_x5
  +6.0246265469097295 a1_x6
  +42.771027111197313 a1_z1
  +28.114118371176183 a1_z2
  +5.7911212590182997 a2_x1
  +5.4348931719458209 a2_x2
  +9.4259627235885386 a2_x3
  +8.9213052519907556 a2_x4
  +6.1484548986939966 a2_x5
  +2.146409388681831 a2_x6
  +31.660946131309107 a2_z1
  +6.9899613369063101 a2_z2
  +2.8186252614454075 a3_x1
  +1.3641205917884647 a3_x2
  +2.33366974601915 a3_x3
  +2.4556775991065138 a3_x4
  +5.2278265061317715 a3_x5
  +6.6696189442115292 a3_x6
  +49.857919593613119 a3_z1
  +30.640944798186169 a3_z2
  +7.0994894146457632 a4_x1
  +9.5674915626052641 a4_x2
  +9.235478138695818 a4_x3
  +8.9478139676632793 a4_x4
  +7.4338997063934436 a4_x5
  +1.7960169742966061 a4_x6
  +7.4304140982629434 a4_z1
  +14.530204301669533 a4_z2
  +1000000 short_1
  +1000000 surp_1
  +1000000 short_2
  +1000000 surp_2
  +1000000 short_3
  +1000000 surp_3

s.t.

a1_local_1: 
+0.95481444815371741 a1_x4
+1.4670520101606461 a1_x6
+0.68163909191637828 a1_x3
<= 155.13401229239375

a1_local_2: 
+1.1824451720521518 a1_x6
+0.82897500109521427 a1_x5
+1.2063089944556025 a1_x4
<= 170.49549231429981

a1_local_3: 
+0.84399922378939274 a1_x4
+1.1135715961720816 a1_x2
+1.1848352128929622 a1_x3
<= 182.28287274367645

a1_local_4: 
+1.1975852348650662 a1_x4
+0.79737307360439302 a1_x5
+1.2541180949084039 a1_x2
<= 165.56496412971393

a1_local_5: 
+1.2355887652284445 a1_x2
+3.006644431724701 a1_x5
+1.4664476456939555 a1_x4
<= 315.8057513845431

a1_local_6: 
+1.2140382859411913 a1_x2
+1.4000314034686907 a1_x3
+0.71426969246719696 a1_x1
<= 180.40879876585026

a1_local_7: 
+0.69192169838644424 a1_x5
+1.4452502390544939 a1_x2
+0.69543377360441838 a1_x6
<= 155.42965006168424

a1_local_8: 
+0.74867955695315003 a1_x5
+1.3356849278343217 a1_x1
+0.97185828750832415 a1_x6
<= 187.78907445140598

a1_act_1: 
+0.10000000000000001 a1_x1
-10 a1_z1
<= 0

a1_act_2: 
+0.10000000000000001 a1_x2
-10 a1_z2
<= 0

a2_local_1: 
+0.81848637660494361 a2_x6
+1.2217674338673412 a2_x4
+1.2154331263151807 a2_x3
<= 204.87207512168263

a2_local_2: 
+0.6928557442246619 a2_x5
+0.96068947586547837 a2_x4
+1.4433018825860306 a2_x6
<= 140.50547961287532

a2_local_3: 
+1.053295926141433 a2_x4
+0.71248261481990194 a2_x5
+1.4035430187342539 a2_x3
<= 98.180901444866549

a2_local_4: 
+0.59713733734977459 a2_x5
+0.58967684947922938 a2_x6
+1.6958440896622378 a2_x4
<= 107.69926469648068

a2_local_5: 
+1.1345909253241842 a2_x4
+0.70649130278326988 a2_x2
+1.4154455915599142 a2_x3
<= 155.0972914301426

a2_local_6: 
+1.0636136801527973 a2_x5
+0.94019099101502868 a2_x4
+0.96862832615074579 a2_x3
<= 112.47033348010346

a2_local_7: 
+0.78957405229364686 a2_x1
+1.2665056521235512 a2_x6
+0.84616689981046311 a2_x4
<= 202.65654554515498

a2_local_8: 
+1.2653284711531629 a2_x4
+1.1752342671408835 a2_x3
+0.79030862167247795 a2_x5
<= 123.81545050246362

a2_act_1: 
+0.10000000000000001 a2_x1
-10 a2_z1
<= 0

a2_act_2: 
+0.099999999999999992 a2_x2
-10 a2_z2
<= 0

a3_local_1: 
+0.80844359286331835 a3_x6
+1.2369446784261517 a3_x2
+1.0188631600672826 a3_x1
<= 204.64372175502467

a3_local_2: 
+1.3391728214548215 a3_x1
+0.90098794126553783 a3_x6
+0.74672961098003898 a3_x2
<= 204.88397048040227

a3_local_3: 
+0.64630509300298711 a3_x6
+1.547256877326477 a3_x5
+0.72827656365187832 a3_x3
<= 154.92913101766192

a3_local_4: 
+1.4071386132875514 a3_x2
+0.64748981093283309 a3_x6
+1.5444258475037751 a3_x4
<= 152.65356573725967

a3_local_5: 
+0.91630918724395727 a3_x1
+1.2218658687268422 a3_x5
+0.81842043844139645 a3_x3
<= 146.56411160261013

a3_local_6: 
+0.92875587504695523 a3_x5
+1.099396123360727 a3_x2
+0.90959025482381684 a3_x3
<= 151.38065309516904

a3_local_7: 
+1.5251359681286842 a3_x2
+1.2471568380320919 a3_x3
+1.8144228311143731 a3_x1
<= 244.9556769094952

a3_local_8: 
+1.4666685794256691 a3_x6
+0.6818172926235242 a3_x1
+1.1942425993688561 a3_x2
<= 152.06286997383432

a3_act_1: 
+0.10000000000000001 a3_x1
-10 a3_z1
<= 0

a3_act_2: 
+0.099999999999999992 a3_x2
-9.9999999999999982 a3_z2
<= 0

a4_local_1: 
+0.65971910537090339 a4_x1
+1.5157966350508916 a4_x6
+0.79997380034740884 a4_x5
<= 187.95088660008858

a4_local_2: 
+1.4504425956802329 a4_x2
+0.68944472740819995 a4_x5
+1.3521735840301223 a4_x4
<= 234.77362469678138

a4_local_3: 
+1.4773854475192854 a4_x6
+1.1491747582597778 a4_x2
+0.67687142964561142 a4_x5
<= 192.37832773104682

a4_local_4: 
+1.25275092169876 a4_x6
+0.76093814043862718 a4_x3
+1.3141672717621571 a4_x4
<= 210.72092658623001

a4_local_5: 
+0.75743099510792988 a4_x5
+0.77052448154442177 a4_x2
+1.3202522823316802 a4_x3
<= 114.11962287470969

a4_local_6: 
+1.0702570922715982 a4_x1
+0.91269666176352959 a4_x5
+1.0956542758333101 a4_x4
<= 169.76876378249827

a4_local_7: 
+0.72070036033487961 a4_x6
+1.3875391980314002 a4_x3
+1.1487276495385796 a4_x2
<= 195.82711204348274

a4_local_8: 
+0.89093688456836262 a4_x3
+1.4117995056388482 a4_x6
+0.70831587346922464 a4_x4
<= 108.52129951996042

a4_act_1: 
+0.10000000000000001 a4_x1
-10 a4_z1
<= 0

a4_act_2: 
+0.099999999999999992 a4_x2
-10 a4_z2
<= 0

coupling_1: 
+0.00015114502279431791 a1_x1
+0.0040725248834117909 a2_x1
+0.070615910586559957 a3_x1
+0.99725912967501851 a4_x1
+0.015346223446041998 short_1
-0.015346223446041998 surp_1
= 75.919312275456207

coupling_2: 
+0.00014126539225177022 a1_x2
+0.0027055629199182279 a2_x2
+0.061314565508919276 a3_x2
+0.99801236607601851 a4_x2
+0.010111903608493126 short_2
-0.010111903608493126 surp_2
= 29.743466152649336

coupling_3: 
+0.00022392443114934674 a1_x3
+0.0033959149449646871 a2_x3
+0.046909687935787654 a3_x3
+0.99852611602184238 a4_x3
+0.019150645154099311 short_3
-0.019150645154099311 surp_3
= 23.527565036807893

bounds
  0 <= a1_x1 <= 100
  0 <= a1_x2 <= 100
  0 <= a1_x3 <= 100
  0 <= a1_x4 <= 100
  0 <= a1_x5 <= 100
  0 <= a1_x6 <= 100
  0 <= a2_x1 <= 100
  0 <= a2_x2 <= 100
  0 <= a2_x3 <= 100
  0 <= a2_x4 <= 100
  0 <= a2_x5 <= 100
  0 <= a2_x6 <= 100
  0 <= a3_x1 <= 100
  0 <= a3_x2 <= 100
  0 <= a3_x3 <= 100
  0 <= a3_x4 <= 100
  0 <= a3_x5 <= 100
  0 <= a3_x6 <= 100
  0 <= a4_x1 <= 100
  0 <= a4_x2 <= 100
  0 <= a4_x3 <= 100
  0 <= a4_x4 <= 100
  0 <= a4_x5 <= 100
  0 <= a4_x6 <= 100
  0 <= short_1 <= +inf
  0 <= surp_1 <= +inf
  0 <= short_2 <= +inf
  0 <= surp_2 <= +inf
  0 <= short_3 <= +inf
  0 <= surp_3 <= +inf
 0 <= a1_z1 <= 1
 0 <= a1_z2 <= 1
 0 <= a2_z1 <= 1
 0 <= a2_z2 <= 1
 0 <= a3_z1 <= 1
 0 <= a3_z2 <= 1
 0 <= a4_z1 <= 1
 0 <= a4_z2 <= 1

binary
  a1_z1
  a1_z2
  a2_z1
  a2_z2
  a3_z1
  a3_z2
  a4_z1
  a4_z2
end
