min
obj: 
  +1.5869078218103445 a1_x1
  +1.8591431952918778 a1_x2
  +3.3231109040519993 a1_x3
  +9.2087059181463786 a1_x4
  +9.6203246603591985 a1_x5
  +2.6522167369866532 a1_x6
  +45.971215901918207 a1_z1
  +15.231591264695247 a1_z2
  +7.3851642913844699 a2_x1
  +8.184615433312981 a2_x2
  +6.3286902635835114 a2_x3
  +1.720840343178456 a2_x4
  +2.5195780412124975 a2_x5
  +8.1969421632275719 a2_x6
  +32.909722818284479 a2_z1
  +29.006081337850453 a2_z2
  +9.6251817518945995 a3_x1
  +3.9009418953480735 a3_x2
  +1.3219510135661245 a3_x3
  +4.7485775019531236 a3_x4
  +3.5558983548633152 a3_x5
  +8.1243659823807501 a3_x6
  +20.822115549059351 a3_z1
  +25.222874624514855 a3_z2
  +3.9740281273618923 a4_x1
  +5.8725760658506196 a4_x2
  +8.5449306619724936 a4_x3
  +7.8945369096479574 a4_x4
  +2.7042977066829055 a4_x5
  +9.2622687133164359 a4_x6
  +13.310232891557296 a4_z1
  +27.542990425232677 a4_z2
  +1000000 short_1
  +1000000 surp_1
  +1000000 short_2
  +1000000 surp_2
  +1000000 short_3
  +1000000 surp_3

s.t.

a1_local_1: 
+3.5376350179723647e-07 a1_x4
+4.5850610280715595e-07 a1_x1
+3.2562222201288098e-07 a1_x3
<= 5.0447893614367535e-05

a1_local_2: 
+66.895165410702418 a1_x2
+45.471789945024213 a1_x4
+51.869733158565978 a1_x3
<= 11059.611199701008

a1_local_3: 
+4.6675278284622375e-08 a1_x6
+9.3579787808098287e-08 a1_x4
+5.5895101072741099e-08 a1_x1
<= 8.470981847798635e-06

a1_local_4: 
+3.7484949796724009e-06 a1_x6
+3.3314259675685965e-06 a1_x2
+3.0682638837114559e-06 a1_x1
<= 0.00039755587625076543

a1_local_5: 
+0.00023353845199401777 a1_x1
+0.00034025061464018614 a1_x2
+0.0003956985356758014 a1_x5
<= 0.050600346998749837

a1_local_6: 
+7.6000431532965287e-08 a1_x1
+1.2025216793326723e-07 a1_x2
+1.0706253828321631e-07 a1_x6
<= 1.0999903089720187e-05

a1_local_7: 
+4.1115188710231907e-08 a1_x5
+8.7465924301917561e-08 a1_x2
+7.5345298042922746e-08 a1_x4
<= 1.3508711511450181e-05

a1_local_8: 
+1.9478767768610298e-06 a1_x1
+1.3724623256256467e-06 a1_x2
+1.9166753164435344e-06 a1_x3
<= 0.00032814134441598624

a1_act_1: 
+80.129338077455188 a1_x1
-8012.9338077455186 a1_z1
<= 0

a1_act_2: 
+449.36641123088737 a1_x2
-44936.641123088739 a1_z2
<= 0

a2_local_1: 
+2.511613205937143 a2_x1
+6.392471168631138 a2_x5
+3.8297735157485131 a2_x3
<= 681.64315092362665

a2_local_2: 
+2.7041526095303916 a2_x4
+6.3904120295776599 a2_x2
+5.2153978112675841 a2_x5
<= 654.86033060107331

a2_local_3: 
+0.010811023175965476 a2_x2
+0.0096184007594488537 a2_x1
+0.0087860131522927119 a2_x5
<= 0.97101990604527133

a2_local_4: 
+0.0010570533506315618 a2_x6
+0.00072108772783890625 a2_x2
+0.001065255943764841 a2_x4
<= 0.1328436596166325

a2_local_5: 
+4.5152180472264334e-05 a2_x1
+8.1787710544785398e-05 a2_x6
+7.1247438962495372e-05 a2_x2
<= 0.0093949755307807369

a2_local_6: 
+5.7982912320080162 a2_x4
+6.0745473108215036 a2_x6
+5.5865691293287165 a2_x5
<= 915.52365292495165

a2_local_7: 
+4.1423286542475877 a2_x4
+2.8587068833621991 a2_x6
+5.5496964068164605 a2_x3
<= 772.12804238108072

a2_local_8: 
+7.0997248093129472e-07 a2_x5
+6.1895654906488956e-07 a2_x1
+4.7378540814953829e-07 a2_x4
<= 0.00011744029904320117

a2_act_1: 
+0.42594959901698443 a2_x1
-42.594959901698445 a2_z1
<= 0

a2_act_2: 
+436.738468188583 a2_x2
-43673.846818858299 a2_z2
<= 0

a3_local_1: 
+0.0052123176277737038 a3_x3
+0.0060439287401234101 a3_x5
+0.0026842870986100733 a3_x4
<= 0.48299609606928506

a3_local_2: 
+68766.811448209744 a3_x3
+76454.859622914315 a3_x5
+51626.256379889492 a3_x2
<= 10024313.793818451

a3_local_3: 
+2836.5708365982127 a3_x5
+3618.8854094748299 a3_x6
+4035.5560302640533 a3_x2
<= 526294.21723383793

a3_local_4: 
+0.05723510120724766 a3_x4
+0.050069526567795994 a3_x3
+0.024100306643291221 a3_x1
<= 5.7379667732482931

a3_local_5: 
+0.00091220070148591834 a3_x1
+0.00077628367123196878 a3_x4
+0.00042210803257780848 a3_x5
<= 0.12109022805264991

a3_local_6: 
+4.4201275114568922e-05 a3_x5
+8.0252555255970018e-05 a3_x4
+6.2398872665987671e-05 a3_x6
<= 0.0075571096068802225

a3_local_7: 
+2753.1508345773236 a3_x5
+2113.0259522493343 a3_x4
+2467.0005778392256 a3_x2
<= 445199.24206893233

a3_local_8: 
+7965.3481720950222 a3_x6
+3639.8055110828518 a3_x2
+6034.8352775454505 a3_x3
<= 962486.32964360656

a3_act_1: 
+3.0284500262069163e-05 a3_x1
-0.0030284500262069162 a3_z1
<= 0

a3_act_2: 
+128141.03396411342 a3_x2
-12814103.396411343 a3_z2
<= 0

a4_local_1: 
+0.0011206682447963468 a4_x3
+0.00093956689784572927 a4_x2
+0.0015144490897009419 a4_x4
<= 0.21158370468003213

a4_local_2: 
+254.16202319530888 a4_x5
+128.64908537326687 a4_x4
+269.53616612775301 a4_x1
<= 26174.813873493855

a4_local_3: 
+34.695726149344793 a4_x3
+42.007624348098851 a4_x2
+45.942165080185688 a4_x6
<= 7031.356783199848

a4_local_4: 
+3487464.546182856 a4_x1
+4127821.0060538696 a4_x6
+3972730.126890738 a4_x5
<= 535339580.95748806

a4_local_5: 
+14.383262621785677 a4_x1
+15.932210946847254 a4_x2
+13.551753863404709 a4_x6
<= 1725.6282689085836

a4_local_6: 
+261.46131555691295 a4_x6
+768.10035656602281 a4_x3
+437.93587627474437 a4_x5
<= 60183.562912391004

a4_local_7: 
+1.5920942668284437 a4_x1
+1.6715912484109694 a4_x4
+2.3232844848146597 a4_x5
<= 179.90030962110276

a4_local_8: 
+0.00081955207511152689 a4_x5
+0.00072205209457879406 a4_x1
+0.0011093801438198528 a4_x6
<= 0.15126049630075228

a4_act_1: 
+33285.110120648438 a4_x1
-3328511.0120648439 a4_z1
<= 0

a4_act_2: 
+8298.8540236336921 a4_x2
-829885.40236336924 a4_z2
<= 0

coupling_1: 
+0.013736557864692118 a1_x1
+0.20039115263412896 a2_x1
+3.1107888427169965 a3_x1
+131.85520415885046 a4_x1
+0.93490743232512796 short_1
-0.93490743232512796 surp_1
= 8034.8427811472302

coupling_2: 
+79.930259964311787 a1_x2
+838.6986498133457 a2_x2
+44978.130324682781 a3_x2
+609624.98489651026 a4_x2
+7069.563003287054 short_2
-7069.563003287054 surp_2
= 50953830.260535389

coupling_3: 
+2.1404400333296496e-08 a1_x3
+4.0899894295138724e-07 a2_x3
+1.8032106127161566e-05 a3_x3
+0.00027604314491695524 a4_x3
+3.2479837582855024e-06 short_3
-3.2479837582855024e-06 surp_3
= 0.015013872573455723

bounds
  0 <= a1_x1 <= 100
  0 <= a1_x2 <= 100
  0 <= a1_x3 <= 100
  0 <= a1_x4 <= 100
  0 <= a1_x5 <= 100
  0 <= a1_x6 <= 100
  0 <= a2_x1 <= 100
  0 <= a2_x2 <= 100
  0 <= a2_x3 <= 100
  0 <= a2_x4 <= 100
  0 <= a2_x5 <= 100
  0 <= a2_x6 <= 100
  0 <= a3_x1 <= 100
  0 <= a3_x2 <= 100
  0 <= a3_x3 <= 100
  0 <= a3_x4 <= 100
  0 <= a3_x5 <= 100
  0 <= a3_x6 <= 100
  0 <= a4_x1 <= 100
  0 <= a4_x2 <= 100
  0 <= a4_x3 <= 100
  0 <= a4_x4 <= 100
  0 <= a4_x5 <= 100
  0 <= a4_x6 <= 100
  0 <= short_1 <= +inf
  0 <= surp_1 <= +inf
  0 <= short_2 <= +inf
  0 <= surp_2 <= +inf
  0 <= short_3 <= +inf
  0 <= surp_3 <= +inf
 0 <= a1_z1 <= 1
 0 <= a1_z2 <= 1
 0 <= a2_z1 <= 1
 0 <= a2_z2 <= 1
 0 <= a3_z1 <= 1
 0 <= a3_z2 <= 1
 0 <= a4_z1 <= 1
 0 <= a4_z2 <= 1

binary
  a1_z1
  a1_z2
  a2_z1
  a2_z2
  a3_z1
  a3_z2
  a4_z1
  a4_z2
end
