min
obj: 
  +1.5869078218103445 a1_x1
  +1.8591431952918778 a1_x2
  +3.3231109040519993 a1_x3
  +9.2087059181463786 a1_x4
  +9.6203246603591985 a1_x5
  +2.6522167369866532 a1_x6
  +45.971215901918207 a1_z1
  +15.231591264695247 a1_z2
  +7.3851642913844699 a2_x1
  +8.184615433312981 a2_x2
  +6.3286902635835114 a2_x3
  +1.720840343178456 a2_x4
  +2.5195780412124975 a2_x5
  +8.1969421632275719 a2_x6
  +32.909722818284479 a2_z1
  +29.006081337850453 a2_z2
  +9.6251817518945995 a3_x1
  +3.9009418953480735 a3_x2
  +1.3219510135661245 a3_x3
  +4.7485775019531236 a3_x4
  +3.5558983548633152 a3_x5
  +8.1243659823807501 a3_x6
  +20.822115549059351 a3_z1
  +25.222874624514855 a3_z2
  +3.9740281273618923 a4_x1
  +5.8725760658506196 a4_x2
  +8.5449306619724936 a4_x3
  +7.8945369096479574 a4_x4
  +2.7042977066829055 a4_x5
  +9.2622687133164359 a4_x6
  +13.310232891557296 a4_z1
  +27.542990425232677 a4_z2
  +1000000 short_1
  +1000000 surp_1
  +1000000 short_2
  +1000000 surp_2
  +1000000 short_3
  +1000000 surp_3

s.t.

a1_local_1: 
+0.9155529074655554 a1_x4
+1.1866305975125662 a1_x1
+0.84272224405490281 a1_x3
<= 130.56099750115044

a1_local_2: 
+1.2129037560419322 a1_x2
+0.82446772468023277 a1_x4
+0.94047146436761941 a1_x3
<= 200.52635914903732

a1_local_3: 
+0.70624019261684523 a1_x6
+1.4159488661990209 a1_x4
+0.84574465110272845 a1_x1
<= 128.17380145785046

a1_local_4: 
+1.1053049443244558 a1_x6
+0.98232533685459622 a1_x2
+0.90472769993007096 a1_x1
<= 117.22584078360313

a1_local_5: 
+0.76824010820558208 a1_x1
+1.1192767905085206 a1_x2
+1.3016763760691321 a1_x5
<= 166.45317172246794

a1_local_6: 
+0.79498982788772221 a1_x1
+1.257877729903774 a1_x2
+1.1199098105920444 a1_x6
<= 115.06265014146928

a1_local_7: 
+0.68561719186186931 a1_x5
+1.4585398555779925 a1_x2
+1.2564220981266883 a1_x4
<= 225.26480219821278

a1_local_8: 
+1.1913257363905445 a1_x1
+0.83940098786901074 a1_x2
+1.1722428543263959 a1_x3
<= 200.69197057039935

a1_act_1: 
+0.099999999999999992 a1_x1
-10 a1_z1
<= 0

a1_act_2: 
+0.10000000000000001 a1_x2
-10 a1_z2
<= 0

a2_local_1: 
+0.62681876580670437 a2_x1
+1.5953574694162485 a2_x5
+0.9557896505664274 a2_x3
<= 170.11644849315775

a2_local_2: 
+0.65050579285849564 a2_x4
+1.5372653264250484 a2_x2
+1.2546061477204336 a2_x5
<= 157.53195180918658

a2_local_3: 
+1.1092705285146263 a2_x2
+0.98690089922469182 a2_x1
+0.901493345666593 a2_x5
<= 99.631991056283027

a2_local_4: 
+1.2060793228487077 a2_x6
+0.8227484431006673 a2_x2
+1.2154383376665292 a2_x4
<= 151.57228435011825

a2_local_5: 
+0.74301116243361154 a2_x1
+1.3458748004870658 a2_x6
+1.1724271539103082 a2_x2
<= 154.60098753035177

a2_local_6: 
+0.99533775265008961 a2_x4
+1.0427600178726866 a2_x6
+0.9589934240479222 a2_x5
<= 157.15927654167581

a2_local_7: 
+1.0399803328289989 a2_x4
+0.71771198863494945 a2_x6
+1.3933165612879721 a2_x3
<= 193.85182720320299

a2_local_8: 
+1.2241366966643883 a2_x5
+1.0672067519535393 a2_x1
+0.81690223218115154 a2_x4
<= 202.49091843312502

a2_act_1: 
+0.10000000000000001 a2_x1
-10.000000000000002 a2_z1
<= 0

a2_act_2: 
+0.099999999999999992 a2_x2
-10 a2_z2
<= 0

a3_local_1: 
+1.2940668832008255 a3_x3
+1.500531737617844 a3_x5
+0.66643042258309115 a3_x4
<= 119.91388423991921

a3_local_2: 
+1.0945636544864943 a3_x3
+1.2169345762837116 a3_x5
+0.8217368620208092 a3_x2
<= 159.55734036243362

a3_local_3: 
+0.8383881398746128 a3_x5
+1.0696121414360913 a3_x6
+1.1927649646255225 a3_x2
<= 155.55360864620715

a3_local_4: 
+1.5410614029575274 a3_x4
+1.3481275166892885 a3_x3
+0.64890341039030008 a3_x1
<= 154.49538725697161

a3_local_5: 
+1.4700543535625181 a3_x1
+1.2510176638048405 a3_x4
+0.68024695656769962 a3_x5
<= 195.14260034300585

a3_local_6: 
+0.74214363035317832 a3_x5
+1.3474480667901312 a3_x4
+1.0476830310946885 a3_x6
<= 126.88459199627019

a3_local_7: 
+1.1414649673954567 a3_x5
+0.87606718433221376 a3_x4
+1.0228261738446121 a3_x2
<= 184.58100150212582

a3_local_8: 
+1.4793239649500829 a3_x6
+0.67598445215057623 a3_x2
+1.1207892307676854 a3_x3
<= 178.75290101777702

a3_act_1: 
+0.099999999999999992 a3_x1
-10 a3_z1
<= 0

a3_act_2: 
+0.099999999999999992 a3_x2
-10 a3_z2
<= 0

a4_local_1: 
+0.93947639559538909 a4_x3
+0.78765587113540048 a4_x2
+1.2695899778649613 a4_x4
<= 177.37443455055578

a4_local_2: 
+1.3648935583549877 a4_x5
+0.69086760369113143 a4_x4
+1.4474553368217762 a4_x1
<= 140.56322969863709

a4_local_3: 
+0.8690249825853007 a4_x3
+1.0521663348511829 a4_x2
+1.1507149046797895 a4_x6
<= 176.11462229582636

a4_local_4: 
+0.9191671022917155 a4_x1
+1.0879414608146307 a4_x6
+1.0470652219010965 a4_x5
<= 141.09578028810026

a4_local_5: 
+0.97886237065940362 a4_x1
+1.0842770647637967 a4_x2
+0.92227349678178805 a4_x6
<= 117.43876355440079

a4_local_6: 
+0.5834380347121112 a4_x6
+1.7139780756553438 a4_x3
+0.97723231614370876 a4_x5
<= 134.29665337981859

a4_local_7: 
+1.5920942668284437 a4_x1
+1.6715912484109694 a4_x4
+2.3232844848146597 a4_x5
<= 179.90030962110276

a4_local_8: 
+0.91569763806754634 a4_x5
+0.80675946977201041 a4_x1
+1.239526819911515 a4_x6
<= 169.00558659030301

a4_act_1: 
+0.10000000000000001 a4_x1
-10 a4_z1
<= 0

a4_act_2: 
+0.10000000000000001 a4_x2
-10 a4_z2
<= 0

coupling_1: 
+0.0001041447756968265 a1_x1
+0.0015192810199091053 a2_x1
+0.023584686167826469 a3_x1
+0.99967042667064288 a4_x1
+0.0070880729944043184 short_1
-0.0070880729944043184 surp_1
= 60.916781878281633

coupling_2: 
+0.00013074080123747528 a1_x2
+0.0013718475771546882 a2_x2
+0.073570094723052259 a3_x2
+0.99715500756960118 a4_x2
+0.011563584703230606 short_2
-0.011563584703230606 surp_2
= 83.34446300256154

coupling_3: 
+7.7364394392190103e-05 a1_x3
+0.0014782920818042276 a2_x3
+0.065175522248733062 a3_x3
+0.99773459662846742 a4_x3
+0.011739562545209041 short_3
-0.011739562545209041 surp_3
= 54.266372383254051

bounds
  0 <= a1_x1 <= 100
  0 <= a1_x2 <= 100
  0 <= a1_x3 <= 100
  0 <= a1_x4 <= 100
  0 <= a1_x5 <= 100
  0 <= a1_x6 <= 100
  0 <= a2_x1 <= 100
  0 <= a2_x2 <= 100
  0 <= a2_x3 <= 100
  0 <= a2_x4 <= 100
  0 <= a2_x5 <= 100
  0 <= a2_x6 <= 100
  0 <= a3_x1 <= 100
  0 <= a3_x2 <= 100
  0 <= a3_x3 <= 100
  0 <= a3_x4 <= 100
  0 <= a3_x5 <= 100
  0 <= a3_x6 <= 100
  0 <= a4_x1 <= 100
  0 <= a4_x2 <= 100
  0 <= a4_x3 <= 100
  0 <= a4_x4 <= 100
  0 <= a4_x5 <= 100
  0 <= a4_x6 <= 100
  0 <= short_1 <= +inf
  0 <= surp_1 <= +inf
  0 <= short_2 <= +inf
  0 <= surp_2 <= +inf
  0 <= short_3 <= +inf
  0 <= surp_3 <= +inf
 0 <= a1_z1 <= 1
 0 <= a1_z2 <= 1
 0 <= a2_z1 <= 1
 0 <= a2_z2 <= 1
 0 <= a3_z1 <= 1
 0 <= a3_z2 <= 1
 0 <= a4_z1 <= 1
 0 <= a4_z2 <= 1

binary
  a1_z1
  a1_z2
  a2_z1
  a2_z2
  a3_z1
  a3_z2
  a4_z1
  a4_z2
end
