min
obj: 
  +9.9278906915658744 a1_x1
  +4.1029321056614965 a1_x2
  +3.3290118192963942 a1_x3
  +9.1017647242801925 a1_x4
  +1.0276781995025082 a1_x5
  +7.5015228430107515 a1_x6
  +48.476105885704612 a1_z1
  +46.462393702811802 a1_z2
  +3.1850077691017789 a2_x1
  +1.0794293017939207 a2_x2
  +3.499564475939096 a2_x3
  +4.2123952542391079 a2_x4
  +5.825176560091875 a2_x5
  +3.8934254066749405 a2_x6
  +48.499085817086311 a2_z1
  +41.1366386984797 a2_z2
  +2.6719241979528361 a3_x1
  +3.8682188322270532 a3_x2
  +5.9140343670384405 a3_x3
  +8.8118059009872773 a3_x4
  +5.9790956134935263 a3_x5
  +2.6868556403382673 a3_x6
  +5.1863767770133045 a3_z1
  +6.8806666184499186 a3_z2
  +1.2856225251920637 a4_x1
  +5.2994894770405514 a4_x2
  +9.0295106348529277 a4_x3
  +3.0822666442565567 a4_x4
  +2.1929853575171814 a4_x5
  +7.0676293507155048 a4_x6
  +41.576942647234446 a4_z1
  +44.440960753164354 a4_z2
  +1000000 short_1
  +1000000 surp_1
  +1000000 short_2
  +1000000 surp_2
  +1000000 short_3
  +1000000 surp_3

s.t.

a1_local_1: 
+0.00040307988315652684 a1_x4
+0.00039200867162985715 a1_x6
+0.00027303933309789853 a1_x1
<= 0.04258765284539888

a1_local_2: 
+3601.776001346781 a1_x6
+4330.2926198914001 a1_x5
+5752.5354817962416 a1_x4
<= 610320.47503765707

a1_local_3: 
+0.37112171299084845 a1_x3
+0.30017762196443099 a1_x1
+0.24471218485946727 a1_x6
<= 54.40187536083743

a1_local_4: 
+0.0011900900910258201 a1_x5
+0.0012562920598118883 a1_x2
+0.00067447768993032298 a1_x4
<= 0.13155337752225729

a1_local_5: 
+6619.1981187144802 a1_x4
+13019.805304014064 a1_x2
+8027.3003727401874 a1_x5
<= 1650043.3731071991

a1_local_6: 
+1133.2962057063266 a1_x3
+1069.3033560283575 a1_x4
+557.33428876296068 a1_x1
<= 106277.59011511518

a1_local_7: 
+0.00088402406917662511 a1_x1
+0.00065950553550973032 a1_x2
+0.00075926533371765493 a1_x5
<= 0.1215586542925076

a1_local_8: 
+249.05551110189339 a1_x5
+269.4982376695819 a1_x2
+193.30005827599226 a1_x4
<= 32318.487432989474

a1_act_1: 
+0.00021364355531851764 a1_x1
-0.021364355531851766 a1_z1
<= 0

a1_act_2: 
+9.6661992293179748e-06 a1_x2
-0.00096661992293179744 a1_z2
<= 0

a2_local_1: 
+0.5603401064240896 a2_x6
+0.34159450233765348 a2_x4
+0.80568611668270007 a2_x1
<= 113.17466855697751

a2_local_2: 
+0.005458759291281352 a2_x2
+0.0052711680398730785 a2_x1
+0.0047065167331320525 a2_x4
<= 0.85974864118288552

a2_local_3: 
+0.043596766702658253 a2_x3
+0.04484007028520811 a2_x4
+0.022711210097119298 a2_x5
<= 7.7240519217630768

a2_local_4: 
+13.06582620720391 a2_x4
+22.393181468373719 a2_x3
+22.640903941971146 a2_x2
<= 2150.8034049073708

a2_local_5: 
+9.3819751560856304 a2_x1
+6.1781310497159785 a2_x4
+9.9283759404940071 a2_x2
<= 1106.3415219577391

a2_local_6: 
+2.1800148536009468e-07 a2_x3
+4.5000144560923028e-07 a2_x5
+3.3967940785574765e-07 a2_x1
<= 6.3941223458165901e-05

a2_local_7: 
+4.5148895913505624e-07 a2_x3
+5.8003966660163941e-07 a2_x6
+6.928976946572591e-07 a2_x4
<= 0.00011349113708704065

a2_local_8: 
+1.3399398091607617 a2_x1
+2.4522433257063456 a2_x6
+2.3157978515713666 a2_x5
<= 358.66779550650449

a2_act_1: 
+0.00093385961436545943 a2_x1
-0.093385961436545942 a2_z1
<= 0

a2_act_2: 
+19833.151613301219 a2_x2
-1983315.161330122 a2_z2
<= 0

a3_local_1: 
+192576.04789903597 a3_x1
+170494.40434102729 a3_x4
+81713.076073897319 a3_x2
<= 17128773.36289705

a3_local_2: 
+953.00239485407565 a3_x6
+1720.7962181357382 a3_x4
+1472.8917962544642 a3_x1
<= 161353.9321867114

a3_local_3: 
+2739865.4498334839 a3_x2
+1682640.7466773293 a3_x3
+1405425.4470452915 a3_x5
<= 304883134.09447604

a3_local_4: 
+0.016364742004574925 a3_x5
+0.02948622238612068 a3_x1
+0.024356960057020833 a3_x6
<= 3.1401808660672774

a3_local_5: 
+1547623.489163344 a3_x6
+1078516.9587811278 a3_x3
+2002641.6248116894 a3_x1
<= 176295942.14655393

a3_local_6: 
+1.3353816465293754e-05 a3_x2
+1.6418150378020408e-05 a3_x6
+1.3949811173049997e-05 a3_x4
<= 0.0018037590395868276

a3_local_7: 
+0.0043465926768369734 a3_x2
+0.0020509662618994951 a3_x5
+0.0046183146934803774 a3_x4
<= 0.58456773694219222

a3_local_8: 
+61.942371931558426 a3_x2
+66.691082071091174 a3_x1
+43.354805383731964 a3_x5
<= 10685.944100483515

a3_act_1: 
+826.00074869091873 a3_x1
-82600.07486909187 a3_z1
<= 0

a3_act_2: 
+8.4199435669067511e-05 a3_x2
-0.0084199435669067516 a3_z2
<= 0

a4_local_1: 
+57794.576254486346 a4_x2
+25941.331820250707 a4_x6
+55915.142503718744 a4_x5
<= 9180931.6457090229

a4_local_2: 
+1604469.5363726753 a4_x3
+4065269.8805969069 a4_x5
+3282187.1631027609 a4_x1
<= 515388793.65843064

a4_local_3: 
+55.105759160969676 a4_x4
+78.993384863519665 a4_x3
+69.028188524249529 a4_x6
<= 12469.046096638285

a4_local_4: 
+6.3308140474702732 a4_x5
+4.1444629678850893 a4_x1
+4.1705162780163167 a4_x4
<= 706.26873884941119

a4_local_5: 
+10698.628317943629 a4_x5
+19190.345118412413 a4_x6
+10216.091847643729 a4_x1
<= 2469548.7672702204

a4_local_6: 
+30152.448638468464 a4_x4
+30146.745767974084 a4_x3
+26037.58026323247 a4_x2
<= 3604378.0863328427

a4_local_7: 
+0.20033664619102814 a4_x3
+0.31975037902518638 a4_x6
+0.15390832021322434 a4_x1
<= 40.98263821058886

a4_local_8: 
+79449211.997717664 a4_x3
+82354324.47703968 a4_x2
+89082195.504570186 a4_x6
<= 9537079908.5065193

a4_act_1: 
+0.15616070134083881 a4_x1
-15.616070134083881 a4_z1
<= 0

a4_act_2: 
+777614.7724960933 a4_x2
-77761477.249609336 a4_z2
<= 0

coupling_1: 
+1.8859113631988187e-07 a1_x1
+5.2210281406087377e-06 a2_x1
+0.00010025245862620013 a3_x1
+0.0022281919771658114 a4_x1
+1.939835680046702e-05 short_1
-1.939835680046702e-05 surp_1
= 0.068135158877447061

coupling_2: 
+1079.0392522146901 a1_x2
+17848.922912446262 a2_x2
+893812.09206183988 a3_x2
+8290633.7678651689 a4_x2
+150416.54789201118 short_2
-150416.54789201118 surp_2
= 517437540.16578346

coupling_3: 
+0.11298106421340307 a1_x3
+1.8137191816804026 a2_x3
+67.731990717213648 a3_x3
+2102.8714276052715 a4_x3
+14.56773171931791 short_3
-14.56773171931791 surp_3
= 77050.352365967599

bounds
  0 <= a1_x1 <= 100
  0 <= a1_x2 <= 100
  0 <= a1_x3 <= 100
  0 <= a1_x4 <= 100
  0 <= a1_x5 <= 100
  0 <= a1_x6 <= 100
  0 <= a2_x1 <= 100
  0 <= a2_x2 <= 100
  0 <= a2_x3 <= 100
  0 <= a2_x4 <= 100
  0 <= a2_x5 <= 100
  0 <= a2_x6 <= 100
  0 <= a3_x1 <= 100
  0 <= a3_x2 <= 100
  0 <= a3_x3 <= 100
  0 <= a3_x4 <= 100
  0 <= a3_x5 <= 100
  0 <= a3_x6 <= 100
  0 <= a4_x1 <= 100
  0 <= a4_x2 <= 100
  0 <= a4_x3 <= 100
  0 <= a4_x4 <= 100
  0 <= a4_x5 <= 100
  0 <= a4_x6 <= 100
  0 <= short_1 <= +inf
  0 <= surp_1 <= +inf
  0 <= short_2 <= +inf
  0 <= surp_2 <= +inf
  0 <= short_3 <= +inf
  0 <= surp_3 <= +inf
 0 <= a1_z1 <= 1
 0 <= a1_z2 <= 1
 0 <= a2_z1 <= 1
 0 <= a2_z2 <= 1
 0 <= a3_z1 <= 1
 0 <= a3_z2 <= 1
 0 <= a4_z1 <= 1
 0 <= a4_z2 <= 1

binary
  a1_z1
  a1_z2
  a2_z1
  a2_z2
  a3_z1
  a3_z2
  a4_z1
  a4_z2
end
