min
obj: 
  +1.5770974257819579 a1_x1
  +5.2436233239928463 a1_x2
  +8.0695966456126804 a1_x3
  +3.4781022885686368 a1_x4
  +9.412058306823841 a1_x5
  +8.3165688602967034 a1_x6
  +34.001400959855452 a1_z1
  +10.410503430419741 a1_z2
  +6.4773554290647395 a2_x1
  +9.5833935756226563 a2_x2
  +2.026827474230366 a2_x3
  +2.5146383338919818 a2_x4
  +5.9719159164755045 a2_x5
  +2.1752834405324757 a2_x6
  +46.820939487606068 a2_z1
  +31.119838842287344 a2_z2
  +4.2898026117145012 a3_x1
  +6.2971939246586208 a3_x2
  +7.0812452369118279 a3_x3
  +4.947199835085236 a3_x4
  +8.0650994710678727 a3_x5
  +5.8436848317688934 a3_x6
  +45.408472421232204 a3_z1
  +47.685437857449642 a3_z2
  +7.6745490131872192 a4_x1
  +9.5447276615633179 a4_x2
  +6.4685946234911675 a4_x3
  +6.1047180091187832 a4_x4
  +9.0091726197219533 a4_x5
  +9.2042443028710519 a4_x6
  +10.38795682780167 a4_z1
  +22.655186795949191 a4_z2
  +1000000 short_1
  +1000000 surp_1
  +1000000 short_2
  +1000000 surp_2
  +1000000 short_3
  +1000000 surp_3

s.t.

a1_local_1: 
+655.5987573685062 a1_x1
+670.23239223169685 a1_x6
+408.77410383870915 a1_x5
<= 91245.628970236765

a1_local_2: 
+9.3672033160453231e-07 a1_x5
+5.1660604087045367e-07 a1_x4
+1.4583742009568672e-06 a1_x1
<= 9.1014563273991041e-05

a1_local_3: 
+8.4030378706842097e-05 a1_x2
+0.00011999130362059822 a1_x3
+7.3842747424717091e-05 a1_x5
<= 0.010931121299031649

a1_local_4: 
+312.82910401979046 a1_x2
+250.03384476230875 a1_x4
+114.62365107353105 a1_x1
<= 34064.263305292996

a1_local_5: 
+3125.0953048124529 a1_x1
+1990.7897539312144 a1_x3
+3569.9776301971206 a1_x2
<= 337207.18980265193

a1_local_6: 
+0.89273603952308156 a1_x3
+0.71357251996279236 a1_x4
+0.61137484239468221 a1_x2
<= 93.098761456373737

a1_local_7: 
+71.613961101746767 a1_x1
+44.667027492570533 a1_x4
+61.698257458142521 a1_x3
<= 9864.8429784251057

a1_local_8: 
+4.1522350427570828e-06 a1_x3
+2.6747228712617853e-06 a1_x2
+3.6794417386041135e-06 a1_x5
<= 0.00048011219064609308

a1_act_1: 
+39.699664661582688 a1_x1
-3969.9664661582688 a1_z1
<= 0

a1_act_2: 
+9.2853305955800014 a1_x2
-928.5330595580001 a1_z2
<= 0

a2_local_1: 
+0.31587934137563284 a2_x3
+0.54416655792363222 a2_x6
+0.54420683906623979 a2_x4
<= 78.021871588393367

a2_local_2: 
+269441.93651116284 a2_x6
+111445.97391161061 a2_x4
+250746.83290791593 a2_x2
<= 33940600.03791488

a2_local_3: 
+51.688770070362374 a2_x4
+73.889071512255668 a2_x5
+89.182388788046381 a2_x2
<= 9707.9500635996264

a2_local_4: 
+5.8467766821316615e-06 a2_x6
+6.641414285337959e-06 a2_x5
+4.7104677391128977e-06 a2_x1
<= 0.00057202382988601479

a2_local_5: 
+1.8306940306653443 a2_x6
+1.8513829266972459 a2_x5
+1.7516609440026618 a2_x2
<= 213.96400984463287

a2_local_6: 
+0.39390749910768125 a2_x1
+0.27249972589881205 a2_x6
+0.47839701374161425 a2_x3
<= 58.702082849566956

a2_local_7: 
+75.706582320503912 a2_x2
+83.782856792645191 a2_x4
+116.95756199729722 a2_x5
<= 14563.321265470151

a2_local_8: 
+2.9635234562203967e-07 a2_x4
+3.0235842747784435e-07 a2_x3
+3.710353417452323e-07 a2_x2
<= 3.1231944200176283e-05

a2_act_1: 
+5410.2721831351728 a2_x1
-541027.21831351728 a2_z1
<= 0

a2_act_2: 
+21.338127060943922 a2_x2
-2133.8127060943921 a2_z2
<= 0

a3_local_1: 
+5.9895008362995709e-05 a3_x3
+5.2783827387963738e-05 a3_x4
+6.8660255121082934e-05 a3_x2
<= 0.010075247808450857

a3_local_2: 
+4.1078724276509302 a3_x3
+4.9485166207136828 a3_x4
+7.237774319165668 a3_x6
<= 1065.4403619110938

a3_local_3: 
+499058.45865882718 a3_x2
+795958.92547636922 a3_x3
+483261.24516048649 a3_x5
<= 66928740.473663948

a3_local_4: 
+0.15881503821876503 a3_x2
+0.26024276980415284 a3_x5
+0.22927660107270045 a3_x3
<= 34.035033804006098

a3_local_5: 
+249588.93382101721 a3_x2
+122816.94415510948 a3_x5
+266949.06152965676 a3_x3
<= 39950250.337833539

a3_local_6: 
+42354.926468749785 a3_x5
+36347.704974835913 a3_x6
+40858.155626754211 a3_x1
<= 6308099.3937717341

a3_local_7: 
+96.796940789504959 a3_x3
+111.85703436458361 a3_x5
+94.979101222480381 a3_x2
<= 17869.01580026915

a3_local_8: 
+150.67481252283616 a3_x5
+230.08794779505934 a3_x3
+153.67708427077872 a3_x2
<= 29766.194509089382

a3_act_1: 
+1.7799973784025105 a3_x1
-177.99973784025104 a3_z1
<= 0

a3_act_2: 
+175353.02261030817 a3_x2
-17535302.261030816 a3_z2
<= 0

a4_local_1: 
+0.0002507808396205205 a4_x6
+0.0002796908801415139 a4_x1
+0.00024904563735877631 a4_x3
<= 0.029118449091389241

a4_local_2: 
+1807305.9282619457 a4_x2
+3014339.2790152882 a4_x4
+2004184.453865262 a4_x6
<= 383476108.55411613

a4_local_3: 
+792.98474483444829 a4_x3
+601.95838055021409 a4_x2
+1180.5132776739695 a4_x1
<= 77744.51614873184

a4_local_4: 
+8853.0505487015816 a4_x3
+13355.493852274554 a4_x5
+13718.045414484581 a4_x2
<= 2209325.0670618373

a4_local_5: 
+669.39122053838503 a4_x3
+690.40976532580692 a4_x2
+540.49296143721199 a4_x1
<= 104805.3748539752

a4_local_6: 
+632885.09522533277 a4_x5
+231052.63957345413 a4_x1
+578856.47942911449 a4_x6
<= 68621818.733438373

a4_local_7: 
+30598.817781697973 a4_x6
+16506.344569508699 a4_x3
+25834.346380951389 a4_x2
<= 4870883.5811920185

a4_local_8: 
+0.0038979582519464151 a4_x2
+0.0046217848293254793 a4_x6
+0.0068061532204975435 a4_x5
<= 0.77805459912681052

a4_act_1: 
+25691.180530862104 a4_x1
-2569118.0530862105 a4_z1
<= 0

a4_act_2: 
+0.003827206813206193 a4_x2
-0.38272068132061932 a4_z2
<= 0

coupling_1: 
+0.31000128127776061 a1_x1
+9.9215023532209763 a2_x1
+187.87993236204079 a3_x1
+4360.4514836773433 a4_x1
+31.05523259881258 short_1
-31.05523259881258 surp_1
= 336200.37663237262

coupling_2: 
+1.9350665343854268e-07 a1_x2
+3.4569109731801429e-06 a2_x2
+0.00012042605016212184 a3_x2
+0.0023933046998537593 a4_x2
+2.1309964727709111e-05 short_2
-2.1309964727709111e-05 surp_2
= 0.09068161017469463

coupling_3: 
+8.5713470905762676e-07 a1_x3
+1.2208779837419404e-05 a2_x3
+0.00021121948078355699 a3_x3
+0.0059034756728490257 a4_x3
+6.9043405619719693e-05 short_3
-6.9043405619719693e-05 surp_3
= 0.35768887688831308

bounds
  0 <= a1_x1 <= 100
  0 <= a1_x2 <= 100
  0 <= a1_x3 <= 100
  0 <= a1_x4 <= 100
  0 <= a1_x5 <= 100
  0 <= a1_x6 <= 100
  0 <= a2_x1 <= 100
  0 <= a2_x2 <= 100
  0 <= a2_x3 <= 100
  0 <= a2_x4 <= 100
  0 <= a2_x5 <= 100
  0 <= a2_x6 <= 100
  0 <= a3_x1 <= 100
  0 <= a3_x2 <= 100
  0 <= a3_x3 <= 100
  0 <= a3_x4 <= 100
  0 <= a3_x5 <= 100
  0 <= a3_x6 <= 100
  0 <= a4_x1 <= 100
  0 <= a4_x2 <= 100
  0 <= a4_x3 <= 100
  0 <= a4_x4 <= 100
  0 <= a4_x5 <= 100
  0 <= a4_x6 <= 100
  0 <= short_1 <= +inf
  0 <= surp_1 <= +inf
  0 <= short_2 <= +inf
  0 <= surp_2 <= +inf
  0 <= short_3 <= +inf
  0 <= surp_3 <= +inf
 0 <= a1_z1 <= 1
 0 <= a1_z2 <= 1
 0 <= a2_z1 <= 1
 0 <= a2_z2 <= 1
 0 <= a3_z1 <= 1
 0 <= a3_z2 <= 1
 0 <= a4_z1 <= 1
 0 <= a4_z2 <= 1

binary
  a1_z1
  a1_z2
  a2_z1
  a2_z2
  a3_z1
  a3_z2
  a4_z1
  a4_z2
end
