min
obj: 
  +2.8670230128866887 a1_x1
  +4.6121734767481746 a1_x2
  +8.3726653944305163 a1_x3
  +3.8874111784256438 a1_x4
  +3.5735214707131471 a1_x5
  +7.9063268225890937 a1_x6
  +32.521673256282952 a1_z1
  +46.9551209495583 a1_z2
  +1.341622492975389 a2_x1
  +5.0417707846324316 a2_x2
  +1.1098914253226899 a2_x3
  +7.5349912767704339 a2_x4
  +4.7451420176434915 a2_x5
  +4.9227196469025021 a2_x6
  +7.3717597202086891 a2_z1
  +32.23919956008293 a2_z2
  +7.1988333719011539 a3_x1
  +9.6965932883206509 a3_x2
  +2.6814504435085222 a3_x3
  +4.7418198986047297 a3_x4
  +5.4039251046059666 a3_x5
  +9.8502537099383343 a3_x6
  +17.992052798317559 a3_z1
  +28.73085531973274 a3_z2
  +5.3817190254650331 a4_x1
  +3.7297540390479749 a4_x2
  +6.6577904747627379 a4_x3
  +5.4304281417402382 a4_x4
  +9.7175944926778737 a4_x5
  +8.0479454867151716 a4_x6
  +7.8471654550187315 a4_z1
  +24.374477793367895 a4_z2
  +1000000 short_1
  +1000000 surp_1
  +1000000 short_2
  +1000000 surp_2
  +1000000 short_3
  +1000000 surp_3

s.t.

a1_local_1: 
+13.386872415872288 a1_x3
+23.501782505991724 a1_x1
+20.881698515348813 a1_x2
<= 3474.3406102466261

a1_local_2: 
+1755.2206151784408 a1_x4
+1318.2816352106838 a1_x6
+1212.5902242423658 a1_x2
<= 160601.94077310016

a1_local_3: 
+23.563246447661701 a1_x3
+11.087821194069219 a1_x4
+11.813743206225521 a1_x1
<= 3032.2773016481292

a1_local_4: 
+86.082561607620704 a1_x3
+78.316571779659114 a1_x6
+211.58515338901123 a1_x1
<= 20601.987613432033

a1_local_5: 
+2.5903384381490379e-06 a1_x5
+3.7449651291607056e-06 a1_x1
+3.5170914685580466e-06 a1_x3
<= 0.00050248599271894426

a1_local_6: 
+1.5950711928100305e-05 a1_x6
+1.2864612939764088e-05 a1_x3
+1.1931984445932475e-05 a1_x1
<= 0.0018618040444497814

a1_local_7: 
+60.662129471237222 a1_x4
+82.880131156628295 a1_x3
+75.74191898926918 a1_x6
<= 7592.7882460293222

a1_local_8: 
+0.07351971057719961 a1_x6
+0.090736141033577092 a1_x3
+0.071205411002393373 a1_x2
<= 8.6556567666013553

a1_act_1: 
+0.063506231441481889 a1_x1
-6.3506231441481891 a1_z1
<= 0

a1_act_2: 
+5.7390541622052778e-06 a1_x2
-0.00057390541622052776 a1_z2
<= 0

a2_local_1: 
+221.96137168853937 a2_x3
+345.57304033784931 a2_x1
+286.86921133448499 a2_x4
<= 38625.279453080337

a2_local_2: 
+573.79853987741762 a2_x3
+359.0932879197473 a2_x4
+416.10516199842795 a2_x1
<= 87771.755728309639

a2_local_3: 
+0.00029268081920433791 a2_x2
+0.00040785770626397208 a2_x5
+0.00054251045704043562 a2_x6
<= 0.076001546115177246

a2_local_4: 
+1.3541294893965932 a2_x3
+1.1923220509021921 a2_x4
+0.93249093036185049 a2_x2
<= 209.35506788360527

a2_local_5: 
+6.4988708981790486 a2_x3
+9.9507938129591924 a2_x5
+12.197067758102254 a2_x6
<= 1792.41565852605

a2_local_6: 
+0.014699990662505364 a2_x2
+0.034229773015751801 a2_x5
+0.018242452065859401 a2_x1
<= 4.5113101318472175

a2_local_7: 
+4.9035208639546815 a2_x6
+7.7756879920289093 a2_x2
+5.2622877095227771 a2_x5
<= 873.88357697802383

a2_local_8: 
+7.7002602690102421e-07 a2_x2
+1.0329325041019479e-06 a2_x4
+7.1564082937850055e-07 a2_x6
<= 0.00016490292662845816

a2_act_1: 
+0.00015924100584423323 a2_x1
-0.015924100584423322 a2_z1
<= 0

a2_act_2: 
+141.53641529112923 a2_x2
-14153.641529112923 a2_z2
<= 0

a3_local_1: 
+0.19494174167895939 a3_x6
+0.26731411762288226 a3_x2
+0.19621413078628785 a3_x1
<= 33.727193987207961

a3_local_2: 
+0.00011662023820400957 a3_x3
+8.0016370943086754e-05 a3_x1
+9.3009062030911674e-05 a3_x4
<= 0.016698090924117719

a3_local_3: 
+58.480657643545285 a3_x4
+47.271344464524532 a3_x1
+69.211172553193236 a3_x6
<= 10196.605683989461

a3_local_4: 
+79.812121132852482 a3_x1
+80.348682615608766 a3_x3
+56.53686791677616 a3_x5
<= 7948.7803946509866

a3_local_5: 
+15.064120757021479 a3_x5
+31.979670584195794 a3_x4
+42.035142227805558 a3_x6
<= 3843.4183991186414

a3_local_6: 
+78.980707342102619 a3_x2
+130.5376455533173 a3_x3
+134.13708282308394 a3_x6
<= 18373.830387366917

a3_local_7: 
+204935.28803524343 a3_x4
+118789.95573864144 a3_x1
+245260.5287095856 a3_x2
<= 30557101.652460311

a3_local_8: 
+194.45522822171077 a3_x2
+91.546747536723146 a3_x1
+143.25997486715156 a3_x5
<= 14048.36967930824

a3_act_1: 
+5.4943514238174656 a3_x1
-549.43514238174657 a3_z1
<= 0

a3_act_2: 
+2.99900848563669e-05 a3_x2
-0.0029990084856366902 a3_z2
<= 0

a4_local_1: 
+18510.490455986812 a4_x1
+33087.173469083777 a4_x4
+24847.08031964918 a4_x3
<= 3063465.436400353

a4_local_2: 
+448.63547140157453 a4_x1
+323.95307074938313 a4_x6
+334.13413505695058 a4_x3
<= 51922.829571456961

a4_local_3: 
+0.25010444241700686 a4_x2
+0.1577338442986593 a4_x5
+0.34176884019018844 a4_x1
<= 42.721373998145189

a4_local_4: 
+0.0012779038165148585 a4_x5
+0.0013205537189219893 a4_x4
+0.0019417581887777014 a4_x3
<= 0.19625378270278246

a4_local_5: 
+3834752.7797719943 a4_x1
+6950407.6538341418 a4_x4
+8035181.3854516139 a4_x2
<= 762086110.35831559

a4_local_6: 
+922.72642223428772 a4_x4
+1095.9813535196702 a4_x2
+600.48795164958494 a4_x6
<= 133477.59441366777

a4_local_7: 
+1344.3252784282492 a4_x2
+1434.8039505130284 a4_x1
+1730.932284680187 a4_x3
<= 217118.00102528805

a4_local_8: 
+63.402651545482158 a4_x1
+39.561113695614374 a4_x2
+72.197721287301448 a4_x5
<= 11414.560981105611

a4_act_1: 
+0.12433034612835597 a4_x1
-12.433034612835597 a4_z1
<= 0

a4_act_2: 
+0.00043403942169190475 a4_x2
-0.043403942169190475 a4_z2
<= 0

coupling_1: 
+2246.3815101029732 a1_x1
+40282.133882029273 a2_x1
+852462.84253341693 a3_x1
+18590749.644168679 a4_x1
+152254.62414554431 short_1
-152254.62414554431 surp_1
= 487789269.16207969

coupling_2: 
+0.013682463775455251 a1_x2
+0.35063650741957098 a2_x2
+10.647147127273726 a3_x2
+155.33998262592414 a4_x2
+2.0398728667816162 short_2
-2.0398728667816162 surp_2
= 3774.7050585202369

coupling_3: 
+0.28019056582718077 a1_x3
+5.8518293517379671 a2_x3
+94.606896911341721 a3_x3
+1239.6747726796168 a4_x3
+19.066499677447126 short_3
-19.066499677447126 surp_3
= 27598.693038241989

bounds
  0 <= a1_x1 <= 100
  0 <= a1_x2 <= 100
  0 <= a1_x3 <= 100
  0 <= a1_x4 <= 100
  0 <= a1_x5 <= 100
  0 <= a1_x6 <= 100
  0 <= a2_x1 <= 100
  0 <= a2_x2 <= 100
  0 <= a2_x3 <= 100
  0 <= a2_x4 <= 100
  0 <= a2_x5 <= 100
  0 <= a2_x6 <= 100
  0 <= a3_x1 <= 100
  0 <= a3_x2 <= 100
  0 <= a3_x3 <= 100
  0 <= a3_x4 <= 100
  0 <= a3_x5 <= 100
  0 <= a3_x6 <= 100
  0 <= a4_x1 <= 100
  0 <= a4_x2 <= 100
  0 <= a4_x3 <= 100
  0 <= a4_x4 <= 100
  0 <= a4_x5 <= 100
  0 <= a4_x6 <= 100
  0 <= short_1 <= +inf
  0 <= surp_1 <= +inf
  0 <= short_2 <= +inf
  0 <= surp_2 <= +inf
  0 <= short_3 <= +inf
  0 <= surp_3 <= +inf
 0 <= a1_z1 <= 1
 0 <= a1_z2 <= 1
 0 <= a2_z1 <= 1
 0 <= a2_z2 <= 1
 0 <= a3_z1 <= 1
 0 <= a3_z2 <= 1
 0 <= a4_z1 <= 1
 0 <= a4_z2 <= 1

binary
  a1_z1
  a1_z2
  a2_z1
  a2_z2
  a3_z1
  a3_z2
  a4_z1
  a4_z2
end
