min
obj: 
  +4.0092711480649195 a1_x1
  +1.9679731558453351 a1_x2
  +5.1245063990813229 a1_x3
  +5.3289660462088069 a1_x4
  +7.7326436197250805 a1_x5
  +5.1395422066191525 a1_x6
  +7.4601303692563201 a1_z1
  +49.872667351617643 a1_z2
  +9.3684343534405965 a2_x1
  +1.0573707236444929 a2_x2
  +6.6071911877442115 a2_x3
  +2.1574642417771144 a2_x4
  +4.0288495580936399 a2_x5
  +6.5816021448275457 a2_x6
  +37.186317612242192 a2_z1
  +14.569927030673126 a2_z2
  +7.5771846442232071 a3_x1
  +6.3254671996139473 a3_x2
  +1.3182946718516668 a3_x3
  +2.4508427443497842 a3_x4
  +7.5821505201430535 a3_x5
  +8.0396019839617026 a3_x6
  +34.570982164584187 a3_z1
  +17.019236119633661 a3_z2
  +9.6576292080467585 a4_x1
  +1.0103892115093069 a4_x2
  +8.2624531172852755 a4_x3
  +1.8717492610420641 a4_x4
  +5.7231033614351237 a4_x5
  +2.0382344427317065 a4_x6
  +33.41705432517788 a4_z1
  +11.211459891146486 a4_z2
  +1000000 short_1
  +1000000 surp_1
  +1000000 short_2
  +1000000 surp_2
  +1000000 short_3
  +1000000 surp_3

s.t.

a1_local_1: 
+4931.766067127659 a1_x3
+2095.2571324793867 a1_x6
+3333.7064632404085 a1_x4
<= 391641.17714776885

a1_local_2: 
+0.00019585904701585385 a1_x4
+0.00010850720875844403 a1_x6
+7.5831317244740189e-05 a1_x2
<= 0.021553211840955065

a1_local_3: 
+0.35073671583835064 a1_x6
+0.59314807322054053 a1_x4
+0.31000498674640209 a1_x1
<= 79.604010838483305

a1_local_4: 
+2382.7412134538408 a1_x2
+2812.9093939916852 a1_x5
+2762.9126140992639 a1_x3
<= 537175.15668226441

a1_local_5: 
+64.51759627237189 a1_x1
+29.259934730869482 a1_x4
+41.07003025877215 a1_x2
<= 9229.6424802887232

a1_local_6: 
+5.1788117247391747e-05 a1_x1
+5.3088087037690285e-05 a1_x3
+2.7060848591755189e-05 a1_x6
<= 0.0082365176934769465

a1_local_7: 
+5413.0013310029908 a1_x2
+8730.4570203943204 a1_x5
+6895.6878285655712 a1_x4
<= 1170385.8205713416

a1_local_8: 
+0.00080590373836509624 a1_x4
+0.0012563975727735328 a1_x5
+0.00050981270996522008 a1_x6
<= 0.13327163959735852

a1_act_1: 
+1013.0202625481508 a1_x1
-101302.02625481508 a1_z1
<= 0

a1_act_2: 
+0.00039829861158940987 a1_x2
-0.039829861158940986 a1_z2
<= 0

a2_local_1: 
+0.00020148524691493042 a2_x4
+0.00038012028547183688 a2_x2
+0.00030490103597206945 a2_x6
<= 0.051156425603303683

a2_local_2: 
+27.775526112159486 a2_x1
+38.325660890039956 a2_x4
+24.487298728666229 a2_x5
<= 5818.7740146625056

a2_local_3: 
+0.035419336495237631 a2_x4
+0.026181087176041846 a2_x5
+0.051168868285408023 a2_x3
<= 7.2043843936299483

a2_local_4: 
+7.6575835260883887e-05 a2_x2
+5.1830085990370955e-05 a2_x1
+7.3498656816404196e-05 a2_x5
<= 0.0092301726767312214

a2_local_5: 
+0.023291726105790406 a2_x2
+0.014686268991717873 a2_x3
+0.027277928964209216 a2_x6
<= 3.6791938659987133

a2_local_6: 
+4780.1488629410478 a2_x6
+3430.7092722320194 a2_x5
+5477.0651852824822 a2_x2
<= 762637.78829611978

a2_local_7: 
+3.5095217615234109 a2_x2
+2.3950411915421053 a2_x5
+2.5318008719106033 a2_x6
<= 562.50149888574776

a2_local_8: 
+60502.109256724238 a2_x2
+49727.811286869983 a2_x4
+43182.918886287938 a2_x5
<= 10187175.525454815

a2_act_1: 
+5155.5993390668173 a2_x1
-515559.93390668172 a2_z1
<= 0

a2_act_2: 
+675888.71614944481 a2_x2
-67588871.614944488 a2_z2
<= 0

a3_local_1: 
+493.20464092650604 a3_x1
+410.22838798731948 a3_x2
+763.21411945835678 a3_x6
<= 75272.080086834365

a3_local_2: 
+0.0021770477070373081 a3_x2
+0.0017988869483154825 a3_x1
+0.0037136520203523674 a3_x6
<= 0.33105332342813204

a3_local_3: 
+4.0815310605050525 a3_x1
+3.1528982978487825 a3_x5
+6.3621974797217744 a3_x2
<= 704.26618576727537

a3_local_4: 
+0.061802837979787674 a3_x4
+0.094036294973357165 a3_x6
+0.088541339894154983 a3_x5
<= 15.692352087828217

a3_local_5: 
+0.0063566998580672418 a3_x4
+0.0093361802950425159 a3_x1
+0.0061997332979269026 a3_x5
<= 0.71245770068659164

a3_local_6: 
+0.44965280641505956 a3_x5
+0.25502481018866996 a3_x6
+0.23142252754342621 a3_x1
<= 55.169362909095767

a3_local_7: 
+0.21575177091084846 a3_x6
+0.26634379707815625 a3_x1
+0.30748853836640422 a3_x4
<= 49.531747599921061

a3_local_8: 
+0.0074993776996788147 a3_x3
+0.0096225874890167422 a3_x1
+0.0061554807650245321 a3_x6
<= 0.94819386944545281

a3_act_1: 
+686663.1252002354 a3_x1
-68666312.52002354 a3_z1
<= 0

a3_act_2: 
+0.00012862479913968599 a3_x2
-0.012862479913968598 a3_z2
<= 0

a4_local_1: 
+26767.265829797059 a4_x3
+26003.19325724983 a4_x2
+36294.393384348063 a4_x5
<= 5307229.8420426892

a4_local_2: 
+89.236958228775492 a4_x2
+175.94190662458843 a4_x5
+206.26942858685072 a4_x3
<= 32617.623858661307

a4_local_3: 
+12.488611455760134 a4_x4
+5.8353947676732103 a4_x5
+5.9586503076581323 a4_x2
<= 823.12006383298512

a4_local_4: 
+10047336.047413465 a4_x5
+10235925.111191183 a4_x3
+8482769.6848458219 a4_x1
<= 951875498.74728727

a4_local_5: 
+28886147.430167157 a4_x5
+44074378.169734903 a4_x6
+22270496.363635343 a4_x1
<= 5112131329.6162796

a4_local_6: 
+1.4036224202640484 a4_x3
+0.63442720463063595 a4_x2
+0.81325515595465636 a4_x1
<= 139.84681441562898

a4_local_7: 
+0.0001054531573480223 a4_x1
+9.3125305151856881e-05 a4_x2
+0.00020608637414333742 a4_x3
<= 0.024720718779903717

a4_local_8: 
+0.54374728417934892 a4_x3
+0.38860856809788336 a4_x1
+0.59859247639862134 a4_x4
<= 87.993364768374548

a4_act_1: 
+0.0018442837864003762 a4_x1
-0.18442837864003761 a4_z1
<= 0

a4_act_2: 
+71551.722792492015 a4_x2
-7155172.2792492015 a4_z2
<= 0

coupling_1: 
+0.0074891348782630228 a1_x1
+0.20709224575661622 a2_x1
+4.5130793055561753 a3_x1
+39.339688329663787 a4_x1
+0.66348925535804648 short_1
-0.66348925535804648 surp_1
= 2491.9233132308427

coupling_2: 
+1.4442224761735032e-07 a1_x2
+2.8484117618911086e-06 a2_x2
+5.0217507411210017e-05 a3_x2
+0.0016783669490174652 a4_x2
+1.787045756170789e-05 short_2
-1.787045756170789e-05 surp_2
= 0.095105616482524122

coupling_3: 
+9.4914075802273827e-07 a1_x3
+1.3619360020348497e-05 a2_x3
+0.0004200088625855725 a3_x3
+0.010218209459118426 a4_x3
+0.00011917326850738593 short_3
-0.00011917326850738593 surp_3
= 0.23245573047990051

bounds
  0 <= a1_x1 <= 100
  0 <= a1_x2 <= 100
  0 <= a1_x3 <= 100
  0 <= a1_x4 <= 100
  0 <= a1_x5 <= 100
  0 <= a1_x6 <= 100
  0 <= a2_x1 <= 100
  0 <= a2_x2 <= 100
  0 <= a2_x3 <= 100
  0 <= a2_x4 <= 100
  0 <= a2_x5 <= 100
  0 <= a2_x6 <= 100
  0 <= a3_x1 <= 100
  0 <= a3_x2 <= 100
  0 <= a3_x3 <= 100
  0 <= a3_x4 <= 100
  0 <= a3_x5 <= 100
  0 <= a3_x6 <= 100
  0 <= a4_x1 <= 100
  0 <= a4_x2 <= 100
  0 <= a4_x3 <= 100
  0 <= a4_x4 <= 100
  0 <= a4_x5 <= 100
  0 <= a4_x6 <= 100
  0 <= short_1 <= +inf
  0 <= surp_1 <= +inf
  0 <= short_2 <= +inf
  0 <= surp_2 <= +inf
  0 <= short_3 <= +inf
  0 <= surp_3 <= +inf
 0 <= a1_z1 <= 1
 0 <= a1_z2 <= 1
 0 <= a2_z1 <= 1
 0 <= a2_z2 <= 1
 0 <= a3_z1 <= 1
 0 <= a3_z2 <= 1
 0 <= a4_z1 <= 1
 0 <= a4_z2 <= 1

binary
  a1_z1
  a1_z2
  a2_z1
  a2_z2
  a3_z1
  a3_z2
  a4_z1
  a4_z2
end
