min
obj: 
  +1.5770974257819579 a1_x1
  +5.2436233239928463 a1_x2
  +8.0695966456126804 a1_x3
  +3.4781022885686368 a1_x4
  +9.412058306823841 a1_x5
  +8.3165688602967034 a1_x6
  +34.001400959855452 a1_z1
  +10.410503430419741 a1_z2
  +6.4773554290647395 a2_x1
  +9.5833935756226563 a2_x2
  +2.026827474230366 a2_x3
  +2.5146383338919818 a2_x4
  +5.9719159164755045 a2_x5
  +2.1752834405324757 a2_x6
  +46.820939487606068 a2_z1
  +31.119838842287344 a2_z2
  +4.2898026117145012 a3_x1
  +6.2971939246586208 a3_x2
  +7.0812452369118279 a3_x3
  +4.947199835085236 a3_x4
  +8.0650994710678727 a3_x5
  +5.8436848317688934 a3_x6
  +45.408472421232204 a3_z1
  +47.685437857449642 a3_z2
  +7.6745490131872192 a4_x1
  +9.5447276615633179 a4_x2
  +6.4685946234911675 a4_x3
  +6.1047180091187832 a4_x4
  +9.0091726197219533 a4_x5
  +9.2042443028710519 a4_x6
  +10.38795682780167 a4_z1
  +22.655186795949191 a4_z2
  +1000000 short_1
  +1000000 surp_1
  +1000000 short_2
  +1000000 surp_2
  +1000000 short_3
  +1000000 surp_3

s.t.

a1_local_1: 
+0.64098504467401407 a1_x1
+0.65529248652179217 a1_x6
+0.39966226943800787 a1_x5
<= 89.211705947332447

a1_local_2: 
+0.51791392364174593 a1_x5
+0.28563217064578794 a1_x4
+0.80633704540358742 a1_x1
<= 50.322073711188978

a1_local_3: 
+0.51223022241792826 a1_x2
+0.731439904087825 a1_x3
+0.45012872153382205 a1_x5
<= 66.633648216849238

a1_local_4: 
+0.75099222928415799 a1_x2
+0.60024298270744092 a1_x4
+0.27517091645972552 a1_x1
<= 81.776269246822167

a1_local_5: 
+0.60736785680026173 a1_x1
+0.38691354606789718 a1_x3
+0.69383153170998368 a1_x2
<= 65.536819901998797

a1_local_6: 
+0.89273603952308156 a1_x3
+0.71357251996279236 a1_x4
+0.61137484239468221 a1_x2
<= 93.098761456373737

a1_local_7: 
+0.68498350042745693 a1_x1
+0.42723759969205405 a1_x4
+0.590140354112071 a1_x3
<= 94.356666920411826

a1_local_8: 
+0.67417171866082071 a1_x3
+0.43427756292491176 a1_x2
+0.59740730837336986 a1_x5
<= 77.952730850940952

a1_act_1: 
+0.0099995000374968751 a1_x1
-0.99995000374968745 a1_z1
<= 0

a1_act_2: 
+0.0099995000374968751 a1_x2
-0.99995000374968745 a1_z2
<= 0

a2_local_1: 
+0.31587934137563284 a2_x3
+0.54416655792363222 a2_x6
+0.54420683906623979 a2_x4
<= 78.021871588393367

a2_local_2: 
+0.70063395603317602 a2_x6
+0.28979465704822432 a2_x4
+0.65202079445337013 a2_x2
<= 88.25625729467275

a2_local_3: 
+0.40755672572156981 a2_x4
+0.58260213990676457 a2_x5
+0.70318721681723717 a2_x2
<= 76.545453412864148

a2_local_4: 
+0.5832745751592584 a2_x6
+0.66254764057874038 a2_x5
+0.46991636908744827 a2_x1
<= 57.065110315808006

a2_local_5: 
+0.58338534803205944 a2_x6
+0.58997825684685656 a2_x5
+0.55819995713853043 a2_x2
<= 68.183686765057359

a2_local_6: 
+0.39390749910768125 a2_x1
+0.27249972589881205 a2_x6
+0.47839701374161425 a2_x3
<= 58.702082849566956

a2_local_7: 
+0.46567618922908594 a2_x2
+0.51535388704713037 a2_x4
+0.71941369036910197 a2_x5
<= 89.579951195159282

a2_local_8: 
+0.52642759393292127 a2_x4
+0.53709654009455499 a2_x3
+0.65909126451839251 a2_x2
<= 55.479085899036377

a2_act_1: 
+0.0099995000374968768 a2_x1
-0.99995000374968757 a2_z1
<= 0

a2_act_2: 
+0.0099995000374968768 a2_x2
-0.99995000374968757 a2_z2
<= 0

a3_local_1: 
+0.56881157551933181 a3_x3
+0.50127803366394641 a3_x4
+0.65205346753255033 a3_x2
<= 95.682724425718575

a3_local_2: 
+0.42426419607962779 a3_x3
+0.51108656922784357 a3_x4
+0.74752284960382298 a3_x6
<= 110.03949284654108

a3_local_3: 
+0.47237822426315729 a3_x2
+0.7534060534979925 a3_x3
+0.45742554781578021 a3_x5
<= 63.350653673085219

a3_local_4: 
+0.41632820917113478 a3_x2
+0.68221755016079444 a3_x5
+0.60104079437336 a3_x3
<= 89.221680966901317

a3_local_5: 
+0.64737635948030325 a3_x2
+0.31855893998348123 a3_x5
+0.69240454283794961 a3_x3
<= 103.62177211983263

a3_local_6: 
+0.61233116492222839 a3_x5
+0.52548391379954906 a3_x6
+0.59069213707556223 a3_x1
<= 91.197085493310368

a3_local_7: 
+0.55063473608792679 a3_x3
+0.63630490896256409 a3_x5
+0.54029385545601227 a3_x2
<= 101.64888186630591

a3_local_8: 
+0.47824837657156011 a3_x5
+0.73030910514649916 a3_x3
+0.48777771704618372 a3_x2
<= 94.479189735362979

a3_act_1: 
+0.0099995000374968751 a3_x1
-0.99995000374968745 a3_z1
<= 0

a3_act_2: 
+0.0099995000374968751 a3_x2
-0.99995000374968745 a3_z2
<= 0

a4_local_1: 
+0.55640978656014128 a4_x6
+0.62055276295368045 a4_x1
+0.55255987712704135 a4_x3
<= 64.605374431390544

a4_local_2: 
+0.44669998527998578 a4_x2
+0.74503452376760726 a4_x4
+0.49536116273405545 a4_x6
<= 94.781281557065938

a4_local_3: 
+0.51349915663727086 a4_x3
+0.38979958032837603 a4_x2
+0.76444417932811404 a4_x1
<= 50.34364624994263

a4_local_4: 
+0.41970762564987546 a4_x3
+0.63316057931486336 a4_x5
+0.65034851408534089 a4_x2
<= 104.74023310770232

a4_local_5: 
+0.6068140382902889 a4_x3
+0.62586769129634812 a4_x2
+0.48996566810870607 a4_x1
<= 95.007778408741942

a4_local_6: 
+0.71250079101605179 a4_x5
+0.26011860558008487 a4_x1
+0.65167548199435343 a4_x6
<= 77.254308084356182

a4_local_7: 
+0.7064308417807228 a4_x6
+0.3810797845900839 a4_x3
+0.59643412340153257 a4_x2
<= 112.45344225473656

a4_local_8: 
+0.42816950302948492 a4_x2
+0.50767791381381555 a4_x6
+0.7476188952274655 a4_x5
<= 85.465063888660453

a4_act_1: 
+0.0099995000374968751 a4_x1
-0.99995000374968757 a4_z1
<= 0

a4_act_2: 
+0.0099995000374968768 a4_x2
-0.99995000374968768 a4_z2
<= 0

coupling_1: 
+7.1024168391154444e-05 a1_x1
+0.0022731081978884524 a2_x1
+0.043045034841143373 a3_x1
+0.99901987231036793 a4_x1
+0.0071150417844507395 short_1
-0.0071150417844507395 surp_1
= 77.026624098731432

coupling_2: 
+8.074469817151451e-05 a1_x2
+0.0014424684018623543 a2_x2
+0.050250288036821647 a3_x2
+0.99865643991168329 a4_x2
+0.008892028462116796 short_2
-0.008892028462116796 surp_2
= 37.838798372832841

coupling_3: 
+0.00014507856614844538 a1_x3
+0.0020664572960558689 a2_x3
+0.035750995836335155 a3_x3
+0.99922191559691409 a4_x3
+0.011686282428496319 short_3
-0.011686282428496319 surp_3
= 60.542396472612573

bounds
  0 <= a1_x1 <= 100
  0 <= a1_x2 <= 100
  0 <= a1_x3 <= 100
  0 <= a1_x4 <= 100
  0 <= a1_x5 <= 100
  0 <= a1_x6 <= 100
  0 <= a2_x1 <= 100
  0 <= a2_x2 <= 100
  0 <= a2_x3 <= 100
  0 <= a2_x4 <= 100
  0 <= a2_x5 <= 100
  0 <= a2_x6 <= 100
  0 <= a3_x1 <= 100
  0 <= a3_x2 <= 100
  0 <= a3_x3 <= 100
  0 <= a3_x4 <= 100
  0 <= a3_x5 <= 100
  0 <= a3_x6 <= 100
  0 <= a4_x1 <= 100
  0 <= a4_x2 <= 100
  0 <= a4_x3 <= 100
  0 <= a4_x4 <= 100
  0 <= a4_x5 <= 100
  0 <= a4_x6 <= 100
  0 <= short_1 <= +inf
  0 <= surp_1 <= +inf
  0 <= short_2 <= +inf
  0 <= surp_2 <= +inf
  0 <= short_3 <= +inf
  0 <= surp_3 <= +inf
 0 <= a1_z1 <= 1
 0 <= a1_z2 <= 1
 0 <= a2_z1 <= 1
 0 <= a2_z2 <= 1
 0 <= a3_z1 <= 1
 0 <= a3_z2 <= 1
 0 <= a4_z1 <= 1
 0 <= a4_z2 <= 1

binary
  a1_z1
  a1_z2
  a2_z1
  a2_z2
  a3_z1
  a3_z2
  a4_z1
  a4_z2
end
