min
obj: 
  +4.6820518769511636 a1_x1
  +5.7129162548306427 a1_x2
  +9.0056358908477314 a1_x3
  +9.0172471176233611 a1_x4
  +9.406385688684578 a1_x5
  +5.7753562095118767 a1_x6
  +36.440798325108226 a1_z1
  +20.355895911925103 a1_z2
  +9.8523773325997031 a2_x1
  +8.6665660995193221 a2_x2
  +1.318348960475541 a2_x3
  +8.2691943978607085 a2_x4
  +6.0635318483155114 a2_x5
  +3.2631581910354219 a2_x6
  +31.015799445658949 a2_z1
  +42.142738976131909 a2_z2
  +3.407000856972263 a3_x1
  +9.4188250932667614 a3_x2
  +9.7490010795163791 a3_x3
  +7.0450820339939781 a3_x4
  +9.9763761898407548 a3_x5
  +5.8473553548384958 a3_x6
  +49.073547744148975 a3_z1
  +13.999141819476126 a3_z2
  +1.9143138950663818 a4_x1
  +6.1042201720531999 a4_x2
  +2.2574896326389386 a4_x3
  +5.6594666769891386 a4_x4
  +4.3520497618016583 a4_x5
  +6.7823412192640848 a4_x6
  +29.956754589694771 a4_z1
  +32.972144993024642 a4_z2
  +1000000 short_1
  +1000000 surp_1
  +1000000 short_2
  +1000000 surp_2
  +1000000 short_3
  +1000000 surp_3

s.t.

a1_local_1: 
+0.71433844523206802 a1_x4
+0.58447109877792236 a1_x2
+0.38485597352355061 a1_x6
<= 73.865137022017976

a1_local_2: 
+0.70495917278386278 a1_x3
+0.31528735967011723 a1_x4
+0.63531602021367128 a1_x5
<= 69.54675831381239

a1_local_3: 
+0.41451117236781237 a1_x1
+0.72875843443075417 a1_x3
+0.54506112705667986 a1_x6
<= 87.912395772809759

a1_local_4: 
+0.46059081302182631 a1_x2
+0.40016831925090918 a1_x1
+0.79228872213846124 a1_x5
<= 79.077828965448631

a1_local_5: 
+0.39411578841246075 a1_x2
+0.64169752199966557 a1_x3
+0.65794911321736205 a1_x5
<= 72.13343835852352

a1_local_6: 
+0.66171173080293677 a1_x6
+0.46546895978685993 a1_x1
+0.58777226269425165 a1_x3
<= 89.471630655027894

a1_local_7: 
+0.67240197120697554 a1_x4
+0.544367334327856 a1_x2
+0.50153743074047608 a1_x5
<= 90.482465396498782

a1_local_8: 
+0.62146601471376828 a1_x6
+0.60662518643990138 a1_x2
+0.49576796561752662 a1_x4
<= 107.83159953146193

a1_act_1: 
+0.0099995000374968751 a1_x1
-0.99995000374968757 a1_z1
<= 0

a1_act_2: 
+0.0099995000374968751 a1_x2
-0.99995000374968757 a1_z2
<= 0

a2_local_1: 
+0.44885746616390765 a2_x2
+0.61687916725815728 a2_x6
+0.64651919389280244 a2_x5
<= 56.772926322447439

a2_local_2: 
+0.46823612257877845 a2_x1
+0.54938211080138299 a2_x4
+0.69205074224641072 a2_x5
<= 118.71935989283288

a2_local_3: 
+0.77440698609889347 a2_x2
+0.53778542616001079 a2_x5
+0.33328764647241821 a2_x1
<= 103.86364945294804

a2_local_4: 
+0.414685421461433 a2_x6
+0.79588688361712878 a2_x4
+0.44113497901840465 a2_x5
<= 61.595230409636869

a2_local_5: 
+0.40401631066425486 a2_x5
+0.74862317746819784 a2_x3
+0.52567495553303989 a2_x6
<= 86.736840247560025

a2_local_6: 
+0.65607633883902949 a2_x6
+0.45872831625651234 a2_x4
+0.59927637153490387 a2_x1
<= 90.216060324826714

a2_local_7: 
+0.56547167327310022 a2_x3
+0.5164528005730763 a2_x6
+0.64305387916250556 a2_x1
<= 80.627763816904007

a2_local_8: 
+0.56126493618842443 a2_x5
+0.56250289975453294 a2_x3
+0.60710144059551208 a2_x6
<= 120.39309652113241

a2_act_1: 
+0.0099995000374968734 a2_x1
-0.99995000374968745 a2_z1
<= 0

a2_act_2: 
+0.0099995000374968751 a2_x2
-0.99995000374968757 a2_z2
<= 0

a3_local_1: 
+0.68812236348274236 a3_x5
+0.46521836019664276 a3_x2
+0.5568298575066456 a3_x3
<= 66.223664011684178

a3_local_2: 
+0.66844458967972231 a3_x2
+0.43932232223429896 a3_x3
+0.60014808815372422 a3_x4
<= 86.581858359904544

a3_local_3: 
+0.34973093666598265 a3_x6
+0.71086290622709913 a3_x4
+0.6102148805864186 a3_x1
<= 114.64537337574727

a3_local_4: 
+0.63608518661876157 a3_x4
+0.71580316063459848 a3_x2
+0.28813446616067029 a3_x1
<= 80.742037538558179

a3_local_5: 
+0.31567127026281783 a3_x3
+0.61740789740806823 a3_x5
+0.72052698585743979 a3_x2
<= 81.793793350045235

a3_local_6: 
+0.63441264836813482 a3_x1
+0.57474358463614272 a3_x6
+0.51690463676593812 a3_x2
<= 78.331569061444355

a3_local_7: 
+0.54666872771579833 a3_x1
+0.72931960157448528 a3_x4
+0.4113954556103217 a3_x6
<= 57.594235780629887

a3_local_8: 
+0.74222403752031085 a3_x4
+0.35370848328944027 a3_x3
+0.56920452121898313 a3_x5
<= 105.84449907801232

a3_act_1: 
+0.0099995000374968734 a3_x1
-0.99995000374968745 a3_z1
<= 0

a3_act_2: 
+0.0099995000374968751 a3_x2
-0.99995000374968757 a3_z2
<= 0

a4_local_1: 
+0.65330116758955548 a4_x3
+0.49798456092255111 a4_x5
+0.57027095446717047 a4_x2
<= 109.99703619307682

a4_local_2: 
+0.76480237003958973 a4_x3
+0.35900619022984714 a4_x2
+0.53496905532794836 a4_x6
<= 56.991539039728181

a4_local_3: 
+0.38335425840995246 a4_x5
+0.5942148138736506 a4_x6
+0.70707019986141284 a4_x3
<= 98.662299008194381

a4_local_4: 
+0.57133602830775054 a4_x3
+0.53967723445066296 a4_x6
+0.61832323696688718 a4_x1
<= 117.54805813326774

a4_local_5: 
+0.67332326360099481 a4_x3
+0.69377176908360183 a4_x6
+0.25557095906286953 a4_x5
<= 83.856138928332882

a4_local_6: 
+0.49619066165061454 a4_x3
+0.51592854986444281 a4_x4
+0.69829260251380199 a4_x6
<= 100.26213658980785

a4_local_7: 
+0.53108373222857941 a4_x6
+0.475095023234826 a4_x3
+0.70159446139465964 a4_x1
<= 115.54890986260023

a4_local_8: 
+0.33016800447811762 a4_x1
+0.75046547554304976 a4_x6
+0.57253005059724327 a4_x3
<= 87.543224718461673

a4_act_1: 
+0.0099995000374968751 a4_x1
-0.99995000374968757 a4_z1
<= 0

a4_act_2: 
+0.0099995000374968768 a4_x2
-0.99995000374968768 a4_z2
<= 0

coupling_1: 
+7.5024240850425303e-05 a1_x1
+0.0010726080767610982 a2_x1
+0.022245559126674152 a3_x1
+0.99968198439213629 a4_x1
+0.0083638825977879524 short_1
-0.0083638825977879524 surp_1
= 51.627259802723664

coupling_2: 
+8.7134734147085514e-05 a1_x2
+0.00089100952700102334 a2_x2
+0.019863347679159694 a3_x2
+0.9997503144560802 a4_x2
+0.0072095309662360578 short_2
-0.0072095309662360578 surp_2
= 24.287341360054128

coupling_3: 
+6.2147865693256731e-05 a1_x3
+0.0022424252104808204 a2_x3
+0.023721250773526055 a3_x3
+0.99965082441834674 a4_x3
+0.0080777214694921166 short_3
-0.0080777214694921166 surp_3
= 61.674517309574327

bounds
  0 <= a1_x1 <= 100
  0 <= a1_x2 <= 100
  0 <= a1_x3 <= 100
  0 <= a1_x4 <= 100
  0 <= a1_x5 <= 100
  0 <= a1_x6 <= 100
  0 <= a2_x1 <= 100
  0 <= a2_x2 <= 100
  0 <= a2_x3 <= 100
  0 <= a2_x4 <= 100
  0 <= a2_x5 <= 100
  0 <= a2_x6 <= 100
  0 <= a3_x1 <= 100
  0 <= a3_x2 <= 100
  0 <= a3_x3 <= 100
  0 <= a3_x4 <= 100
  0 <= a3_x5 <= 100
  0 <= a3_x6 <= 100
  0 <= a4_x1 <= 100
  0 <= a4_x2 <= 100
  0 <= a4_x3 <= 100
  0 <= a4_x4 <= 100
  0 <= a4_x5 <= 100
  0 <= a4_x6 <= 100
  0 <= short_1 <= +inf
  0 <= surp_1 <= +inf
  0 <= short_2 <= +inf
  0 <= surp_2 <= +inf
  0 <= short_3 <= +inf
  0 <= surp_3 <= +inf
 0 <= a1_z1 <= 1
 0 <= a1_z2 <= 1
 0 <= a2_z1 <= 1
 0 <= a2_z2 <= 1
 0 <= a3_z1 <= 1
 0 <= a3_z2 <= 1
 0 <= a4_z1 <= 1
 0 <= a4_z2 <= 1

binary
  a1_z1
  a1_z2
  a2_z1
  a2_z2
  a3_z1
  a3_z2
  a4_z1
  a4_z2
end
