min
obj: 
  +2.8670230128866887 a1_x1
  +4.6121734767481746 a1_x2
  +8.3726653944305163 a1_x3
  +3.8874111784256438 a1_x4
  +3.5735214707131471 a1_x5
  +7.9063268225890937 a1_x6
  +32.521673256282952 a1_z1
  +46.9551209495583 a1_z2
  +1.341622492975389 a2_x1
  +5.0417707846324316 a2_x2
  +1.1098914253226899 a2_x3
  +7.5349912767704339 a2_x4
  +4.7451420176434915 a2_x5
  +4.9227196469025021 a2_x6
  +7.3717597202086891 a2_z1
  +32.23919956008293 a2_z2
  +7.1988333719011539 a3_x1
  +9.6965932883206509 a3_x2
  +2.6814504435085222 a3_x3
  +4.7418198986047297 a3_x4
  +5.4039251046059666 a3_x5
  +9.8502537099383343 a3_x6
  +17.992052798317559 a3_z1
  +28.73085531973274 a3_z2
  +5.3817190254650331 a4_x1
  +3.7297540390479749 a4_x2
  +6.6577904747627379 a4_x3
  +5.4304281417402382 a4_x4
  +9.7175944926778737 a4_x5
  +8.0479454867151716 a4_x6
  +7.8471654550187315 a4_z1
  +24.374477793367895 a4_z2
  +1000000 short_1
  +1000000 surp_1
  +1000000 short_2
  +1000000 surp_2
  +1000000 short_3
  +1000000 surp_3

s.t.

a1_local_1: 
+0.75472573801036935 a1_x3
+1.3249846263839231 a1_x1
+1.1772694049299153 a1_x2
<= 195.87654231011965

a1_local_2: 
+1.2031196616718665 a1_x4
+0.9036189190278342 a1_x6
+0.83117251912448209 a1_x2
<= 110.08493802765287

a1_local_3: 
+1.4577882851730786 a1_x3
+0.68597066540514362 a1_x4
+0.73088131078761553 a1_x1
<= 187.59801785197288

a1_local_4: 
+0.66872221773875973 a1_x3
+0.60839304254108095 a1_x6
+1.6436742863187435 a1_x1
<= 160.04410869507717

a1_local_5: 
+0.83167637709024866 a1_x5
+1.2023907706729127 a1_x1
+1.129227689859529 a1_x3
<= 161.33248219939512

a1_local_6: 
+1.1562019475051257 a1_x6
+0.93250323884611408 a1_x3
+0.8649008092036331 a1_x1
<= 134.95456953701813

a1_local_7: 
+0.85552678483154154 a1_x4
+1.1688704757465964 a1_x3
+1.0681992372289686 a1_x6
<= 107.08219069546786

a1_local_8: 
+0.91465463065916686 a1_x6
+1.1288432845142702 a1_x3
+0.88586255835351857 a1_x2
<= 107.68454446858951

a1_act_1: 
+0.063506231441481889 a1_x1
-6.3506231441481891 a1_z1
<= 0

a1_act_2: 
+0.10000000000000001 a1_x2
-10 a1_z2
<= 0

a2_local_1: 
+0.80143586396699207 a2_x3
+1.2477604821053851 a2_x1
+1.035798582800223 a2_x4
<= 139.46428594288733

a2_local_2: 
+1.2640844113347434 a2_x3
+0.79108641087038056 a2_x4
+0.91668418827015508 a2_x1
<= 193.36213054034604

a2_local_3: 
+0.73450215460200563 a2_x2
+1.0235462810180607 a2_x5
+1.3614663942570135 a2_x6
<= 190.73097966050113

a2_local_4: 
+1.3541294893965932 a2_x3
+1.1923220509021921 a2_x4
+0.93249093036185049 a2_x2
<= 209.35506788360527

a2_local_5: 
+0.72994684638846874 a2_x3
+1.1176634644129735 a2_x5
+1.3699627650255133 a2_x6
<= 201.32238012683078

a2_local_6: 
+0.65532467351982349 a2_x2
+1.5259611615550595 a2_x5
+0.81324738353424642 a2_x1
<= 201.11392634011281

a2_local_7: 
+0.79411719683566373 a2_x6
+1.2592599731937832 a2_x2
+0.85221890163606628 a2_x5
<= 141.52401830525278

a2_local_8: 
+0.89561606987628661 a2_x2
+1.201402183111101 a2_x4
+0.83236073153325041 a2_x6
<= 191.79833654773429

a2_act_1: 
+0.10000000000000001 a2_x1
-10 a2_z1
<= 0

a2_act_2: 
+0.10000000000000001 a2_x2
-10.000000000000002 a2_z2
<= 0

a3_local_1: 
+0.85396775625603771 a3_x6
+1.1710043999602471 a3_x2
+0.85954162289799763 a3_x1
<= 147.74637758957081

a3_local_2: 
+1.2072508971605416 a3_x3
+0.82832823098496233 a3_x1
+0.96282836761533941 a3_x4
<= 172.85837826659767

a3_local_3: 
+1.0224101848897671 a3_x4
+0.82643913357730203 a3_x1
+1.2100104646199741 a3_x6
<= 178.26601003975492

a3_local_4: 
+1.1841687612627603 a3_x1
+1.1921296992425841 a3_x3
+0.83883490247357062 a3_x5
<= 117.93568821226445

a3_local_5: 
+0.59863986406980207 a3_x5
+1.2708544999280318 a3_x4
+1.6704534061624048 a3_x6
<= 152.73533086485196

a3_local_6: 
+0.76733689581740505 a3_x2
+1.268238220409037 a3_x3
+1.3032085456216078 a3_x6
<= 178.51091042586629

a3_local_7: 
+1.200640685994802 a3_x4
+0.69594678063841831 a3_x1
+1.4368914805276665 a3_x2
<= 179.02285078260152

a3_local_8: 
+1.4574321732654951 a3_x2
+0.6861382768567672 a3_x1
+1.0737263195337501 a3_x5
<= 105.29182547463813

a3_act_1: 
+0.10000000000000001 a3_x1
-10 a3_z1
<= 0

a3_act_2: 
+0.099999999999999992 a3_x2
-10 a3_z2
<= 0

a4_local_1: 
+0.74796130182463094 a4_x1
+1.3369675644455503 a4_x4
+1.0040065975893777 a4_x3
<= 123.78675764172856

a4_local_2: 
+1.1768083834065994 a4_x1
+0.8497560130437054 a4_x6
+0.87646179667627677 a4_x3
<= 136.1979268803492

a4_local_3: 
+1.0771910329680101 a4_x2
+0.67935411715235661 a4_x5
+1.4719863687463794 a4_x1
<= 183.99945455645155

a4_local_4: 
+0.81124402459131395 a4_x5
+0.83831920664339388 a4_x4
+1.2326747189340186 a4_x3
<= 124.58661322045066

a4_local_5: 
+0.69082944963965476 a4_x1
+1.2521136485244229 a4_x4
+1.4475352788182563 a4_x2
<= 137.28956165673949

a4_local_6: 
+1.1374157169987702 a4_x4
+1.3509815986545359 a4_x2
+0.74020253199297159 a4_x6
<= 164.5336148342621

a4_local_7: 
+0.88127640658120254 a4_x2
+0.94058996728456101 a4_x1
+1.1347177713282606 a4_x3
<= 142.3323468047634

a4_local_8: 
+1.1863461384952074 a4_x1
+0.74023993197972593 a4_x2
+1.3509133414696524 a4_x5
<= 213.58129372300101

a4_act_1: 
+0.12433034612835597 a4_x1
-12.433034612835597 a4_z1
<= 0

a4_act_2: 
+0.099999999999999992 a4_x2
-10 a4_z2
<= 0

coupling_1: 
+0.00013454529253835196 a1_x1
+0.0024126674221861132 a2_x1
+0.051057606203977382 a3_x1
+1.113478649166445 a4_x1
+0.0091191735926637214 short_1
-0.0091191735926637214 surp_1
= 29.215763048847602

coupling_2: 
+9.7905270228851413e-05 a1_x2
+0.0025089897970419833 a2_x2
+0.076185973065175494 a3_x2
+1.1115397947275147 a4_x2
+0.014596370034833944 short_2
-0.014596370034833944 surp_2
= 27.010012586445882

coupling_3: 
+0.00025103000327218126 a1_x3
+0.0052428058631391822 a2_x3
+0.08476077547833398 a3_x3
+1.110656817882111 a4_x3
+0.017082172136269294 short_3
-0.017082172136269294 surp_3
= 24.726385712683157

bounds
  0 <= a1_x1 <= 100
  0 <= a1_x2 <= 100
  0 <= a1_x3 <= 100
  0 <= a1_x4 <= 100
  0 <= a1_x5 <= 100
  0 <= a1_x6 <= 100
  0 <= a2_x1 <= 100
  0 <= a2_x2 <= 100
  0 <= a2_x3 <= 100
  0 <= a2_x4 <= 100
  0 <= a2_x5 <= 100
  0 <= a2_x6 <= 100
  0 <= a3_x1 <= 100
  0 <= a3_x2 <= 100
  0 <= a3_x3 <= 100
  0 <= a3_x4 <= 100
  0 <= a3_x5 <= 100
  0 <= a3_x6 <= 100
  0 <= a4_x1 <= 100
  0 <= a4_x2 <= 100
  0 <= a4_x3 <= 100
  0 <= a4_x4 <= 100
  0 <= a4_x5 <= 100
  0 <= a4_x6 <= 100
  0 <= short_1 <= +inf
  0 <= surp_1 <= +inf
  0 <= short_2 <= +inf
  0 <= surp_2 <= +inf
  0 <= short_3 <= +inf
  0 <= surp_3 <= +inf
 0 <= a1_z1 <= 1
 0 <= a1_z2 <= 1
 0 <= a2_z1 <= 1
 0 <= a2_z2 <= 1
 0 <= a3_z1 <= 1
 0 <= a3_z2 <= 1
 0 <= a4_z1 <= 1
 0 <= a4_z2 <= 1

binary
  a1_z1
  a1_z2
  a2_z1
  a2_z2
  a3_z1
  a3_z2
  a4_z1
  a4_z2
end
