min
obj: 
  +4.0092711480649195 a1_x1
  +1.9679731558453351 a1_x2
  +5.1245063990813229 a1_x3
  +5.3289660462088069 a1_x4
  +7.7326436197250805 a1_x5
  +5.1395422066191525 a1_x6
  +7.4601303692563201 a1_z1
  +49.872667351617643 a1_z2
  +9.3684343534405965 a2_x1
  +1.0573707236444929 a2_x2
  +6.6071911877442115 a2_x3
  +2.1574642417771144 a2_x4
  +4.0288495580936399 a2_x5
  +6.5816021448275457 a2_x6
  +37.186317612242192 a2_z1
  +14.569927030673126 a2_z2
  +7.5771846442232071 a3_x1
  +6.3254671996139473 a3_x2
  +1.3182946718516668 a3_x3
  +2.4508427443497842 a3_x4
  +7.5821505201430535 a3_x5
  +8.0396019839617026 a3_x6
  +34.570982164584187 a3_z1
  +17.019236119633661 a3_z2
  +9.6576292080467585 a4_x1
  +1.0103892115093069 a4_x2
  +8.2624531172852755 a4_x3
  +1.8717492610420641 a4_x4
  +5.7231033614351237 a4_x5
  +2.0382344427317065 a4_x6
  +33.41705432517788 a4_z1
  +11.211459891146486 a4_z2
  +1000000 short_1
  +1000000 surp_1
  +1000000 short_2
  +1000000 surp_2
  +1000000 short_3
  +1000000 surp_3

s.t.

a1_local_1: 
+0.78148208496250937 a1_x3
+0.3320120804870641 a1_x6
+0.52825536371465343 a1_x4
<= 62.059018921159925

a1_local_2: 
+0.82850689794525345 a1_x4
+0.45899830670512559 a1_x6
+0.32077542689389565 a1_x2
<= 91.172631314095739

a1_local_3: 
+0.35073671583835064 a1_x6
+0.59314807322054053 a1_x4
+0.31000498674640209 a1_x1
<= 79.604010838483305

a1_local_4: 
+0.51721050820825065 a1_x2
+0.61058510634536678 a1_x5
+0.59973253881057687 a1_x3
<= 116.6021027444082

a1_local_5: 
+0.78788977519871017 a1_x1
+0.35732272634753814 a1_x4
+0.50154777576307552 a1_x2
<= 112.71252122071358

a1_local_6: 
+0.65598510136492916 a1_x1
+0.67245144267999746 a1_x3
+0.34277194171173625 a1_x6
<= 104.32958719544153

a1_local_7: 
+0.43751232582857641 a1_x2
+0.70564966142939822 a1_x5
+0.55735224057380928 a1_x4
<= 94.597837902262953

a1_local_8: 
+0.51093370724646558 a1_x4
+0.79654162038621523 a1_x5
+0.32321539844488512 a1_x6
<= 84.492687710359377

a1_act_1: 
+0.0099995000374968751 a1_x1
-0.99995000374968745 a1_z1
<= 0

a1_act_2: 
+0.0099995000374968751 a1_x2
-0.99995000374968757 a1_z2
<= 0

a2_local_1: 
+0.38210255802832643 a2_x4
+0.72087130775669528 a2_x2
+0.57822330703748115 a2_x6
<= 97.014552588364424

a2_local_2: 
+0.52120176967801146 a2_x1
+0.71917277819711234 a2_x4
+0.45949889051526149 a2_x5
<= 109.18804207531662

a2_local_3: 
+0.52461682870637982 a2_x4
+0.38778363135704452 a2_x5
+0.75789249784491519 a2_x3
<= 106.70841600536654

a2_local_4: 
+0.64829000143276161 a2_x2
+0.43879281768829248 a2_x1
+0.62223864970562437 a2_x5
<= 78.142518947871693

a2_local_5: 
+0.6009339641661483 a2_x2
+0.37891042526939889 a2_x3
+0.70377926961066539 a2_x6
<= 94.924375496616051

a2_local_6: 
+0.59465521118310694 a2_x6
+0.42678360136503857 a2_x5
+0.68135228583946383 a2_x2
<= 94.872889539348151

a2_local_7: 
+0.70956674119344976 a2_x2
+0.48423736588227223 a2_x5
+0.51188789131557511 a2_x6
<= 113.72841731790142

a2_local_8: 
+0.67651343220211613 a2_x2
+0.55603899934845002 a2_x4
+0.48285630083254316 a2_x5
<= 113.90943495750734

a2_act_1: 
+0.0099995000374968751 a2_x1
-0.99995000374968745 a2_z1
<= 0

a2_act_2: 
+0.0099995000374968734 a2_x2
-0.99995000374968745 a2_z2
<= 0

a3_local_1: 
+0.49468250114607065 a3_x1
+0.41145761448933227 a3_x2
+0.7655010480323432 a3_x6
<= 75.497628679798211

a3_local_2: 
+0.46662846550291309 a3_x2
+0.38557347806034403 a3_x1
+0.7959842763515157 a3_x6
<= 70.957978463933372

a3_local_3: 
+0.49835127935034823 a3_x1
+0.38496605246954757 a3_x5
+0.77681860225916632 a3_x2
<= 85.990269209633823

a3_local_4: 
+0.43162885350286873 a3_x4
+0.65674618696769393 a3_x6
+0.61836961336016016 a3_x5
<= 109.59483677186165

a3_local_5: 
+0.493362830955478 a3_x4
+0.72460937963388761 a3_x1
+0.48118017828895315 a3_x5
<= 55.296011451709674

a3_local_6: 
+0.44965280641505956 a3_x5
+0.25502481018866996 a3_x6
+0.23142252754342621 a3_x1
<= 55.169362909095767

a3_local_7: 
+0.46854196695973055 a3_x6
+0.57841122714162529 a3_x1
+0.66776408821830624 a3_x4
<= 107.56668345962112

a3_local_8: 
+0.54881279298141439 a3_x3
+0.70419164456558436 a3_x1
+0.45046492203495364 a3_x6
<= 69.389880949788761

a3_act_1: 
+0.0099995000374968751 a3_x1
-0.99995000374968745 a3_z1
<= 0

a3_act_2: 
+0.0099995000374968751 a3_x2
-0.99995000374968757 a3_z2
<= 0

a4_local_1: 
+0.51419106913609902 a4_x3
+0.49951346644504346 a4_x2
+0.69720430381684528 a4_x5
<= 101.95027777521908

a4_local_2: 
+0.31264890934173256 a4_x2
+0.61642671719781394 a4_x5
+0.72268164623999653 a4_x3
<= 114.27848648297957

a4_local_3: 
+0.83160858398989934 a4_x4
+0.38857517482686521 a4_x5
+0.39678268175738912 a4_x2
<= 54.811034290133627

a4_local_4: 
+0.60294574131329626 a4_x5
+0.61426306685376231 a4_x3
+0.50905531893063438 a4_x1
<= 57.12253233312488

a4_local_5: 
+0.50491806736059985 a4_x5
+0.77040214169723154 a4_x6
+0.389279186858424 a4_x1
<= 89.357969154022584

a4_local_6: 
+1.4036224202640484 a4_x3
+0.63442720463063595 a4_x2
+0.81325515595465636 a4_x1
<= 139.84681441562898

a4_local_7: 
+0.42261030873506084 a4_x1
+0.37320564837512737 a4_x2
+0.82590439578183461 a4_x3
<= 99.069870058505714

a4_local_8: 
+0.54374728417934892 a4_x3
+0.38860856809788336 a4_x1
+0.59859247639862134 a4_x4
<= 87.993364768374548

a4_act_1: 
+0.0099995000374968751 a4_x1
-0.99995000374968745 a4_z1
<= 0

a4_act_2: 
+0.0099995000374968751 a4_x2
-0.99995000374968745 a4_z2
<= 0

coupling_1: 
+0.00018907482042395128 a1_x1
+0.0052283647996878577 a2_x1
+0.11393968370549566 a3_x1
+0.99319142028732477 a4_x1
+0.016750814860359356 short_1
-0.016750814860359356 surp_1
= 62.912467276681873

coupling_2: 
+8.6000912183733567e-05 a1_x2
+0.0016961791818013625 a2_x2
+0.029903643768237714 a3_x2
+0.99943804348597665 a4_x2
+0.010641543645820836 short_2
-0.010641543645820836 surp_2
= 56.633724417336843

coupling_3: 
+9.279613784121324e-05 a1_x3
+0.0013315453994307248 a2_x3
+0.041063667298637134 a3_x3
+0.99901976123548419 a4_x3
+0.011651400446059413 short_3
-0.011651400446059413 surp_3
= 22.726865141193308

bounds
  0 <= a1_x1 <= 100
  0 <= a1_x2 <= 100
  0 <= a1_x3 <= 100
  0 <= a1_x4 <= 100
  0 <= a1_x5 <= 100
  0 <= a1_x6 <= 100
  0 <= a2_x1 <= 100
  0 <= a2_x2 <= 100
  0 <= a2_x3 <= 100
  0 <= a2_x4 <= 100
  0 <= a2_x5 <= 100
  0 <= a2_x6 <= 100
  0 <= a3_x1 <= 100
  0 <= a3_x2 <= 100
  0 <= a3_x3 <= 100
  0 <= a3_x4 <= 100
  0 <= a3_x5 <= 100
  0 <= a3_x6 <= 100
  0 <= a4_x1 <= 100
  0 <= a4_x2 <= 100
  0 <= a4_x3 <= 100
  0 <= a4_x4 <= 100
  0 <= a4_x5 <= 100
  0 <= a4_x6 <= 100
  0 <= short_1 <= +inf
  0 <= surp_1 <= +inf
  0 <= short_2 <= +inf
  0 <= surp_2 <= +inf
  0 <= short_3 <= +inf
  0 <= surp_3 <= +inf
 0 <= a1_z1 <= 1
 0 <= a1_z2 <= 1
 0 <= a2_z1 <= 1
 0 <= a2_z2 <= 1
 0 <= a3_z1 <= 1
 0 <= a3_z2 <= 1
 0 <= a4_z1 <= 1
 0 <= a4_z2 <= 1

binary
  a1_z1
  a1_z2
  a2_z1
  a2_z2
  a3_z1
  a3_z2
  a4_z1
  a4_z2
end
