min
obj: 
  +2.370294118728955 a1_x1
  +4.0871141162290519 a1_x2
  +7.6613663727576089 a1_x3
  +4.8999168943267346 a1_x4
  +9.1856075433138287 a1_x5
  +7.8055232956727103 a1_x6
  +17.430873114549655 a1_z1
  +23.402378726140935 a1_z2
  +7.7696749959897602 a2_x1
  +1.8033642153830525 a2_x2
  +9.5715816001394138 a2_x3
  +5.6582749389411147 a2_x4
  +2.4417372334426313 a2_x5
  +7.2729933705310286 a2_x6
  +31.321727314252385 a2_z1
  +17.358761230317288 a2_z2
  +2.3493759750782877 a3_x1
  +3.4440486133066264 a3_x2
  +8.9723629811002734 a3_x3
  +1.1828241076108115 a3_x4
  +8.9432908674835829 a3_x5
  +1.7190508218957756 a3_x6
  +16.001764697499688 a3_z1
  +34.61198408971174 a3_z2
  +6.5610669509273256 a4_x1
  +3.9905359855651432 a4_x2
  +4.1004087373899605 a4_x3
  +4.8874480478433391 a4_x4
  +2.9132673248674479 a4_x5
  +5.3684179760125765 a4_x6
  +43.700484803270278 a4_z1
  +7.0959851654145574 a4_z2
  +1000000 short_1
  +1000000 surp_1
  +1000000 short_2
  +1000000 surp_2
  +1000000 short_3
  +1000000 surp_3

s.t.

a1_local_1: 
+0.77241195716615829 a1_x3
+0.55510986696212827 a1_x2
+0.30859812706501172 a1_x1
<= 114.44416748198476

a1_local_2: 
+0.76791484251516662 a1_x6
+0.4566369043133468 a1_x3
+0.44920989778057019 a1_x2
<= 51.838027079838326

a1_local_3: 
+0.57353003939573333 a1_x4
+0.66341421880025586 a1_x3
+0.48056723588315414 a1_x6
<= 52.862756827297559

a1_local_4: 
+0.43063763239582575 a1_x5
+0.81322607193567853 a1_x3
+0.39142634746345883 a1_x6
<= 88.18897862939329

a1_local_5: 
+0.7593886822729834 a1_x3
+0.57498645125237891 a1_x5
+0.3044986208702713 a1_x4
<= 99.342259575111996

a1_local_6: 
+0.74094541606884656 a1_x3
+0.53463991929925525 a1_x1
+0.40639887684176718 a1_x6
<= 83.734928132956199

a1_local_7: 
+0.52339568222869337 a1_x6
+0.6142377409339782 a1_x1
+0.59056664097854683 a1_x4
<= 79.541278891571764

a1_local_8: 
+0.34141239162707671 a1_x3
+0.52004595972523404 a1_x2
+0.55714799710601515 a1_x4
<= 51.752087909826052

a1_act_1: 
+0.0099995000374968768 a1_x1
-0.99995000374968757 a1_z1
<= 0

a1_act_2: 
+0.0099995000374968768 a1_x2
-0.99995000374968757 a1_z2
<= 0

a2_local_1: 
+0.60791199623513237 a2_x3
+0.71091188389924798 a2_x2
+0.35362027397229145 a2_x1
<= 105.92391400569635

a2_local_2: 
+0.27298831903800402 a2_x6
+0.64549758915640554 a2_x2
+0.71330935789604877 a2_x1
<= 104.22922886545705

a2_local_3: 
+0.46614415501724021 a2_x2
+0.7710727912620603 a2_x3
+0.43376995898586418 a2_x1
<= 93.242355106820014

a2_local_4: 
+0.55747467419237706 a2_x1
+0.53453374855096436 a2_x4
+0.63521308180338765 a2_x5
<= 97.956718183504918

a2_local_5: 
+0.73739244477898214 a2_x1
+1.1095937366170132 a2_x6
+0.99383786257801909 a2_x3
<= 87.915540818851497

a2_local_6: 
+0.45672210821443548 a2_x1
+0.37229940364563713 a2_x6
+0.80795920064893401 a2_x2
<= 79.820062261628081

a2_local_7: 
+0.55712484542162333 a2_x3
+0.50111201771719893 a2_x2
+0.66219230765188575 a2_x4
<= 70.751625411195803

a2_local_8: 
+0.40229894530067339 a2_x4
+0.20721214513683575 a2_x3
+0.35523275272223531 a2_x1
<= 58.318328291551943

a2_act_1: 
+0.0065671735624934805 a2_x1
-0.65671735624934802 a2_z1
<= 0

a2_act_2: 
+0.0099995000374968768 a2_x2
-0.99995000374968757 a2_z2
<= 0

a3_local_1: 
+0.46731663203920332 a3_x5
+0.31402123127994835 a3_x4
+0.82644166867659874 a3_x2
<= 72.167649080712309

a3_local_2: 
+0.6236432264172822 a3_x4
+0.45102014007742147 a3_x5
+0.63847471319417637 a3_x3
<= 86.233261316244366

a3_local_3: 
+0.61873482797448975 a3_x4
+0.32757898195559443 a3_x3
+0.71404427259961634 a3_x6
<= 70.380977330587385

a3_local_4: 
+0.51561991303265631 a3_x4
+0.54327962890760972 a3_x5
+0.66255818619816775 a3_x2
<= 94.768203938537766

a3_local_5: 
+0.72715879570718145 a3_x4
+0.28550485592540154 a3_x6
+0.62428123715894046 a3_x5
<= 67.364338951685255

a3_local_6: 
+0.56936091402592692 a3_x1
+0.54563177164048948 a3_x5
+0.61490984652713276 a3_x3
<= 57.308230221214551

a3_local_7: 
+0.53565463193328722 a3_x6
+0.41952980869997958 a3_x4
+0.73284981742548938 a3_x1
<= 63.639564450695779

a3_local_8: 
+0.68674676701610349 a3_x4
+0.33557359090746147 a3_x2
+0.64480170834016959 a3_x1
<= 105.44400300835245

a3_act_1: 
+0.0099995000374968751 a3_x1
-0.99995000374968745 a3_z1
<= 0

a3_act_2: 
+0.0078713682942155375 a3_x2
-0.78713682942155372 a3_z2
<= 0

a4_local_1: 
+0.53699798738911919 a4_x5
+0.67419212866122302 a4_x2
+0.50704845448071745 a4_x1
<= 114.95931583434505

a4_local_2: 
+0.61966013127884112 a4_x4
+0.33982951438988573 a4_x2
+0.70748655312523356 a4_x6
<= 104.06051717473622

a4_local_3: 
+0.69341408287709871 a4_x1
+0.49508363420821427 a4_x3
+0.52351609794437015 a4_x6
<= 84.80991781402912

a4_local_4: 
+0.50648080789037353 a4_x3
+0.66772172345937819 a4_x4
+0.54555008134831418 a4_x1
<= 103.81404019922495

a4_local_5: 
+0.56772055481155237 a4_x6
+0.58650938541563646 a4_x3
+0.31032034814233328 a4_x4
<= 70.056057582874885

a4_local_6: 
+0.38576832624855312 a4_x5
+0.82625073302251495 a4_x4
+0.41047840947258923 a4_x2
<= 90.857914565919657

a4_local_7: 
+0.6848141405952678 a4_x6
+0.49666124622017865 a4_x2
+0.53325153477864828 a4_x4
<= 116.05198771488715

a4_local_8: 
+0.39801599426753947 a4_x6
+0.65454914870586722 a4_x2
+0.64276642743351675 a4_x1
<= 61.266852530882488

a4_act_1: 
+0.0099995000374968768 a4_x1
-0.99995000374968768 a4_z1
<= 0

a4_act_2: 
+0.0099995000374968734 a4_x2
-0.99995000374968745 a4_z2
<= 0

coupling_1: 
+6.3275198168614825e-05 a1_x1
+0.0022125586912657138 a2_x1
+0.041653607020145894 a3_x1
+0.99907461762202643 a4_x1
+0.0074157274053109823 short_1
-0.0074157274053109823 surp_1
= 21.835117136786579

coupling_2: 
+7.4070039466325635e-05 a1_x2
+0.0023240558266572893 a2_x2
+0.042944435929665098 a3_x2
+0.99901514492384169 a4_x2
+0.0077171534137381332 short_2
-0.0077171534137381332 surp_2
= 82.020878873175008

coupling_3: 
+5.1078618934156918e-05 a1_x3
+0.00118115397848636 a2_x3
+0.05132460219780479 a3_x3
+0.99861011693906832 a4_x3
+0.0084327285747656418 short_3
-0.0084327285747656418 surp_3
= 58.435156759906263

bounds
  0 <= a1_x1 <= 100
  0 <= a1_x2 <= 100
  0 <= a1_x3 <= 100
  0 <= a1_x4 <= 100
  0 <= a1_x5 <= 100
  0 <= a1_x6 <= 100
  0 <= a2_x1 <= 100
  0 <= a2_x2 <= 100
  0 <= a2_x3 <= 100
  0 <= a2_x4 <= 100
  0 <= a2_x5 <= 100
  0 <= a2_x6 <= 100
  0 <= a3_x1 <= 100
  0 <= a3_x2 <= 100
  0 <= a3_x3 <= 100
  0 <= a3_x4 <= 100
  0 <= a3_x5 <= 100
  0 <= a3_x6 <= 100
  0 <= a4_x1 <= 100
  0 <= a4_x2 <= 100
  0 <= a4_x3 <= 100
  0 <= a4_x4 <= 100
  0 <= a4_x5 <= 100
  0 <= a4_x6 <= 100
  0 <= short_1 <= +inf
  0 <= surp_1 <= +inf
  0 <= short_2 <= +inf
  0 <= surp_2 <= +inf
  0 <= short_3 <= +inf
  0 <= surp_3 <= +inf
 0 <= a1_z1 <= 1
 0 <= a1_z2 <= 1
 0 <= a2_z1 <= 1
 0 <= a2_z2 <= 1
 0 <= a3_z1 <= 1
 0 <= a3_z2 <= 1
 0 <= a4_z1 <= 1
 0 <= a4_z2 <= 1

binary
  a1_z1
  a1_z2
  a2_z1
  a2_z2
  a3_z1
  a3_z2
  a4_z1
  a4_z2
end
