min
obj: 
  +9.9278906915658744 a1_x1
  +4.1029321056614965 a1_x2
  +3.3290118192963942 a1_x3
  +9.1017647242801925 a1_x4
  +1.0276781995025082 a1_x5
  +7.5015228430107515 a1_x6
  +48.476105885704612 a1_z1
  +46.462393702811802 a1_z2
  +3.1850077691017789 a2_x1
  +1.0794293017939207 a2_x2
  +3.499564475939096 a2_x3
  +4.2123952542391079 a2_x4
  +5.825176560091875 a2_x5
  +3.8934254066749405 a2_x6
  +48.499085817086311 a2_z1
  +41.1366386984797 a2_z2
  +2.6719241979528361 a3_x1
  +3.8682188322270532 a3_x2
  +5.9140343670384405 a3_x3
  +8.8118059009872773 a3_x4
  +5.9790956134935263 a3_x5
  +2.6868556403382673 a3_x6
  +5.1863767770133045 a3_z1
  +6.8806666184499186 a3_z2
  +1.2856225251920637 a4_x1
  +5.2994894770405514 a4_x2
  +9.0295106348529277 a4_x3
  +3.0822666442565567 a4_x4
  +2.1929853575171814 a4_x5
  +7.0676293507155048 a4_x6
  +41.576942647234446 a4_z1
  +44.440960753164354 a4_z2
  +1000000 short_1
  +1000000 surp_1
  +1000000 short_2
  +1000000 surp_2
  +1000000 short_3
  +1000000 surp_3

s.t.

a1_local_1: 
+0.64487030906653131 a1_x4
+0.62715795005958974 a1_x6
+0.4368239807536779 a1_x1
<= 68.134168933867855

a1_local_2: 
+0.44737937552888835 a1_x6
+0.53786898669433547 a1_x5
+0.71452686968636148 a1_x4
<= 75.808377004217988

a1_local_3: 
+0.37112171299084845 a1_x3
+0.30017762196443099 a1_x1
+0.24471218485946727 a1_x6
<= 54.40187536083743

a1_local_4: 
+0.64076899997732262 a1_x5
+0.67641350257041111 a1_x2
+0.36315267066137691 a1_x4
<= 70.831046148713071

a1_local_5: 
+0.39715983147360528 a1_x4
+0.78120394458983666 a1_x2
+0.48164765671716581 a1_x5
<= 99.004582765784747

a1_local_6: 
+0.68485032841912163 a1_x3
+0.64617948147040327 a1_x4
+0.33679683102853297 a1_x1
<= 64.223494376359142

a1_local_7: 
+0.66021050181277297 a1_x1
+0.49253464439347366 a1_x2
+0.56703766838572633 a1_x5
<= 90.782935610441271

a1_local_8: 
+0.60048625924283972 a1_x5
+0.64977477468682565 a1_x2
+0.46605685773436029 a1_x4
<= 77.921614892845625

a1_act_1: 
+0.0099995000374968734 a1_x1
-0.99995000374968745 a1_z1
<= 0

a1_act_2: 
+0.0099995000374968768 a1_x2
-0.99995000374968757 a1_z2
<= 0

a2_local_1: 
+0.5603401064240896 a2_x6
+0.34159450233765348 a2_x4
+0.80568611668270007 a2_x1
<= 113.17466855697751

a2_local_2: 
+0.61132284953184857 a2_x2
+0.59031462912152299 a2_x1
+0.52707970202368792 a2_x4
<= 96.28268277894415

a2_local_3: 
+0.65523060180262305 a2_x3
+0.67391663327311346 a2_x4
+0.34133448384129672 a2_x5
<= 116.08739757168594

a2_local_4: 
+0.37959269927598355 a2_x4
+0.65057410562144447 a2_x3
+0.65777102075967919 a2_x2
<= 62.48585103869074

a2_local_5: 
+0.62579411179431621 a2_x1
+0.41209212010096369 a2_x4
+0.66223999742861805 a2_x2
<= 73.794909766482036

a2_local_6: 
+0.3606370966657349 a2_x3
+0.74443169307690971 a2_x5
+0.56192734303569447 a2_x1
<= 105.77715627541777

a2_local_7: 
+0.44695403758900681 a2_x3
+0.5742135343598358 a2_x6
+0.68593797477677976 a2_x4
<= 112.35119026785895

a2_local_8: 
+0.36920009809370363 a2_x1
+0.67567846720478297 a2_x6
+0.63808298560876431 a2_x5
<= 98.825472889705409

a2_act_1: 
+0.0099995000374968768 a2_x1
-0.99995000374968757 a2_z1
<= 0

a2_act_2: 
+0.0099995000374968734 a2_x2
-0.99995000374968745 a2_z2
<= 0

a3_local_1: 
+0.71358288090222222 a3_x1
+0.63176022955442335 a3_x4
+0.3027845511855371 a3_x2
<= 63.469987965614024

a3_local_2: 
+0.38781087529701175 a3_x6
+0.70025373615686692 a3_x4
+0.59937253023450665 a3_x1
<= 65.660705588808852

a3_local_3: 
+0.78080195138319808 a3_x2
+0.4795159479683162 a3_x3
+0.40051562810986191 a3_x5
<= 86.885049796609493

a3_local_4: 
+0.39338963232188406 a3_x5
+0.70881497427790463 a3_x1
+0.58551338961723698 a3_x6
<= 75.486347171319736

a3_local_5: 
+0.56253379692003902 a3_x6
+0.39202186068769773 a3_x3
+0.72792485056197909 a3_x1
<= 64.080460403783235

a3_local_6: 
+0.5268372892195714 a3_x2
+0.64773196948122647 a3_x6
+0.55035058499082656 a3_x4
<= 71.162242291632211

a3_local_7: 
+0.65210837055157023 a3_x2
+0.30770131147342572 a3_x5
+0.69287414151064253 a3_x4
<= 87.701227779133248

a3_local_8: 
+0.61440012342858352 a3_x2
+0.66150209910170144 a3_x1
+0.4300319304598022 a3_x5
<= 105.99279894451459

a3_act_1: 
+0.0099995000374968768 a3_x1
-0.99995000374968757 a3_z1
<= 0

a3_act_2: 
+0.0099995000374968751 a3_x2
-0.99995000374968757 a3_z2
<= 0

a4_local_1: 
+0.68398731547087077 a4_x2
+0.30701050273891406 a4_x6
+0.66174459082258519 a4_x5
<= 108.65450007313821

a4_local_2: 
+0.29355431155367595 a4_x3
+0.7437832093568213 a4_x5
+0.60051011952099065 a4_x1
<= 94.295715234906453

a4_local_3: 
+0.46504008228414995 a4_x4
+0.66662887429837736 a4_x3
+0.58253211569906538 a4_x6
<= 105.22686396257046

a4_local_4: 
+0.73273612164256774 a4_x5
+0.47968518718265601 a4_x1
+0.48270062900077965 a4_x4
<= 81.744403272861263

a4_local_5: 
+0.44154259406591373 a4_x5
+0.79200384505297172 a4_x6
+0.4216278537369797 a4_x1
<= 101.92063285757358

a4_local_6: 
+0.60353779186966161 a4_x4
+0.60342364200718224 a4_x3
+0.52117371581065086 a4_x2
<= 72.145994422269737

a4_local_7: 
+0.49161390536252247 a4_x3
+0.78464791920210564 a4_x6
+0.37768162643424236 a4_x1
<= 100.56889343927341

a4_local_8: 
+0.54785981381314153 a4_x3
+0.56789266677678474 a4_x2
+0.61428620644597087 a4_x6
<= 65.765067917168679

a4_act_1: 
+0.0099995000374968768 a4_x1
-0.99995000374968757 a4_z1
<= 0

a4_act_2: 
+0.0099995000374968734 a4_x2
-0.99995000374968745 a4_z2
<= 0

coupling_1: 
+8.4546473164180336e-05 a1_x1
+0.002340616447798937 a2_x1
+0.044943744272829662 a3_x1
+0.99891106696847975 a4_x1
+0.0086963930790366611 short_1
-0.0086963930790366611 surp_1
= 30.545377126305286

coupling_2: 
+0.00012935937464519289 a1_x2
+0.0021397975108925047 a2_x2
+0.1071536304560924 a3_x2
+0.99391305499049099 a4_x2
+0.018032514138538375 short_2
-0.018032514138538375 surp_2
= 62.032401950540802

coupling_3: 
+5.3696601465402225e-05 a1_x3
+0.00086200777755901579 a2_x3
+0.032191037828523887 a3_x3
+0.99943339857216729 a4_x3
+0.0069236175976320367 short_3
-0.0069236175976320367 surp_3
= 36.619783081078083

bounds
  0 <= a1_x1 <= 100
  0 <= a1_x2 <= 100
  0 <= a1_x3 <= 100
  0 <= a1_x4 <= 100
  0 <= a1_x5 <= 100
  0 <= a1_x6 <= 100
  0 <= a2_x1 <= 100
  0 <= a2_x2 <= 100
  0 <= a2_x3 <= 100
  0 <= a2_x4 <= 100
  0 <= a2_x5 <= 100
  0 <= a2_x6 <= 100
  0 <= a3_x1 <= 100
  0 <= a3_x2 <= 100
  0 <= a3_x3 <= 100
  0 <= a3_x4 <= 100
  0 <= a3_x5 <= 100
  0 <= a3_x6 <= 100
  0 <= a4_x1 <= 100
  0 <= a4_x2 <= 100
  0 <= a4_x3 <= 100
  0 <= a4_x4 <= 100
  0 <= a4_x5 <= 100
  0 <= a4_x6 <= 100
  0 <= short_1 <= +inf
  0 <= surp_1 <= +inf
  0 <= short_2 <= +inf
  0 <= surp_2 <= +inf
  0 <= short_3 <= +inf
  0 <= surp_3 <= +inf
 0 <= a1_z1 <= 1
 0 <= a1_z2 <= 1
 0 <= a2_z1 <= 1
 0 <= a2_z2 <= 1
 0 <= a3_z1 <= 1
 0 <= a3_z2 <= 1
 0 <= a4_z1 <= 1
 0 <= a4_z2 <= 1

binary
  a1_z1
  a1_z2
  a2_z1
  a2_z2
  a3_z1
  a3_z2
  a4_z1
  a4_z2
end
