min
obj: 
  +2.370294118728955 a1_x1
  +4.0871141162290519 a1_x2
  +7.6613663727576089 a1_x3
  +4.8999168943267346 a1_x4
  +9.1856075433138287 a1_x5
  +7.8055232956727103 a1_x6
  +17.430873114549655 a1_z1
  +23.402378726140935 a1_z2
  +7.7696749959897602 a2_x1
  +1.8033642153830525 a2_x2
  +9.5715816001394138 a2_x3
  +5.6582749389411147 a2_x4
  +2.4417372334426313 a2_x5
  +7.2729933705310286 a2_x6
  +31.321727314252385 a2_z1
  +17.358761230317288 a2_z2
  +2.3493759750782877 a3_x1
  +3.4440486133066264 a3_x2
  +8.9723629811002734 a3_x3
  +1.1828241076108115 a3_x4
  +8.9432908674835829 a3_x5
  +1.7190508218957756 a3_x6
  +16.001764697499688 a3_z1
  +34.61198408971174 a3_z2
  +6.5610669509273256 a4_x1
  +3.9905359855651432 a4_x2
  +4.1004087373899605 a4_x3
  +4.8874480478433391 a4_x4
  +2.9132673248674479 a4_x5
  +5.3684179760125765 a4_x6
  +43.700484803270278 a4_z1
  +7.0959851654145574 a4_z2
  +1000000 short_1
  +1000000 surp_1
  +1000000 short_2
  +1000000 surp_2
  +1000000 short_3
  +1000000 surp_3

s.t.

a1_local_1: 
+8171.9665709722149 a1_x3
+5872.9532006137833 a1_x2
+3264.9074821318695 a1_x1
<= 1210796.7804340203

a1_local_2: 
+1.8854866904989008e-07 a1_x6
+1.1211956818720178e-07 a1_x3
+1.1029599072880384e-07 a1_x2
<= 1.2727962100670864e-05

a1_local_3: 
+453.04498778464199 a1_x4
+524.04663401621235 a1_x3
+379.61146331545126 a1_x6
<= 41757.54603249416

a1_local_4: 
+6.4081882809391288 a1_x5
+12.101371064436703 a1_x3
+5.8246970166336487 a1_x6
<= 1312.3135017643369

a1_local_5: 
+5.5119769666649026 a1_x3
+4.173504490429325 a1_x5
+2.210184881336986 a1_x4
<= 721.06980177197727

a1_local_6: 
+0.022131589466802066 a1_x3
+0.015969369605217814 a1_x1
+0.012138887571167219 a1_x6
<= 2.5011114358504494

a1_local_7: 
+0.097241999419420896 a1_x6
+0.1141196002858692 a1_x1
+0.10972173235099895 a1_x4
<= 14.778022170260435

a1_local_8: 
+0.34141239162707671 a1_x3
+0.52004595972523404 a1_x2
+0.55714799710601515 a1_x4
<= 51.752087909826052

a1_act_1: 
+116.9075444956442 a1_x1
-11690.75444956442 a1_z1
<= 0

a1_act_2: 
+29065.756769153348 a1_x2
-2906575.6769153345 a1_z2
<= 0

a2_local_1: 
+5.6637395286720515 a2_x3
+6.6233595704295345 a2_x2
+3.2945773997558128 a2_x1
<= 986.86234603220157

a2_local_2: 
+2.4939485114583069 a2_x6
+5.8970939024040447 a2_x2
+6.5166041448332974 a2_x1
<= 952.2104502327295

a2_local_3: 
+0.0066577212602476812 a2_x2
+0.011012875867539467 a2_x3
+0.0061953355993279455 a2_x1
<= 1.3317374105597872

a2_local_4: 
+0.14118093970224824 a2_x1
+0.13537113059408348 a2_x4
+0.1608682581501738 a2_x5
<= 24.807622953151615

a2_local_5: 
+0.73739244477898214 a2_x1
+1.1095937366170132 a2_x6
+0.99383786257801909 a2_x3
<= 87.915540818851497

a2_local_6: 
+404.51909691752377 a2_x1
+329.74584728216524 a2_x6
+715.61004014121204 a2_x2
<= 70696.686061920249

a2_local_7: 
+7.8881726339728464e-06 a2_x3
+7.0951028969463098e-06 a2_x2
+9.3757930248001778e-06 a2_x4
<= 0.0010017521924647436

a2_local_8: 
+0.40229894530067339 a2_x4
+0.20721214513683575 a2_x3
+0.35523275272223531 a2_x1
<= 58.318328291551943

a2_act_1: 
+0.0065671735624934805 a2_x1
-0.65671735624934802 a2_z1
<= 0

a2_act_2: 
+33445.525082691755 a2_x2
-3344552.5082691754 a2_z2
<= 0

a3_local_1: 
+456.13635954138334 a3_x5
+306.50846007706883 a3_x4
+806.66954325697043 a3_x2
<= 70441.080996181292

a3_local_2: 
+2115541.7134692781 a3_x4
+1529964.3763149206 a3_x5
+2165853.5385965076 a3_x3
<= 292523118.46797311

a3_local_3: 
+0.0021399078273965188 a3_x4
+0.0011329390166578131 a3_x3
+0.0024695376095857516 a3_x6
<= 0.2434141371717812

a3_local_4: 
+15498.806580043823 a3_x4
+16330.218586386798 a3_x5
+19915.563608691922 a3_x2
<= 2848598.4068045863

a3_local_5: 
+2.6772850647545364e-05 a3_x4
+1.0511842684108569e-05 a3_x6
+2.2985059691489464e-05 a3_x5
<= 0.0024802497011262928

a3_local_6: 
+5.9643174606041081 a3_x1
+5.7157437795379353 a3_x5
+6.4414634794761536 a3_x3
<= 600.33007135636512

a3_local_7: 
+0.0087376992843788016 a3_x6
+0.0068434492875064559 a3_x4
+0.011954384305731803 a3_x1
<= 1.038100566314673

a3_local_8: 
+12.048242180306209 a3_x4
+5.887282018283301 a3_x2
+11.312360703367338 a3_x1
<= 1849.9029711133346

a3_act_1: 
+3801.4132066783945 a3_x1
-380141.32066783943 a3_z1
<= 0

a3_act_2: 
+0.0078713682942155375 a3_x2
-0.78713682942155372 a3_z2
<= 0

a4_local_1: 
+5061.4696541797293 a4_x5
+6354.591787013389 a4_x2
+4779.1806036941671 a4_x1
<= 1083547.9875628871

a4_local_2: 
+0.0027289766278999444 a4_x4
+0.0014966055671948191 a4_x2
+0.0031157632556538511 a4_x6
<= 0.45828141092596486

a4_local_3: 
+1361.4801690959757 a4_x1
+972.06931134382273 a4_x3
+1027.8948800641767 a4_x6
<= 166519.57913425541

a4_local_4: 
+9009.8421365239792 a4_x3
+11878.174307443609 a4_x4
+9704.8496881643623 a4_x1
<= 1846759.2437426075

a4_local_5: 
+0.56772055481155237 a4_x6
+0.58650938541563646 a4_x3
+0.31032034814233328 a4_x4
<= 70.056057582874885

a4_local_6: 
+5.5410477173770909 a4_x5
+11.867990259121814 a4_x4
+5.8959751205058932 a4_x2
<= 1305.0528150067896

a4_local_7: 
+6572503.1006929809 a4_x6
+4766705.8655341109 a4_x2
+5117881.1271850299 a4_x4
<= 1113808848.098062

a4_local_8: 
+173.54039490090051 a4_x6
+285.39234448983154 a4_x2
+280.25491752191812 a4_x1
<= 26713.182223018284

a4_act_1: 
+2.2642359365464826e-05 a4_x1
-0.0022642359365464826 a4_z1
<= 0

a4_act_2: 
+392426.06953591196 a4_x2
-39242606.953591198 a4_z2
<= 0

coupling_1: 
+4.5904925519467153e-06 a1_x1
+0.0001605168294524296 a2_x1
+0.0030218881698032773 a3_x1
+0.072480920230570706 a4_x1
+0.0005379965990882083 short_1
-0.0005379965990882083 surp_1
= 1.5840952772712134

coupling_2: 
+0.10371072084359997 a1_x2
+3.2540755587551029 a2_x2
+60.12955357627677 a3_x2
+1398.7920292769461 a4_x2
+10.805334372250375 short_2
-10.805334372250375 surp_2
= 114843.2555652931

coupling_3: 
+7.8641610162945365e-07 a1_x3
+1.8185270599871486e-05 a2_x3
+0.00079020330659506581 a3_x3
+0.015374790697126689 a4_x3
+0.00012983188798457976 short_3
-0.00012983188798457976 surp_3
= 0.89967875279613807

bounds
  0 <= a1_x1 <= 100
  0 <= a1_x2 <= 100
  0 <= a1_x3 <= 100
  0 <= a1_x4 <= 100
  0 <= a1_x5 <= 100
  0 <= a1_x6 <= 100
  0 <= a2_x1 <= 100
  0 <= a2_x2 <= 100
  0 <= a2_x3 <= 100
  0 <= a2_x4 <= 100
  0 <= a2_x5 <= 100
  0 <= a2_x6 <= 100
  0 <= a3_x1 <= 100
  0 <= a3_x2 <= 100
  0 <= a3_x3 <= 100
  0 <= a3_x4 <= 100
  0 <= a3_x5 <= 100
  0 <= a3_x6 <= 100
  0 <= a4_x1 <= 100
  0 <= a4_x2 <= 100
  0 <= a4_x3 <= 100
  0 <= a4_x4 <= 100
  0 <= a4_x5 <= 100
  0 <= a4_x6 <= 100
  0 <= short_1 <= +inf
  0 <= surp_1 <= +inf
  0 <= short_2 <= +inf
  0 <= surp_2 <= +inf
  0 <= short_3 <= +inf
  0 <= surp_3 <= +inf
 0 <= a1_z1 <= 1
 0 <= a1_z2 <= 1
 0 <= a2_z1 <= 1
 0 <= a2_z2 <= 1
 0 <= a3_z1 <= 1
 0 <= a3_z2 <= 1
 0 <= a4_z1 <= 1
 0 <= a4_z2 <= 1

binary
  a1_z1
  a1_z2
  a2_z1
  a2_z2
  a3_z1
  a3_z2
  a4_z1
  a4_z2
end
