min
obj: 
  +4.6820518769511636 a1_x1
  +5.7129162548306427 a1_x2
  +9.0056358908477314 a1_x3
  +9.0172471176233611 a1_x4
  +9.406385688684578 a1_x5
  +5.7753562095118767 a1_x6
  +36.440798325108226 a1_z1
  +20.355895911925103 a1_z2
  +9.8523773325997031 a2_x1
  +8.6665660995193221 a2_x2
  +1.318348960475541 a2_x3
  +8.2691943978607085 a2_x4
  +6.0635318483155114 a2_x5
  +3.2631581910354219 a2_x6
  +31.015799445658949 a2_z1
  +42.142738976131909 a2_z2
  +3.407000856972263 a3_x1
  +9.4188250932667614 a3_x2
  +9.7490010795163791 a3_x3
  +7.0450820339939781 a3_x4
  +9.9763761898407548 a3_x5
  +5.8473553548384958 a3_x6
  +49.073547744148975 a3_z1
  +13.999141819476126 a3_z2
  +1.9143138950663818 a4_x1
  +6.1042201720531999 a4_x2
  +2.2574896326389386 a4_x3
  +5.6594666769891386 a4_x4
  +4.3520497618016583 a4_x5
  +6.7823412192640848 a4_x6
  +29.956754589694771 a4_z1
  +32.972144993024642 a4_z2
  +1000000 short_1
  +1000000 surp_1
  +1000000 short_2
  +1000000 surp_2
  +1000000 short_3
  +1000000 surp_3

s.t.

a1_local_1: 
+3.9513561099613191e-07 a1_x4
+3.2329961556271466e-07 a1_x2
+2.1288270463216642e-07 a1_x6
<= 4.0858428162894327e-05

a1_local_2: 
+0.0020814743070045809 a1_x3
+0.0009309227595196756 a1_x4
+0.0018758447637202383 a1_x5
<= 0.20534492798214912

a1_local_3: 
+6.1170000277962027 a1_x1
+10.754391342952855 a1_x3
+8.0435441831657677 a1_x6
<= 1297.3356648363917

a1_local_4: 
+4.3356768366254488e-07 a1_x2
+3.7669021254344622e-07 a1_x1
+7.4580468463067698e-07 a1_x5
<= 7.4438287009401876e-05

a1_local_5: 
+25.144701491567115 a1_x2
+40.940487828601192 a1_x3
+41.977344057015692 a1_x5
<= 4602.1342671693001

a1_local_6: 
+1.8236065752872345e-07 a1_x6
+1.2827825413181564e-07 a1_x1
+1.6198373296481625e-07 a1_x3
<= 2.4657422011575378e-05

a1_local_7: 
+18.339865253154358 a1_x4
+14.847701207465077 a1_x2
+13.679509122620111 a1_x5
<= 2467.922900592137

a1_local_8: 
+7.1549196506900234e-08 a1_x6
+6.9840576383913905e-08 a1_x2
+5.7077617687802278e-08 a1_x4
<= 1.2414619821300122e-05

a1_act_1: 
+1.9628201094604767e-05 a1_x1
-0.0019628201094604768 a1_z1
<= 0

a1_act_2: 
+0.072730685835722911 a1_x2
-7.2730685835722912 a1_z2
<= 0

a2_local_1: 
+55565.559487574668 a2_x2
+76365.52502484557 a2_x6
+80034.762560886142 a2_x5
<= 7028109.4838727405

a2_local_2: 
+2.7997204909860636 a2_x1
+3.2849160473154813 a2_x4
+4.1379734506566344 a2_x5
<= 709.85771609876542

a2_local_3: 
+414.74224825409408 a2_x2
+288.01694810047337 a2_x5
+178.4958946582054 a2_x1
<= 55625.329134737171

a2_local_4: 
+9.2382794058370656 a2_x6
+17.730609820774177 a2_x4
+9.8275173925763664 a2_x5
<= 1372.2063017931753

a2_local_5: 
+3.1594173035523989e-06 a2_x5
+5.8542513217961118e-06 a2_x3
+4.1107908436285938e-06 a2_x6
<= 0.00067828418482176556

a2_local_6: 
+534.38723006184136 a2_x6
+373.64333959831396 a2_x4
+488.12252670587702 a2_x1
<= 73482.775905906732

a2_local_7: 
+2422.1745968758823 a2_x3
+2212.2042768168126 a2_x6
+2754.4947769252117 a2_x1
<= 345365.70185699448

a2_local_8: 
+2.8164896127650367 a2_x5
+2.8227018510505859 a2_x3
+3.0465022685078518 a2_x6
<= 604.1458924962169

a2_act_1: 
+0.36369542065584565 a2_x1
-36.369542065584568 a2_z1
<= 0

a2_act_2: 
+8.366740682445806e-06 a2_x2
-0.00083667406824458059 a2_z2
<= 0

a3_local_1: 
+545.31492272662956 a3_x5
+368.67064290376595 a3_x2
+441.26981890442784 a3_x3
<= 52480.13164465555

a3_local_2: 
+59.4567425984091 a3_x2
+39.0767980384664 a3_x3
+53.381912202147298 a3_x4
<= 7701.2744895778205

a3_local_3: 
+0.094796160353198058 a3_x6
+0.19268262250475091 a3_x4
+0.16540151758214264 a3_x1
<= 31.075149661864888

a3_local_4: 
+0.00019273137573766144 a3_x4
+0.0002168856165945546 a3_x2
+8.7303639872164071e-05 a3_x1
<= 0.024464528182755872

a3_local_5: 
+9.2877479530385081 a3_x3
+18.165507841646075 a3_x5
+21.199499822821494 a3_x2
<= 2406.5545658483647

a3_local_6: 
+0.040242330201553995 a3_x1
+0.036457377029991404 a3_x6
+0.032788512538259824 a3_x2
<= 4.9687610666099156

a3_local_7: 
+39725.994219593471 a3_x1
+52999.092151191515 a3_x4
+29895.790014970633 a3_x6
<= 4185328.6308571943

a3_local_8: 
+180.14337525634713 a3_x4
+85.847718229981709 a3_x3
+138.15023292176079 a3_x5
<= 25689.258704059001

a3_act_1: 
+0.00051177465597417591 a3_x1
-0.051177465597417593 a3_z1
<= 0

a3_act_2: 
+3.5443538682302975 a3_x2
-354.43538682302977 a3_z2
<= 0

a4_local_1: 
+3027.5091572593201 a4_x3
+2307.7454827296233 a4_x5
+2642.7329728164 a4_x2
<= 509745.046950761

a4_local_2: 
+16.735008881546868 a4_x3
+7.8555872959909836 a4_x2
+11.705915466504791 a4_x6
<= 1247.0593049463293

a4_local_3: 
+0.0033082813769358555 a4_x5
+0.0051279717376593722 a4_x6
+0.0061018943263865836 a4_x3
<= 0.85143868694276248

a4_local_4: 
+482.15657784364629 a4_x3
+455.43938349830989 a4_x6
+521.80958519313458 a4_x1
<= 99200.062018797631

a4_local_5: 
+0.0081296123256711997 a4_x3
+0.0083765047638202968 a4_x6
+0.0030857285514975692 a4_x5
<= 1.0124674691456246

a4_local_6: 
+176.33902591556094 a4_x3
+183.35358755539184 a4_x4
+248.16314946698941 a4_x6
<= 35631.72157179541

a4_local_7: 
+0.082683901637165713 a4_x6
+0.073967074842631333 a4_x3
+0.10923054862122654 a4_x1
<= 17.989695630987413

a4_local_8: 
+0.0035286654699673084 a4_x1
+0.0080205882279149338 a4_x6
+0.006118906110404239 a4_x3
<= 0.93561686778798026

a4_act_1: 
+0.0003984222716995969 a4_x1
-0.039842227169959693 a4_z1
<= 0

a4_act_2: 
+0.0023205767078603992 a4_x2
-0.23205767078603992 a4_z2
<= 0

coupling_1: 
+5988.5747169362912 a1_x1
+85617.575557737349 a2_x1
+1775681.9854493334 a3_x1
+79796478.96261932 a4_x1
+667620.69556152553 short_1
-667620.69556152553 surp_1
= 4120984088.0054646

coupling_2: 
+0.003501774095400585 a1_x2
+0.035807925633197943 a2_x2
+0.79826899148395802 a3_x2
+40.178004641883547 a4_x2
+0.28973691174563837 short_2
-0.28973691174563837 surp_2
= 976.06062213060045

coupling_3: 
+1.2030807264692365 a1_x3
+43.409673384341488 a2_x3
+459.20450034809812 a3_x3
+19351.600037123862 a4_x3
+156.37143617608061 short_3
-156.37143617608061 surp_3
= 1193917.4782874819

bounds
  0 <= a1_x1 <= 100
  0 <= a1_x2 <= 100
  0 <= a1_x3 <= 100
  0 <= a1_x4 <= 100
  0 <= a1_x5 <= 100
  0 <= a1_x6 <= 100
  0 <= a2_x1 <= 100
  0 <= a2_x2 <= 100
  0 <= a2_x3 <= 100
  0 <= a2_x4 <= 100
  0 <= a2_x5 <= 100
  0 <= a2_x6 <= 100
  0 <= a3_x1 <= 100
  0 <= a3_x2 <= 100
  0 <= a3_x3 <= 100
  0 <= a3_x4 <= 100
  0 <= a3_x5 <= 100
  0 <= a3_x6 <= 100
  0 <= a4_x1 <= 100
  0 <= a4_x2 <= 100
  0 <= a4_x3 <= 100
  0 <= a4_x4 <= 100
  0 <= a4_x5 <= 100
  0 <= a4_x6 <= 100
  0 <= short_1 <= +inf
  0 <= surp_1 <= +inf
  0 <= short_2 <= +inf
  0 <= surp_2 <= +inf
  0 <= short_3 <= +inf
  0 <= surp_3 <= +inf
 0 <= a1_z1 <= 1
 0 <= a1_z2 <= 1
 0 <= a2_z1 <= 1
 0 <= a2_z2 <= 1
 0 <= a3_z1 <= 1
 0 <= a3_z2 <= 1
 0 <= a4_z1 <= 1
 0 <= a4_z2 <= 1

binary
  a1_z1
  a1_z2
  a2_z1
  a2_z2
  a3_z1
  a3_z2
  a4_z1
  a4_z2
end
