min
obj: 
  +4.0092711480649195 a1_x1
  +1.9679731558453351 a1_x2
  +5.1245063990813229 a1_x3
  +5.3289660462088069 a1_x4
  +7.7326436197250805 a1_x5
  +5.1395422066191525 a1_x6
  +7.4601303692563201 a1_z1
  +49.872667351617643 a1_z2
  +9.3684343534405965 a2_x1
  +1.0573707236444929 a2_x2
  +6.6071911877442115 a2_x3
  +2.1574642417771144 a2_x4
  +4.0288495580936399 a2_x5
  +6.5816021448275457 a2_x6
  +37.186317612242192 a2_z1
  +14.569927030673126 a2_z2
  +7.5771846442232071 a3_x1
  +6.3254671996139473 a3_x2
  +1.3182946718516668 a3_x3
  +2.4508427443497842 a3_x4
  +7.5821505201430535 a3_x5
  +8.0396019839617026 a3_x6
  +34.570982164584187 a3_z1
  +17.019236119633661 a3_z2
  +9.6576292080467585 a4_x1
  +1.0103892115093069 a4_x2
  +8.2624531172852755 a4_x3
  +1.8717492610420641 a4_x4
  +5.7231033614351237 a4_x5
  +2.0382344427317065 a4_x6
  +33.41705432517788 a4_z1
  +11.211459891146486 a4_z2
  +1000000 short_1
  +1000000 surp_1
  +1000000 short_2
  +1000000 surp_2
  +1000000 short_3
  +1000000 surp_3

s.t.

a1_local_1: 
+1.5342020906071259 a1_x3
+0.65180461304434334 a1_x6
+1.0370685380770173 a1_x4
<= 121.8339849395759

a1_local_2: 
+1.607117086705494 a1_x4
+0.89035350617375308 a1_x6
+0.62223219967746579 a1_x2
<= 176.85440397439612

a1_local_3: 
+0.81792847751954678 a1_x6
+1.3832389897170876 a1_x4
+0.72294087098031345 a1_x1
<= 185.63892643500304

a1_local_4: 
+0.9203659999750663 a1_x2
+1.0865242740682415 a1_x5
+1.0672123420542226 a1_x3
<= 207.49116498681522

a1_local_5: 
+1.4849177983047914 a1_x1
+0.67343795134088758 a1_x4
+0.94525559586420504 a1_x2
<= 212.42670500481205

a1_local_6: 
+1.366346594525232 a1_x1
+1.4006442170372677 a1_x3
+0.71395718329902802 a1_x6
<= 217.30733804183308

a1_local_7: 
+0.78740936838659625 a1_x2
+1.2699874298536762 a1_x5
+1.0030903126853408 a1_x4
<= 170.25171497121124

a1_local_8: 
+1.0069648170297696 a1_x4
+1.5698502088488895 a1_x5
+0.63700345062428698 a1_x6
<= 166.52094511269701

a1_act_1: 
+0.099999999999999992 a1_x1
-10 a1_z1
<= 0

a1_act_2: 
+0.099999999999999992 a1_x2
-9.9999999999999982 a1_z2
<= 0

a2_local_1: 
+0.72804982625318759 a2_x4
+1.3735323654238998 a2_x2
+1.1017339962245778 a2_x6
<= 184.84939886414821

a2_local_2: 
+0.90666536941904241 a2_x1
+1.251049191607748 a2_x4
+0.79932908050952034 a2_x5
<= 189.93990861834055

a2_local_3: 
+0.96770654224011876 a2_x4
+0.71530445937690312 a2_x5
+1.398006103402589 a2_x3
<= 196.83400651691224

a2_local_4: 
+1.2154998417268215 a2_x2
+0.82270681218627895 a2_x1
+1.1666553217880247 a2_x5
<= 146.51193015989222

a2_local_5: 
+1.1636978668345672 a2_x2
+0.73375325726383189 a2_x3
+1.3628559602297414 a2_x6
<= 183.81935431007574

a2_local_6: 
+1.1027460442782877 a2_x6
+0.7914400131662509 a2_x5
+1.263519639346234 a2_x2
<= 175.93506570070599

a2_local_7: 
+1.2105074769402078 a2_x2
+0.8260998127229201 a2_x5
+0.87327108758008432 a2_x6
<= 194.01853484894809

a2_local_8: 
+1.1836662385825925 a2_x2
+0.97287734364951128 a2_x4
+0.84483274710738754 a2_x5
<= 199.30240257955288

a2_act_1: 
+0.10000000000000001 a2_x1
-10 a2_z1
<= 0

a2_act_2: 
+0.099999999999999992 a2_x2
-10 a2_z2
<= 0

a3_local_1: 
+0.88143664343025774 a3_x1
+0.73314462870439623 a3_x2
+1.3639873509912868 a3_x6
<= 134.52340896694741

a3_local_2: 
+0.84229729769049488 a3_x2
+0.69598732747975822 a3_x1
+1.4368077700798134 a3_x6
<= 128.08415672913614

a3_local_3: 
+0.91130667672903898 a3_x1
+0.70396555294661356 a3_x5
+1.4205240523691318 a3_x2
<= 157.2455208033611

a3_local_4: 
+0.81069305837257788 a3_x4
+1.233512473891716 a3_x6
+1.1614329046616549 a3_x5
<= 205.84298914074677

a3_local_5: 
+0.83552718991282382 a3_x4
+1.227151298725647 a3_x1
+0.81489544201963071 a3_x5
<= 93.645727166268031

a3_local_6: 
+1.3939135438177295 a3_x5
+0.79057115147503076 a3_x6
+0.71740460836698905 a3_x1
<= 171.02377893711849

a3_local_7: 
+0.83765024242845088 a3_x6
+1.0340723751649801 a3_x1
+1.1938156874411892 a3_x4
<= 192.30563072468621

a3_local_8: 
+0.97442474373049082 a3_x3
+1.2503020548506238 a3_x1
+0.79980673159772731 a3_x6
<= 123.20269830932489

a3_act_1: 
+0.10000000000000001 a3_x1
-10 a3_z1
<= 0

a3_act_2: 
+0.099999999999999992 a3_x2
-9.9999999999999982 a3_z2
<= 0

a4_local_1: 
+0.87130639001612398 a4_x3
+0.84643491755682776 a4_x2
+1.1814257413746903 a4_x5
<= 172.75665374490433

a4_local_2: 
+0.65774104868531857 a4_x2
+1.2968193500530432 a4_x5
+1.5203551640859008 a4_x3
<= 240.41552455674224

a4_local_3: 
+1.4629246448779394 a4_x4
+0.68356220773315091 a4_x5
+0.69800044754070889 a4_x2
<= 96.420857622196223

a4_local_4: 
+1.0782476998348443 a4_x5
+1.0984864699200432 a4_x3
+0.91034348385992225 a4_x1
<= 102.15220852671968

a4_local_5: 
+0.92200139531732495 a4_x5
+1.4067863590490535 a4_x6
+0.71083998900584344 a4_x1
<= 163.17136891814118

a4_local_6: 
+1.4036224202640484 a4_x3
+0.63442720463063595 a4_x2
+0.81325515595465636 a4_x1
<= 139.84681441562898

a4_local_7: 
+0.7612040560767519 a4_x1
+0.67221657262505985 a4_x2
+1.4876158082430477 a4_x3
<= 178.44426736596287

a4_local_8: 
+1.1273928806136475 a4_x3
+0.80573190113536342 a4_x1
+1.2411076172991189 a4_x4
<= 182.44338108433513

a4_act_1: 
+0.10000000000000001 a4_x1
-10 a4_z1
<= 0

a4_act_2: 
+0.10000000000000001 a4_x2
-10 a4_z2
<= 0

coupling_1: 
+0.00018907482042395128 a1_x1
+0.0052283647996878577 a2_x1
+0.11393968370549566 a3_x1
+0.99319142028732477 a4_x1
+0.016750814860359356 short_1
-0.016750814860359356 surp_1
= 62.912467276681873

coupling_2: 
+8.6000912183733567e-05 a1_x2
+0.0016961791818013625 a2_x2
+0.029903643768237714 a3_x2
+0.99943804348597665 a4_x2
+0.010641543645820836 short_2
-0.010641543645820836 surp_2
= 56.633724417336843

coupling_3: 
+9.279613784121324e-05 a1_x3
+0.0013315453994307248 a2_x3
+0.041063667298637134 a3_x3
+0.99901976123548419 a4_x3
+0.011651400446059413 short_3
-0.011651400446059413 surp_3
= 22.726865141193308

bounds
  0 <= a1_x1 <= 100
  0 <= a1_x2 <= 100
  0 <= a1_x3 <= 100
  0 <= a1_x4 <= 100
  0 <= a1_x5 <= 100
  0 <= a1_x6 <= 100
  0 <= a2_x1 <= 100
  0 <= a2_x2 <= 100
  0 <= a2_x3 <= 100
  0 <= a2_x4 <= 100
  0 <= a2_x5 <= 100
  0 <= a2_x6 <= 100
  0 <= a3_x1 <= 100
  0 <= a3_x2 <= 100
  0 <= a3_x3 <= 100
  0 <= a3_x4 <= 100
  0 <= a3_x5 <= 100
  0 <= a3_x6 <= 100
  0 <= a4_x1 <= 100
  0 <= a4_x2 <= 100
  0 <= a4_x3 <= 100
  0 <= a4_x4 <= 100
  0 <= a4_x5 <= 100
  0 <= a4_x6 <= 100
  0 <= short_1 <= +inf
  0 <= surp_1 <= +inf
  0 <= short_2 <= +inf
  0 <= surp_2 <= +inf
  0 <= short_3 <= +inf
  0 <= surp_3 <= +inf
 0 <= a1_z1 <= 1
 0 <= a1_z2 <= 1
 0 <= a2_z1 <= 1
 0 <= a2_z2 <= 1
 0 <= a3_z1 <= 1
 0 <= a3_z2 <= 1
 0 <= a4_z1 <= 1
 0 <= a4_z2 <= 1

binary
  a1_z1
  a1_z2
  a2_z1
  a2_z2
  a3_z1
  a3_z2
  a4_z1
  a4_z2
end
