min
obj: 
  +7.7820756929973847 a1_x1
  +2.6204029212029933 a1_x2
  +1.0229393332967094 a1_x3
  +7.1910932224071349 a1_x4
  +4.2632745770435907 a1_x5
  +6.0246265469097295 a1_x6
  +42.771027111197313 a1_z1
  +28.114118371176183 a1_z2
  +5.7911212590182997 a2_x1
  +5.4348931719458209 a2_x2
  +9.4259627235885386 a2_x3
  +8.9213052519907556 a2_x4
  +6.1484548986939966 a2_x5
  +2.146409388681831 a2_x6
  +31.660946131309107 a2_z1
  +6.9899613369063101 a2_z2
  +2.8186252614454075 a3_x1
  +1.3641205917884647 a3_x2
  +2.33366974601915 a3_x3
  +2.4556775991065138 a3_x4
  +5.2278265061317715 a3_x5
  +6.6696189442115292 a3_x6
  +49.857919593613119 a3_z1
  +30.640944798186169 a3_z2
  +7.0994894146457632 a4_x1
  +9.5674915626052641 a4_x2
  +9.235478138695818 a4_x3
  +8.9478139676632793 a4_x4
  +7.4338997063934436 a4_x5
  +1.7960169742966061 a4_x6
  +7.4304140982629434 a4_z1
  +14.530204301669533 a4_z2
  +1000000 short_1
  +1000000 surp_1
  +1000000 short_2
  +1000000 surp_2
  +1000000 short_3
  +1000000 surp_3

s.t.

a1_local_1: 
+0.50830128584377532 a1_x4
+0.78099407126304754 a1_x6
+0.36287472144189664 a1_x3
<= 82.586536136739312

a1_local_2: 
+0.6284130347802187 a1_x6
+0.44056055071972733 a1_x5
+0.64109551462153114 a1_x4
<= 90.610196797227161

a1_local_3: 
+0.46069916733291405 a1_x4
+0.60784594660963664 a1_x2
+0.64674537679754174 a1_x3
<= 99.499579294658929

a1_local_4: 
+0.62746166085074517 a1_x4
+0.41777488442219135 a1_x5
+0.65708143339197234 a1_x2
<= 86.74594872007529

a1_local_5: 
+0.34648194375364338 a1_x2
+0.84311871084991374 a1_x5
+0.41121904390175895 a1_x4
<= 88.557773967834521

a1_local_6: 
+0.61130116884469288 a1_x2
+0.70495374262121402 a1_x3
+0.35965414182719407 a1_x1
<= 90.840717984386103

a1_local_7: 
+0.39611970782760031 a1_x5
+0.82739434789670929 a1_x2
+0.39813034315303775 a1_x6
<= 88.9822471440892

a1_local_8: 
+0.41281788352611271 a1_x5
+0.73648948985633611 a1_x1
+0.53587743596103632 a1_x6
<= 103.5458862799003

a1_act_1: 
+0.0099995000374968751 a1_x1
-0.99995000374968745 a1_z1
<= 0

a1_act_2: 
+0.0099995000374968751 a1_x2
-0.99995000374968745 a1_z2
<= 0

a2_local_1: 
+0.42900853832239949 a2_x6
+0.64038776448239676 a2_x4
+0.63706764566073859 a2_x3
<= 107.38342384585883

a2_local_2: 
+0.37108491094252494 a2_x5
+0.51453332323007472 a2_x4
+0.77301452001666426 a2_x6
<= 75.252985666485444

a2_local_3: 
+0.55614099615882651 a2_x4
+0.37619132602491417 a2_x5
+0.74107170949583878 a2_x3
<= 51.839585607575799

a2_local_4: 
+0.31558900133435136 a2_x5
+0.31164610952493615 a2_x6
+0.8962590499709101 a2_x4
<= 56.919407419498441

a2_local_5: 
+0.58280691983876709 a2_x4
+0.36290438331361363 a2_x2
+0.72707393211406945 a2_x3
<= 79.669044301504144

a2_local_6: 
+0.61889551998623793 a2_x5
+0.54707832658473365 a2_x4
+0.56362544293370187 a2_x3
<= 65.44423677607692

a2_local_7: 
+0.46021803969222491 a2_x1
+0.73820656439537047 a2_x6
+0.49320424189723838 a2_x4
<= 118.12216707306779

a2_local_8: 
+0.66625591748106305 a2_x4
+0.61881701294173619 a2_x3
+0.4161352627636043 a2_x5
<= 65.194752551224809

a2_act_1: 
+0.0099995000374968751 a2_x1
-0.99995000374968757 a2_z1
<= 0

a2_act_2: 
+0.0099995000374968751 a2_x2
-0.99995000374968757 a2_z2
<= 0

a3_local_1: 
+0.45040944646498599 a3_x6
+0.68914092811905803 a3_x2
+0.56764082986190134 a3_x1
<= 114.01347756589719

a3_local_2: 
+0.75301381339081763 a3_x1
+0.50662345785546781 a3_x6
+0.41988435168887622 a3_x2
<= 115.20578781347693

a3_local_3: 
+0.353531244028776 a3_x6
+0.84635515733245281 a3_x5
+0.3983699375608365 a3_x3
<= 84.746799952446139

a3_local_4: 
+0.64330523934530282 a3_x2
+0.29601460997692886 a3_x6
+0.70606920320255406 a3_x4
<= 69.78902981994554

a3_local_5: 
+0.52882068558906292 a3_x1
+0.7051636667983936 a3_x5
+0.47232709589918487 a3_x3
<= 84.585132463382209

a3_local_6: 
+0.54551462774739479 a3_x5
+0.64574199000543053 a3_x2
+0.53425749714669224 a3_x3
<= 88.915034445616413

a3_local_7: 
+0.56943071577997528 a3_x2
+0.46564334315836148 a3_x3
+0.67743998767315861 a3_x1
<= 91.457607289983642

a3_local_8: 
+0.72949566772882757 a3_x6
+0.33912416760590092 a3_x1
+0.59399568155877758 a3_x2
<= 75.633450136201049

a3_act_1: 
+0.0099995000374968734 a3_x1
-0.99995000374968745 a3_z1
<= 0

a3_act_2: 
+0.0099995000374968768 a3_x2
-0.99995000374968757 a3_z2
<= 0

a4_local_1: 
+0.3592212668831391 a4_x1
+0.82536095005775423 a4_x6
+0.43559084418595612 a4_x5
<= 102.3404583051064

a4_local_2: 
+0.69088349963423634 a4_x2
+0.32840043962771276 a4_x5
+0.64407541575926885 a4_x4
<= 111.82877828836617

a4_local_3: 
+0.74228054919970932 a4_x6
+0.57737814604835958 a4_x2
+0.34007949474429783 a4_x5
<= 96.656353967815207

a4_local_4: 
+0.6363613737893532 a4_x6
+0.38653465108739332 a4_x3
+0.66755911008514757 a4_x4
<= 107.04015938518985

a4_local_5: 
+0.44397761964560284 a4_x5
+0.4516525299390578 a4_x2
+0.77388233308008314 a4_x3
<= 66.892639522294417

a4_local_6: 
+0.60027196439209529 a4_x1
+0.51190150666328882 a4_x5
+0.61451640843895305 a4_x4
<= 95.217709897947472

a4_local_7: 
+0.37146299245301995 a4_x6
+0.71516470785044894 a4_x3
+0.59207658785247508 a4_x2
<= 100.93310486108885

a4_local_8: 
+0.49128963235348294 a4_x3
+0.77850908644126038 a4_x6
+0.39058686546064747 a4_x4
<= 59.841937478560645

a4_act_1: 
+0.0099995000374968751 a4_x1
-0.99995000374968757 a4_z1
<= 0

a4_act_2: 
+0.0099995000374968751 a4_x2
-0.99995000374968757 a4_z2
<= 0

coupling_1: 
+0.00015114502279431794 a1_x1
+0.0040725248834117917 a2_x1
+0.070615910586559971 a3_x1
+0.99725912967501862 a4_x1
+0.015346223446041999 short_1
-0.015346223446041999 surp_1
= 75.919312275456221

coupling_2: 
+0.00014126539225177025 a1_x2
+0.0027055629199182283 a2_x2
+0.061314565508919283 a3_x2
+0.99801236607601862 a4_x2
+0.010111903608493128 short_2
-0.010111903608493128 surp_2
= 29.743466152649344

coupling_3: 
+0.00022392443114934679 a1_x3
+0.003395914944964688 a2_x3
+0.046909687935787668 a3_x3
+0.9985261160218426 a4_x3
+0.019150645154099314 short_3
-0.019150645154099314 surp_3
= 23.527565036807896

bounds
  0 <= a1_x1 <= 100
  0 <= a1_x2 <= 100
  0 <= a1_x3 <= 100
  0 <= a1_x4 <= 100
  0 <= a1_x5 <= 100
  0 <= a1_x6 <= 100
  0 <= a2_x1 <= 100
  0 <= a2_x2 <= 100
  0 <= a2_x3 <= 100
  0 <= a2_x4 <= 100
  0 <= a2_x5 <= 100
  0 <= a2_x6 <= 100
  0 <= a3_x1 <= 100
  0 <= a3_x2 <= 100
  0 <= a3_x3 <= 100
  0 <= a3_x4 <= 100
  0 <= a3_x5 <= 100
  0 <= a3_x6 <= 100
  0 <= a4_x1 <= 100
  0 <= a4_x2 <= 100
  0 <= a4_x3 <= 100
  0 <= a4_x4 <= 100
  0 <= a4_x5 <= 100
  0 <= a4_x6 <= 100
  0 <= short_1 <= +inf
  0 <= surp_1 <= +inf
  0 <= short_2 <= +inf
  0 <= surp_2 <= +inf
  0 <= short_3 <= +inf
  0 <= surp_3 <= +inf
 0 <= a1_z1 <= 1
 0 <= a1_z2 <= 1
 0 <= a2_z1 <= 1
 0 <= a2_z2 <= 1
 0 <= a3_z1 <= 1
 0 <= a3_z2 <= 1
 0 <= a4_z1 <= 1
 0 <= a4_z2 <= 1

binary
  a1_z1
  a1_z2
  a2_z1
  a2_z2
  a3_z1
  a3_z2
  a4_z1
  a4_z2
end
