min
obj: 
  +1.5770974257819579 a1_x1
  +5.2436233239928463 a1_x2
  +8.0695966456126804 a1_x3
  +3.4781022885686368 a1_x4
  +9.412058306823841 a1_x5
  +8.3165688602967034 a1_x6
  +34.001400959855452 a1_z1
  +10.410503430419741 a1_z2
  +6.4773554290647395 a2_x1
  +9.5833935756226563 a2_x2
  +2.026827474230366 a2_x3
  +2.5146383338919818 a2_x4
  +5.9719159164755045 a2_x5
  +2.1752834405324757 a2_x6
  +46.820939487606068 a2_z1
  +31.119838842287344 a2_z2
  +4.2898026117145012 a3_x1
  +6.2971939246586208 a3_x2
  +7.0812452369118279 a3_x3
  +4.947199835085236 a3_x4
  +8.0650994710678727 a3_x5
  +5.8436848317688934 a3_x6
  +45.408472421232204 a3_z1
  +47.685437857449642 a3_z2
  +7.6745490131872192 a4_x1
  +9.5447276615633179 a4_x2
  +6.4685946234911675 a4_x3
  +6.1047180091187832 a4_x4
  +9.0091726197219533 a4_x5
  +9.2042443028710519 a4_x6
  +10.38795682780167 a4_z1
  +22.655186795949191 a4_z2
  +1000000 short_1
  +1000000 surp_1
  +1000000 short_2
  +1000000 surp_2
  +1000000 short_3
  +1000000 surp_3

s.t.

a1_local_1: 
+1.2525172836979446 a1_x1
+1.2804747506447107 a1_x6
+0.78096034263581249 a1_x5
<= 174.32419763247336

a1_local_2: 
+1.0791845523965875 a1_x5
+0.59517578531382465 a1_x4
+1.680175881941701 a1_x1
<= 104.856815224846

a1_local_3: 
+0.89270406332237717 a1_x2
+1.274738088223506 a1_x3
+0.78447487310402297 a1_x5
<= 116.12772131325379

a1_local_4: 
+1.6520243963786574 a1_x2
+1.3204078717738377 a1_x4
+0.60531793730895467 a1_x1
<= 179.89053224872004

a1_local_5: 
+1.1722434656335712 a1_x1
+0.7467581154732762 a1_x3
+1.3391217039084011 a1_x2
<= 126.48859834837603

a1_local_6: 
+0.89273603952308156 a1_x3
+0.71357251996279236 a1_x4
+0.61137484239468221 a1_x2
<= 93.098761456373737

a1_local_7: 
+1.2662087841130116 a1_x1
+0.78975917127324868 a1_x4
+1.0908889042874164 a1_x3
<= 174.42061074419135

a1_local_8: 
+1.2459527386243721 a1_x3
+0.80259866124944457 a1_x2
+1.1040826118019005 a1_x5
<= 144.06629023227057

a1_act_1: 
+0.10000000000000001 a1_x1
-10 a1_z1
<= 0

a1_act_2: 
+0.10000000000000001 a1_x2
-10 a1_z2
<= 0

a2_local_1: 
+0.76186603796907815 a2_x3
+1.3124695577592138 a2_x6
+1.3125667114204493 a2_x4
<= 188.18012575027757

a2_local_2: 
+1.554892625026667 a2_x6
+0.64313122585094884 a2_x4
+1.4470071225202903 a2_x2
<= 195.86404912045776

a2_local_3: 
+0.76130476611049092 a2_x4
+1.0882847904716022 a2_x5
+1.3135344010901231 a2_x2
<= 142.98480390460614

a2_local_4: 
+1.0453318990184335 a2_x6
+1.1874033479468107 a2_x5
+0.84217380869705505 a2_x1
<= 102.27083894036096

a2_local_5: 
+1.8306940306653443 a2_x6
+1.8513829266972459 a2_x5
+1.7516609440026618 a2_x2
<= 213.96400984463287

a2_local_6: 
+1.090980489507771 a2_x1
+0.7547251195401834 a2_x6
+1.3249857121613369 a2_x3
<= 162.58341673469664

a2_local_7: 
+0.80454931070370894 a2_x2
+0.89037752881170584 a2_x4
+1.2429318957781934 a2_x5
<= 154.7673891298794

a2_local_8: 
+0.89370985112736967 a2_x4
+0.91182239385060437 a2_x3
+1.1189313833103112 a2_x2
<= 94.18618281211954

a2_act_1: 
+0.10000000000000001 a2_x1
-10 a2_z1
<= 0

a2_act_2: 
+0.099999999999999992 a2_x2
-9.9999999999999982 a2_z2
<= 0

a3_local_1: 
+0.99491844976276511 a3_x3
+0.87679432982304106 a3_x4
+1.140518324521812 a3_x2
<= 167.36035613867074

a3_local_2: 
+0.75336589426492007 a3_x3
+0.90753637434175383 a3_x4
+1.3273762558308111 a3_x6
<= 195.39711740661153

a3_local_3: 
+0.80466499375644929 a3_x2
+1.2833772731155852 a3_x3
+0.77919410055653737 a3_x5
<= 107.9136393762339

a3_local_4: 
+0.78118964058423679 a3_x2
+1.2800989005078447 a3_x5
+1.1277805149638247 a3_x3
<= 167.41371675394876

a3_local_5: 
+1.3784213239651573 a3_x2
+0.67828926617813468 a3_x5
+1.474297250249242 a3_x3
<= 220.63589166539734

a3_local_6: 
+1.0794771875715234 a3_x5
+0.92637437040210047 a3_x6
+1.041329795670169 a3_x1
<= 160.77113007230636

a3_local_7: 
+0.93910889416367216 a3_x3
+1.0852195843150181 a3_x5
+0.92147249685987931 a3_x2
<= 173.36241756313225

a3_local_8: 
+0.80923264578732934 a3_x5
+1.2357385792648869 a3_x3
+0.82535701501189296 a3_x2
<= 159.86597848900558

a3_act_1: 
+0.099999999999999992 a3_x1
-10 a3_z1
<= 0

a3_act_2: 
+0.099999999999999992 a3_x2
-9.9999999999999982 a3_z2
<= 0

a4_local_1: 
+0.95020154027090098 a4_x6
+1.0597408698062436 a4_x1
+0.94362690775796332 a4_x3
<= 110.32898374056592

a4_local_2: 
+0.77431874008728196 a4_x2
+1.2914578302564126 a4_x4
+0.85866900393110546 a4_x6
<= 164.29578002588192

a4_local_3: 
+0.94068920870850514 a4_x3
+0.7140815209420599 a4_x2
+1.4004003333971433 a4_x1
<= 92.225516132273441

a4_local_4: 
+0.80334177925406458 a4_x3
+1.2119016078222344 a4_x5
+1.244800190684145 a4_x2
<= 200.47814259734079

a4_local_5: 
+1.0958005848874761 a4_x3
+1.1302081674264524 a4_x2
+0.88479275660965773 a4_x1
<= 171.56751917356763

a4_local_6: 
+1.6550341780681224 a4_x5
+0.60421712932072114 a4_x1
+1.5137459625436034 a4_x6
<= 179.45035555719608

a4_local_7: 
+1.3615289192489262 a4_x6
+0.73446842432964266 a4_x3
+1.1495283889235044 a4_x2
<= 216.73546035018407

a4_local_8: 
+0.75677666254288756 a4_x2
+0.8973053768294611 a4_x6
+1.3213938133872203 a4_x5
<= 151.05691871104892

a4_act_1: 
+0.099999999999999992 a4_x1
-10 a4_z1
<= 0

a4_act_2: 
+0.10000000000000001 a4_x2
-10 a4_z2
<= 0

coupling_1: 
+7.1024168391154431e-05 a1_x1
+0.002273108197888452 a2_x1
+0.043045034841143359 a3_x1
+0.99901987231036771 a4_x1
+0.0071150417844507378 short_1
-0.0071150417844507378 surp_1
= 77.026624098731418

coupling_2: 
+8.0744698171514496e-05 a1_x2
+0.0014424684018623543 a2_x2
+0.05025028803682164 a3_x2
+0.99865643991168318 a4_x2
+0.0088920284621167942 short_2
-0.0088920284621167942 surp_2
= 37.838798372832834

coupling_3: 
+0.00014507856614844535 a1_x3
+0.0020664572960558685 a2_x3
+0.035750995836335155 a3_x3
+0.99922191559691398 a4_x3
+0.011686282428496318 short_3
-0.011686282428496318 surp_3
= 60.542396472612559

bounds
  0 <= a1_x1 <= 100
  0 <= a1_x2 <= 100
  0 <= a1_x3 <= 100
  0 <= a1_x4 <= 100
  0 <= a1_x5 <= 100
  0 <= a1_x6 <= 100
  0 <= a2_x1 <= 100
  0 <= a2_x2 <= 100
  0 <= a2_x3 <= 100
  0 <= a2_x4 <= 100
  0 <= a2_x5 <= 100
  0 <= a2_x6 <= 100
  0 <= a3_x1 <= 100
  0 <= a3_x2 <= 100
  0 <= a3_x3 <= 100
  0 <= a3_x4 <= 100
  0 <= a3_x5 <= 100
  0 <= a3_x6 <= 100
  0 <= a4_x1 <= 100
  0 <= a4_x2 <= 100
  0 <= a4_x3 <= 100
  0 <= a4_x4 <= 100
  0 <= a4_x5 <= 100
  0 <= a4_x6 <= 100
  0 <= short_1 <= +inf
  0 <= surp_1 <= +inf
  0 <= short_2 <= +inf
  0 <= surp_2 <= +inf
  0 <= short_3 <= +inf
  0 <= surp_3 <= +inf
 0 <= a1_z1 <= 1
 0 <= a1_z2 <= 1
 0 <= a2_z1 <= 1
 0 <= a2_z2 <= 1
 0 <= a3_z1 <= 1
 0 <= a3_z2 <= 1
 0 <= a4_z1 <= 1
 0 <= a4_z2 <= 1

binary
  a1_z1
  a1_z2
  a2_z1
  a2_z2
  a3_z1
  a3_z2
  a4_z1
  a4_z2
end
