min
obj: 
  +3.0571104005516858 a1_x1
  +8.0556013187453051 a1_x2
  +1.9742345173811016 a1_x3
  +4.4385591714508195 a1_x4
  +2.091774352732247 a1_x5
  +8.3606733491801819 a1_x6
  +15.666425601953888 a1_z1
  +12.324732571684713 a1_z2
  +3.9044727049854391 a2_x1
  +3.1906424171049248 a2_x2
  +7.2566205037606055 a2_x3
  +4.240342031508578 a2_x4
  +1.7216538193625648 a2_x5
  +9.8652119955060549 a2_x6
  +47.432933857706239 a2_z1
  +10.018499727455843 a2_z2
  +7.6634289009813905 a3_x1
  +6.6031951543936822 a3_x2
  +5.6627725428325562 a3_x3
  +4.150259343395577 a3_x4
  +2.0433644620272413 a3_x5
  +3.9564814242041457 a3_x6
  +26.646913444644401 a3_z1
  +25.192698563482555 a3_z2
  +2.4319173360803403 a4_x1
  +1.259802781834898 a4_x2
  +6.7186619976265831 a4_x3
  +9.2328283032404528 a4_x4
  +5.8537835915052003 a4_x5
  +9.834988999700645 a4_x6
  +10.083472599865093 a4_z1
  +40.29173016694412 a4_z2
  +1000000 short_1
  +1000000 surp_1
  +1000000 short_2
  +1000000 surp_2
  +1000000 short_3
  +1000000 surp_3

s.t.

a1_local_1: 
+0.000215900962430949 a1_x5
+0.00035536448675726757 a1_x1
+0.00014958980270025654 a1_x6
<= 0.028200956982419024

a1_local_2: 
+0.00072491406704733416 a1_x6
+0.0014460817118931307 a1_x4
+0.0012610658657133118 a1_x2
<= 0.14688640237989603

a1_local_3: 
+21.409625863190364 a1_x4
+9.5210369546040532 a1_x5
+16.589125847885171 a1_x1
<= 3141.1906334852979

a1_local_4: 
+96.439309915236905 a1_x3
+34.288941912528301 a1_x1
+42.484723402505892 a1_x4
<= 7637.039549106521

a1_local_5: 
+0.81615077982693962 a1_x4
+0.96543436792201842 a1_x5
+1.0906718956758779 a1_x1
<= 88.717876321272385

a1_local_6: 
+0.0043289932106181034 a1_x2
+0.0056315894483068623 a1_x5
+0.0072381356598419664 a1_x6
<= 0.65232797344200533

a1_local_7: 
+9.7551439530577946e-09 a1_x1
+1.0906326931816895e-08 a1_x3
+8.7953760341229004e-09 a1_x5
<= 1.7271071224799568e-06

a1_local_8: 
+0.37823380742836193 a1_x3
+0.33205582785404397 a1_x4
+0.24368047056085201 a1_x1
<= 33.865095711251747

a1_act_1: 
+5.287458637580192e-05 a1_x1
-0.0052874586375801919 a1_z1
<= 0

a1_act_2: 
+11.284120929457155 a1_x2
-1128.4120929457154 a1_z2
<= 0

a2_local_1: 
+166.30413342331971 a2_x2
+95.362581751127138 a2_x6
+244.66992298149225 a2_x4
<= 34454.602200850612

a2_local_2: 
+0.00011193067585600432 a2_x2
+0.00012137729264493704 a2_x5
+0.00012616157729896974 a2_x3
<= 0.021810843700334974

a2_local_3: 
+0.06179831328947781 a2_x3
+0.048977449247390122 a2_x5
+0.051412392620548308 a2_x2
<= 7.428154615890298

a2_local_4: 
+4.9986358102901735e-05 a2_x1
+0.00010680348526928859 a2_x5
+7.2383226301308952e-05 a2_x6
<= 0.014709178173852623

a2_local_5: 
+33.031625468145656 a2_x2
+39.971560623025766 a2_x6
+22.518908448801426 a2_x1
<= 5719.2912153364168

a2_local_6: 
+1.3660518357861586e-06 a2_x1
+1.7505645437132761e-06 a2_x5
+1.0219037228442672e-06 a2_x4
<= 0.00027110813835578873

a2_local_7: 
+0.75688787408582603 a2_x6
+0.51285051404013871 a2_x3
+0.84703687477931122 a2_x4
<= 67.228628175140159

a2_local_8: 
+0.0059089431887732686 a2_x3
+0.0066410071062510167 a2_x1
+0.0039673264891052348 a2_x4
<= 0.88093607902032889

a2_act_1: 
+276.40564687645121 a2_x1
-27640.564687645121 a2_z1
<= 0

a2_act_2: 
+0.055129284080574416 a2_x2
-5.5129284080574417 a2_z2
<= 0

a3_local_1: 
+38.500901619711648 a3_x5
+35.489075703295143 a3_x6
+20.366431083415861 a3_x2
<= 4366.7662619333505

a3_local_2: 
+36401.31464910035 a3_x3
+27495.287978739754 a3_x1
+47341.316526277427 a3_x5
<= 7177994.9949279297

a3_local_3: 
+10.14180444863036 a3_x6
+18.973271661681977 a3_x2
+21.437999400392325 a3_x3
<= 2468.503998413134

a3_local_4: 
+9834.8542827210931 a3_x5
+13443.106179982964 a3_x6
+12157.060715347334 a3_x3
<= 1468412.231041006

a3_local_5: 
+0.00020359435259813074 a3_x5
+0.00014441254108554671 a3_x6
+0.00011712978576131688 a3_x4
<= 0.017592120324677992

a3_local_6: 
+0.014047723551276549 a3_x3
+0.011429168413239862 a3_x6
+0.015054455132181777 a3_x2
<= 1.3029012942889908

a3_local_7: 
+614342.64134854404 a3_x4
+612122.50563542405 a3_x6
+651023.69436995639 a3_x3
<= 65373354.101047732

a3_local_8: 
+24.365276091116193 a3_x6
+14.735100294564198 a3_x3
+11.46916253457916 a3_x5
<= 2644.4209024964434

a3_act_1: 
+1.3128247103083601e-05 a3_x1
-0.0013128247103083601 a3_z1
<= 0

a3_act_2: 
+9.0256259827548515 a3_x2
-902.56259827548513 a3_z2
<= 0

a4_local_1: 
+1029573.9652007794 a4_x4
+2049848.1031571047 a4_x1
+805538.68993184424 a4_x6
<= 249764611.04142103

a4_local_2: 
+89696.35862602033 a4_x2
+98796.848889034765 a4_x6
+42273.510413403514 a4_x1
<= 12265496.860369965

a4_local_3: 
+66016364.804570764 a4_x4
+95929112.63982746 a4_x3
+71987576.349732175 a4_x5
<= 9626475674.6520138

a4_local_4: 
+920.97621484704746 a4_x1
+1753.6644362278537 a4_x6
+1063.7321720431567 a4_x4
<= 257805.72076759336

a4_local_5: 
+109529710.26048371 a4_x3
+107311698.48254122 a4_x6
+115821590.07823548 a4_x4
<= 20594830570.308643

a4_local_6: 
+5.2513931018092386 a4_x3
+3.1294119502309012 a4_x1
+3.9685823356606225 a4_x5
<= 530.57967898763854

a4_local_7: 
+109716.32530379032 a4_x5
+185382.62019907043 a4_x4
+105790.76370127006 a4_x3
<= 23073944.897180703

a4_local_8: 
+0.011545720539075816 a4_x1
+0.015062853295642975 a4_x4
+0.011847409361124304 a4_x6
<= 1.5226960622235926

a4_act_1: 
+1.330960424455411 a4_x1
-133.09604244554109 a4_z1
<= 0

a4_act_2: 
+0.00074643660746782654 a4_x2
-0.07464366074678265 a4_z2
<= 0

coupling_1: 
+4.184689766499107e-07 a1_x1
+2.3205735085857519e-05 a2_x1
+0.0029166963250985335 a3_x1
+0.29981319393087769 a4_x1
+0.00031730102119018771 short_1
-0.00031730102119018771 surp_1
= 9.5686362125042077

coupling_2: 
+1.1187824103863887e-05 a1_x2
+0.00094089189437412631 a2_x2
+0.080707090148851343 a3_x2
+9.2193297154936147 a4_x2
+0.008387359629645149 short_2
-0.008387359629645149 surp_2
= 408.08799383840471

coupling_3: 
+6.9813438947829374e-10 a1_x3
+1.0664980738752412e-07 a2_x3
+1.1160270997019099e-05 a3_x3
+0.0018774586171248228 a4_x3
+1.2679758985354879e-06 short_3
-1.2679758985354879e-06 surp_3
= 0.12984100059521364

bounds
  0 <= a1_x1 <= 100
  0 <= a1_x2 <= 100
  0 <= a1_x3 <= 100
  0 <= a1_x4 <= 100
  0 <= a1_x5 <= 100
  0 <= a1_x6 <= 100
  0 <= a2_x1 <= 100
  0 <= a2_x2 <= 100
  0 <= a2_x3 <= 100
  0 <= a2_x4 <= 100
  0 <= a2_x5 <= 100
  0 <= a2_x6 <= 100
  0 <= a3_x1 <= 100
  0 <= a3_x2 <= 100
  0 <= a3_x3 <= 100
  0 <= a3_x4 <= 100
  0 <= a3_x5 <= 100
  0 <= a3_x6 <= 100
  0 <= a4_x1 <= 100
  0 <= a4_x2 <= 100
  0 <= a4_x3 <= 100
  0 <= a4_x4 <= 100
  0 <= a4_x5 <= 100
  0 <= a4_x6 <= 100
  0 <= short_1 <= +inf
  0 <= surp_1 <= +inf
  0 <= short_2 <= +inf
  0 <= surp_2 <= +inf
  0 <= short_3 <= +inf
  0 <= surp_3 <= +inf
 0 <= a1_z1 <= 1
 0 <= a1_z2 <= 1
 0 <= a2_z1 <= 1
 0 <= a2_z2 <= 1
 0 <= a3_z1 <= 1
 0 <= a3_z2 <= 1
 0 <= a4_z1 <= 1
 0 <= a4_z2 <= 1

binary
  a1_z1
  a1_z2
  a2_z1
  a2_z2
  a3_z1
  a3_z2
  a4_z1
  a4_z2
end
