min
obj: 
  +4.0092711480649195 a1_x1
  +1.9679731558453351 a1_x2
  +5.1245063990813229 a1_x3
  +5.3289660462088069 a1_x4
  +7.7326436197250805 a1_x5
  +5.1395422066191525 a1_x6
  +7.4601303692563201 a1_z1
  +49.872667351617643 a1_z2
  +9.3684343534405965 a2_x1
  +1.0573707236444929 a2_x2
  +6.6071911877442115 a2_x3
  +2.1574642417771144 a2_x4
  +4.0288495580936399 a2_x5
  +6.5816021448275457 a2_x6
  +37.186317612242192 a2_z1
  +14.569927030673126 a2_z2
  +7.5771846442232071 a3_x1
  +6.3254671996139473 a3_x2
  +1.3182946718516668 a3_x3
  +2.4508427443497842 a3_x4
  +7.5821505201430535 a3_x5
  +8.0396019839617026 a3_x6
  +34.570982164584187 a3_z1
  +17.019236119633661 a3_z2
  +9.6576292080467585 a4_x1
  +1.0103892115093069 a4_x2
  +8.2624531172852755 a4_x3
  +1.8717492610420641 a4_x4
  +5.7231033614351237 a4_x5
  +2.0382344427317065 a4_x6
  +33.41705432517788 a4_z1
  +11.211459891146486 a4_z2
  +1000000 short_1
  +1000000 surp_1
  +1000000 short_2
  +1000000 surp_2
  +1000000 short_3
  +1000000 surp_3

s.t.

a1_local_1: 
+1.5342020906071256 a1_x3
+0.65180461304434323 a1_x6
+1.0370685380770168 a1_x4
<= 121.83398493957588

a1_local_2: 
+1.6071170867054936 a1_x4
+0.89035350617375286 a1_x6
+0.62223219967746579 a1_x2
<= 176.85440397439609

a1_local_3: 
+0.81792847751954667 a1_x6
+1.3832389897170874 a1_x4
+0.72294087098031345 a1_x1
<= 185.63892643500307

a1_local_4: 
+0.92036599997506618 a1_x2
+1.0865242740682413 a1_x5
+1.0672123420542223 a1_x3
<= 207.49116498681516

a1_local_5: 
+1.4849177983047912 a1_x1
+0.67343795134088758 a1_x4
+0.94525559586420516 a1_x2
<= 212.42670500481208

a1_local_6: 
+1.3663465945252318 a1_x1
+1.4006442170372675 a1_x3
+0.71395718329902791 a1_x6
<= 217.30733804183305

a1_local_7: 
+0.78740936838659636 a1_x2
+1.2699874298536762 a1_x5
+1.0030903126853408 a1_x4
<= 170.25171497121127

a1_local_8: 
+1.0069648170297696 a1_x4
+1.5698502088488893 a1_x5
+0.63700345062428698 a1_x6
<= 166.52094511269704

a1_act_1: 
+0.099999999999999992 a1_x1
-10 a1_z1
<= 0

a1_act_2: 
+0.099999999999999992 a1_x2
-9.9999999999999982 a1_z2
<= 0

a2_local_1: 
+0.7280498262531877 a2_x4
+1.3735323654238998 a2_x2
+1.1017339962245778 a2_x6
<= 184.84939886414818

a2_local_2: 
+0.90666536941904252 a2_x1
+1.251049191607748 a2_x4
+0.79932908050952034 a2_x5
<= 189.93990861834058

a2_local_3: 
+0.96770654224011876 a2_x4
+0.71530445937690312 a2_x5
+1.3980061034025888 a2_x3
<= 196.83400651691224

a2_local_4: 
+1.2154998417268215 a2_x2
+0.82270681218627906 a2_x1
+1.1666553217880249 a2_x5
<= 146.51193015989224

a2_local_5: 
+1.163697866834567 a2_x2
+0.733753257263832 a2_x3
+1.3628559602297412 a2_x6
<= 183.81935431007574

a2_local_6: 
+1.1027460442782875 a2_x6
+0.7914400131662509 a2_x5
+1.263519639346234 a2_x2
<= 175.93506570070593

a2_local_7: 
+1.6289757019608115 a2_x2
+1.1116796450704485 a2_x5
+1.1751578655991355 a2_x6
<= 261.09006761185384

a2_local_8: 
+1.1836662385825925 a2_x2
+0.97287734364951128 a2_x4
+0.84483274710738754 a2_x5
<= 199.30240257955282

a2_act_1: 
+0.10000000000000001 a2_x1
-10 a2_z1
<= 0

a2_act_2: 
+0.099999999999999992 a2_x2
-10 a2_z2
<= 0

a3_local_1: 
+0.88143664343025785 a3_x1
+0.73314462870439634 a3_x2
+1.363987350991287 a3_x6
<= 134.52340896694744

a3_local_2: 
+0.84229729769049466 a3_x2
+0.69598732747975811 a3_x1
+1.4368077700798132 a3_x6
<= 128.08415672913611

a3_local_3: 
+0.91130667672903898 a3_x1
+0.70396555294661345 a3_x5
+1.4205240523691318 a3_x2
<= 157.24552080336107

a3_local_4: 
+0.81069305837257799 a3_x4
+1.233512473891716 a3_x6
+1.1614329046616549 a3_x5
<= 205.84298914074679

a3_local_5: 
+0.83552718991282382 a3_x4
+1.2271512987256472 a3_x1
+0.81489544201963071 a3_x5
<= 93.645727166268031

a3_local_6: 
+0.96874760461079568 a3_x5
+0.54943429788926734 a3_x6
+0.49858472139441667 a3_x1
<= 118.85878927831428

a3_local_7: 
+0.46482309968614399 a3_x6
+0.57382031589999272 a3_x1
+0.6624639738437812 a3_x4
<= 106.71291528717347

a3_local_8: 
+0.97442474373049126 a3_x3
+1.2503020548506241 a3_x1
+0.79980673159772742 a3_x6
<= 123.2026983093249

a3_act_1: 
+0.10000000000000001 a3_x1
-10 a3_z1
<= 0

a3_act_2: 
+0.099999999999999992 a3_x2
-9.9999999999999982 a3_z2
<= 0

a4_local_1: 
+0.87130639001612431 a4_x3
+0.84643491755682787 a4_x2
+1.1814257413746903 a4_x5
<= 172.75665374490433

a4_local_2: 
+0.65774104868531869 a4_x2
+1.2968193500530434 a4_x5
+1.5203551640859008 a4_x3
<= 240.41552455674224

a4_local_3: 
+1.4629246448779396 a4_x4
+0.68356220773315091 a4_x5
+0.69800044754070889 a4_x2
<= 96.420857622196223

a4_local_4: 
+1.0782476998348445 a4_x5
+1.0984864699200434 a4_x3
+0.91034348385992248 a4_x1
<= 102.15220852671972

a4_local_5: 
+0.92200139531732483 a4_x5
+1.4067863590490535 a4_x6
+0.71083998900584344 a4_x1
<= 163.17136891814113

a4_local_6: 
+1.4874221672957821 a4_x3
+0.67230408554288024 a4_x2
+0.86180851001723469 a4_x1
<= 148.19601680940303

a4_local_7: 
+0.7612040560767519 a4_x1
+0.67221657262505985 a4_x2
+1.4876158082430482 a4_x3
<= 178.44426736596287

a4_local_8: 
+1.1273928806136477 a4_x3
+0.80573190113536353 a4_x1
+1.2411076172991189 a4_x4
<= 182.44338108433516

a4_act_1: 
+0.10000000000000001 a4_x1
-10 a4_z1
<= 0

a4_act_2: 
+0.10000000000000001 a4_x2
-10 a4_z2
<= 0

coupling_1: 
+0.00074891348782630239 a1_x1
+0.096123705543170332 a2_x1
+9.7231346147552298 a3_x1
+393.39688329663795 a4_x1
+0.66348925535804648 short_1
-0.66348925535804648 surp_1
= 22801.134904659328

coupling_2: 
+0.00092762744747277941 a1_x2
+0.08491979321961847 a2_x2
+6.9490906424594314 a3_x2
+1078.018985665411 a4_x2
+1.1478236356672107 short_2
-1.1478236356672107 surp_2
= 59595.793328330357

coupling_3: 
+0.00096378000324272046 a1_x3
+0.064190484688442642 a2_x3
+9.1883827069858288 a3_x3
+1037.5811872371437 a4_x3
+1.2101135910311673 short_3
-1.2101135910311673 surp_3
= 22843.105242106187

bounds
  0 <= a1_x1 <= 100
  0 <= a1_x2 <= 100
  0 <= a1_x3 <= 100
  0 <= a1_x4 <= 100
  0 <= a1_x5 <= 100
  0 <= a1_x6 <= 100
  0 <= a2_x1 <= 100
  0 <= a2_x2 <= 100
  0 <= a2_x3 <= 100
  0 <= a2_x4 <= 100
  0 <= a2_x5 <= 100
  0 <= a2_x6 <= 100
  0 <= a3_x1 <= 100
  0 <= a3_x2 <= 100
  0 <= a3_x3 <= 100
  0 <= a3_x4 <= 100
  0 <= a3_x5 <= 100
  0 <= a3_x6 <= 100
  0 <= a4_x1 <= 100
  0 <= a4_x2 <= 100
  0 <= a4_x3 <= 100
  0 <= a4_x4 <= 100
  0 <= a4_x5 <= 100
  0 <= a4_x6 <= 100
  0 <= short_1 <= +inf
  0 <= surp_1 <= +inf
  0 <= short_2 <= +inf
  0 <= surp_2 <= +inf
  0 <= short_3 <= +inf
  0 <= surp_3 <= +inf
 0 <= a1_z1 <= 1
 0 <= a1_z2 <= 1
 0 <= a2_z1 <= 1
 0 <= a2_z2 <= 1
 0 <= a3_z1 <= 1
 0 <= a3_z2 <= 1
 0 <= a4_z1 <= 1
 0 <= a4_z2 <= 1

binary
  a1_z1
  a1_z2
  a2_z1
  a2_z2
  a3_z1
  a3_z2
  a4_z1
  a4_z2
end
