min
obj: 
  +1.5770974257819579 a1_x1
  +5.2436233239928463 a1_x2
  +8.0695966456126804 a1_x3
  +3.4781022885686368 a1_x4
  +9.412058306823841 a1_x5
  +8.3165688602967034 a1_x6
  +34.001400959855452 a1_z1
  +10.410503430419741 a1_z2
  +6.4773554290647395 a2_x1
  +9.5833935756226563 a2_x2
  +2.026827474230366 a2_x3
  +2.5146383338919818 a2_x4
  +5.9719159164755045 a2_x5
  +2.1752834405324757 a2_x6
  +46.820939487606068 a2_z1
  +31.119838842287344 a2_z2
  +4.2898026117145012 a3_x1
  +6.2971939246586208 a3_x2
  +7.0812452369118279 a3_x3
  +4.947199835085236 a3_x4
  +8.0650994710678727 a3_x5
  +5.8436848317688934 a3_x6
  +45.408472421232204 a3_z1
  +47.685437857449642 a3_z2
  +7.6745490131872192 a4_x1
  +9.5447276615633179 a4_x2
  +6.4685946234911675 a4_x3
  +6.1047180091187832 a4_x4
  +9.0091726197219533 a4_x5
  +9.2042443028710519 a4_x6
  +10.38795682780167 a4_z1
  +22.655186795949191 a4_z2
  +1000000 short_1
  +1000000 surp_1
  +1000000 short_2
  +1000000 surp_2
  +1000000 short_3
  +1000000 surp_3

s.t.

a1_local_1: 
+65.559875736850614 a1_x1
+67.023239223169682 a1_x6
+40.877410383870917 a1_x5
<= 9124.5628970236758

a1_local_2: 
+9.3672033160453233e-08 a1_x5
+5.1660604087045362e-08 a1_x4
+1.4583742009568672e-07 a1_x1
<= 9.1014563273991055e-06

a1_local_3: 
+8.4030378706842097e-06 a1_x2
+1.1999130362059822e-05 a1_x3
+7.3842747424717091e-06 a1_x5
<= 0.0010931121299031649

a1_local_4: 
+31.282910401979048 a1_x2
+25.003384476230877 a1_x4
+11.462365107353106 a1_x1
<= 3406.4263305292998

a1_local_5: 
+312.50953048124529 a1_x1
+199.07897539312142 a1_x3
+356.99776301971207 a1_x2
<= 33720.718980265199

a1_local_6: 
+0.089273603952308156 a1_x3
+0.071357251996279236 a1_x4
+0.061137484239468222 a1_x2
<= 9.3098761456373733

a1_local_7: 
+7.1613961101746773 a1_x1
+4.4667027492570535 a1_x4
+6.1698257458142525 a1_x3
<= 986.48429784251061

a1_local_8: 
+4.1522350427570826e-07 a1_x3
+2.6747228712617856e-07 a1_x2
+3.6794417386041135e-07 a1_x5
<= 4.8011219064609306e-05

a1_act_1: 
+39.699664661582688 a1_x1
-3969.9664661582688 a1_z1
<= 0

a1_act_2: 
+9.2853305955800014 a1_x2
-928.5330595580001 a1_z2
<= 0

a2_local_1: 
+0.14661820236980969 a2_x3
+0.25257974188838334 a2_x6
+0.25259843873855659 a2_x4
<= 36.214544794225688

a2_local_2: 
+125063.8683817217 a2_x6
+51728.6388059233 a2_x4
+116386.36996891521 a2_x2
<= 15753831.014210319

a2_local_3: 
+23.991801798177246 a2_x4
+34.296268925730203 a2_x5
+41.394797995350963 a2_x2
<= 4506.0312612474499

a2_local_4: 
+2.7138333360409896e-06 a2_x6
+3.0826714386221072e-06 a2_x5
+2.1864054458959661e-06 a2_x1
<= 0.00026550994213593419

a2_local_5: 
+0.84973289704978339 a2_x6
+0.85933583192992846 a2_x5
+0.81304898779583756 a2_x2
<= 99.313295888986261

a2_local_6: 
+0.18283566493345493 a2_x1
+0.12648316848944693 a2_x6
+0.22205222370167763 a2_x3
<= 27.247093226436231

a2_local_7: 
+35.13988271298377 a2_x2
+38.888557253692049 a2_x4
+54.286891377322917 a2_x5
<= 6759.694936612178

a2_local_8: 
+1.3755457382542143e-07 a2_x4
+1.4034235007298817e-07 a2_x3
+1.7221934991203718e-07 a2_x2
<= 1.4496584345155566e-05

a2_act_1: 
+5410.2721831351728 a2_x1
-541027.21831351728 a2_z1
<= 0

a2_act_2: 
+21.338127060943922 a2_x2
-2133.8127060943921 a2_z2
<= 0

a3_local_1: 
+0.00012903988377698777 a3_x3
+0.00011371930879728413 a3_x4
+0.00014792403545930041 a3_x2
<= 0.021706463389194245

a3_local_2: 
+8.8501428603566552 a3_x3
+10.661255871864912 a3_x4
+15.59331207183242 a3_x6
<= 2295.4216758613857

a3_local_3: 
+1075188.8556884204 a3_x2
+1714841.5208867935 a3_x3
+1041154.7909217551 a3_x5
<= 144193600.23660263

a3_local_4: 
+0.34215662763724686 a3_x2
+0.5606760510960489 a3_x5
+0.49396146296362747 a3_x3
<= 73.326257503758569

a3_local_5: 
+537723.05727207172 a3_x2
+264601.08501147653 a3_x5
+575124.31863094843 a3_x3
<= 86070205.203286573

a3_local_6: 
+91250.922878024197 a3_x5
+78308.75650083099 a3_x6
+88026.227853000688 a3_x1
<= 13590388.162110921

a3_local_7: 
+208.54268712587177 a3_x3
+240.98867515914756 a3_x5
+204.6262705017615 a3_x2
<= 38497.627516827699

a3_local_8: 
+324.61904301324881 a3_x5
+495.70945648792105 a3_x3
+331.08724141591887 a3_x2
<= 64129.322040618761

a3_act_1: 
+1.7799973784025105 a3_x1
-177.99973784025104 a3_z1
<= 0

a3_act_2: 
+175353.02261030817 a3_x2
-17535302.261030816 a3_z2
<= 0

a4_local_1: 
+0.0025078083962052048 a4_x6
+0.002796908801415139 a4_x1
+0.002490456373587763 a4_x3
<= 0.29118449091389237

a4_local_2: 
+18073059.282619454 a4_x2
+30143392.790152881 a4_x4
+20041844.538652617 a4_x6
<= 3834761085.5411601

a4_local_3: 
+7929.8474483444834 a4_x3
+6019.5838055021413 a4_x2
+11805.132776739694 a4_x1
<= 777445.16148731846

a4_local_4: 
+88530.50548701582 a4_x3
+133554.93852274556 a4_x5
+137180.4541448458 a4_x2
<= 22093250.67061837

a4_local_5: 
+6693.9122053838501 a4_x3
+6904.0976532580689 a4_x2
+5404.9296143721194 a4_x1
<= 1048053.7485397522

a4_local_6: 
+6328850.9522533277 a4_x5
+2310526.3957345416 a4_x1
+5788564.7942911452 a4_x6
<= 686218187.33438385

a4_local_7: 
+305988.1778169797 a4_x6
+165063.44569508702 a4_x3
+258343.46380951392 a4_x2
<= 48708835.811920188

a4_local_8: 
+0.038979582519464151 a4_x2
+0.046217848293254794 a4_x6
+0.068061532204975433 a4_x5
<= 7.7805459912681059

a4_act_1: 
+25691.180530862104 a4_x1
-2569118.0530862105 a4_z1
<= 0

a4_act_2: 
+0.003827206813206193 a4_x2
-0.38272068132061932 a4_z2
<= 0

coupling_1: 
+0.031000128127776066 a1_x1
+4.6051534535373406 a2_x1
+404.77504384162472 a3_x1
+43604.514836773436 a4_x1
+31.05523259881258 short_1
-31.05523259881258 surp_1
= 3246088.4648324503

coupling_2: 
+1.9350665343854267e-08 a1_x2
+1.604555937190644e-06 a2_x2
+0.00025945006005279508 a3_x2
+0.023933046998537596 a4_x2
+2.1309964727709111e-05 short_2
-2.1309964727709111e-05 surp_2
= 0.87152548612241065

coupling_3: 
+8.571347090576267e-08 a1_x3
+5.6668136165402757e-06 a2_x3
+0.00045505857661061813 a3_x3
+0.059034756728490262 a4_x3
+6.9043405619719693e-05 short_3
-6.9043405619719693e-05 surp_3
= 3.472867594044716

bounds
  0 <= a1_x1 <= 100
  0 <= a1_x2 <= 100
  0 <= a1_x3 <= 100
  0 <= a1_x4 <= 100
  0 <= a1_x5 <= 100
  0 <= a1_x6 <= 100
  0 <= a2_x1 <= 100
  0 <= a2_x2 <= 100
  0 <= a2_x3 <= 100
  0 <= a2_x4 <= 100
  0 <= a2_x5 <= 100
  0 <= a2_x6 <= 100
  0 <= a3_x1 <= 100
  0 <= a3_x2 <= 100
  0 <= a3_x3 <= 100
  0 <= a3_x4 <= 100
  0 <= a3_x5 <= 100
  0 <= a3_x6 <= 100
  0 <= a4_x1 <= 100
  0 <= a4_x2 <= 100
  0 <= a4_x3 <= 100
  0 <= a4_x4 <= 100
  0 <= a4_x5 <= 100
  0 <= a4_x6 <= 100
  0 <= short_1 <= +inf
  0 <= surp_1 <= +inf
  0 <= short_2 <= +inf
  0 <= surp_2 <= +inf
  0 <= short_3 <= +inf
  0 <= surp_3 <= +inf
 0 <= a1_z1 <= 1
 0 <= a1_z2 <= 1
 0 <= a2_z1 <= 1
 0 <= a2_z2 <= 1
 0 <= a3_z1 <= 1
 0 <= a3_z2 <= 1
 0 <= a4_z1 <= 1
 0 <= a4_z2 <= 1

binary
  a1_z1
  a1_z2
  a2_z1
  a2_z2
  a3_z1
  a3_z2
  a4_z1
  a4_z2
end
