min
obj: 
  +2.370294118728955 a1_x1
  +4.0871141162290519 a1_x2
  +7.6613663727576089 a1_x3
  +4.8999168943267346 a1_x4
  +9.1856075433138287 a1_x5
  +7.8055232956727103 a1_x6
  +17.430873114549655 a1_z1
  +23.402378726140935 a1_z2
  +7.7696749959897602 a2_x1
  +1.8033642153830525 a2_x2
  +9.5715816001394138 a2_x3
  +5.6582749389411147 a2_x4
  +2.4417372334426313 a2_x5
  +7.2729933705310286 a2_x6
  +31.321727314252385 a2_z1
  +17.358761230317288 a2_z2
  +2.3493759750782877 a3_x1
  +3.4440486133066264 a3_x2
  +8.9723629811002734 a3_x3
  +1.1828241076108115 a3_x4
  +8.9432908674835829 a3_x5
  +1.7190508218957756 a3_x6
  +16.001764697499688 a3_z1
  +34.61198408971174 a3_z2
  +6.5610669509273256 a4_x1
  +3.9905359855651432 a4_x2
  +4.1004087373899605 a4_x3
  +4.8874480478433391 a4_x4
  +2.9132673248674479 a4_x5
  +5.3684179760125765 a4_x6
  +43.700484803270278 a4_z1
  +7.0959851654145574 a4_z2
  +1000000 short_1
  +1000000 surp_1
  +1000000 short_2
  +1000000 surp_2
  +1000000 short_3
  +1000000 surp_3

s.t.

a1_local_1: 
+817.19665709722153 a1_x3
+587.29532006137833 a1_x2
+326.49074821318703 a1_x1
<= 121079.678043402

a1_local_2: 
+1.8854866904989009e-08 a1_x6
+1.1211956818720177e-08 a1_x3
+1.1029599072880382e-08 a1_x2
<= 1.2727962100670864e-06

a1_local_3: 
+45.3044987784642 a1_x4
+52.404663401621235 a1_x3
+37.961146331545123 a1_x6
<= 4175.7546032494165

a1_local_4: 
+0.64081882809391288 a1_x5
+1.2101371064436703 a1_x3
+0.58246970166336487 a1_x6
<= 131.23135017643369

a1_local_5: 
+0.55119769666649032 a1_x3
+0.41735044904293245 a1_x5
+0.22101848813369857 a1_x4
<= 72.106980177197727

a1_local_6: 
+0.0022131589466802067 a1_x3
+0.0015969369605217814 a1_x1
+0.001213888757116722 a1_x6
<= 0.25011114358504488

a1_local_7: 
+0.0097241999419420879 a1_x6
+0.01141196002858692 a1_x1
+0.010972173235099896 a1_x4
<= 1.477802217026043

a1_local_8: 
+0.034141239162707671 a1_x3
+0.05200459597252341 a1_x2
+0.055714799710601517 a1_x4
<= 5.1752087909826061

a1_act_1: 
+116.9075444956442 a1_x1
-11690.75444956442 a1_z1
<= 0

a1_act_2: 
+29065.756769153348 a1_x2
-2906575.6769153345 a1_z2
<= 0

a2_local_1: 
+2.6288750152775506 a2_x3
+3.0742911823108066 a2_x2
+1.5292073670179607 a2_x1
<= 458.06092456559776

a2_local_2: 
+1.1575883562390092 a2_x6
+2.7371885208164626 a2_x2
+3.024739703173299 a2_x1
<= 441.97693930496337

a2_local_3: 
+0.0030902404658872044 a2_x2
+0.0051117241652734839 a2_x3
+0.002875620053832433 a2_x1
<= 0.61813774941587063

a2_local_4: 
+0.065530387324091458 a2_x1
+0.062833712815903525 a2_x4
+0.074668431071258479 a2_x5
<= 11.514678568782463

a2_local_5: 
+0.34226725376765521 a2_x1
+0.51502778977282082 a2_x6
+0.46129867253637263 a2_x3
<= 40.806779256580974

a2_local_6: 
+187.76113232355041 a2_x1
+153.05446426750834 a2_x6
+332.15675715406428 a2_x2
<= 32814.494859843726

a2_local_7: 
+3.661365401545828e-06 a2_x3
+3.2932550379799681e-06 a2_x2
+4.351857621017709e-06 a2_x4
<= 0.00046497217905914741

a2_local_8: 
+0.1867306292281804 a2_x4
+0.096179357905608748 a2_x3
+0.16488443783690571 a2_x1
<= 27.068970139303175

a2_act_1: 
+0.0065671735624934805 a2_x1
-0.65671735624934802 a2_z1
<= 0

a2_act_2: 
+33445.525082691755 a2_x2
-3344552.5082691754 a2_z2
<= 0

a3_local_1: 
+982.71599638081238 a3_x5
+660.35245917829013 a3_x4
+1737.9168473849929 a3_x2
<= 151760.7085015187

a3_local_2: 
+4557796.4557077056 a3_x4
+3296208.326845861 a3_x5
+4666189.9970806269 a3_x3
<= 630221954.06370795

a3_local_3: 
+0.0046102916568138211 a3_x4
+0.0024408431191782036 a3_x3
+0.0053204574944299603 a3_x6
<= 0.52441986116706507

a3_local_4: 
+33391.166550140842 a3_x4
+35182.389418315157 a3_x5
+42906.781110102464 a3_x2
<= 6137119.2255893592

a3_local_5: 
+5.7680358186114331e-05 a3_x4
+2.2647078534801372e-05 a3_x6
+4.9519809951798466e-05 a3_x5
<= 0.0053435359960476983

a3_local_6: 
+12.849732439488369 a3_x1
+12.314196677970482 a3_x5
+13.877712374756911 a3_x3
<= 1293.3719311994691

a3_local_7: 
+0.018824802449332462 a3_x6
+0.014743764544477889 a3_x4
+0.025754940246241319 a3_x1
<= 2.2365198718100761

a3_local_8: 
+25.957150907157086 a3_x4
+12.683764610190471 a3_x2
+24.371742325488079 a3_x1
<= 3985.4951341596197

a3_act_1: 
+3801.4132066783945 a3_x1
-380141.32066783943 a3_z1
<= 0

a3_act_2: 
+0.0078713682942155375 a3_x2
-0.78713682942155372 a3_z2
<= 0

a4_local_1: 
+50614.69654179729 a4_x5
+63545.917870133882 a4_x2
+47791.806036941671 a4_x1
<= 10835479.875628872

a4_local_2: 
+0.027289766278999445 a4_x4
+0.01496605567194819 a4_x2
+0.031157632556538511 a4_x6
<= 4.5828141092596493

a4_local_3: 
+13614.801690959755 a4_x1
+9720.6931134382266 a4_x3
+10278.948800641769 a4_x6
<= 1665195.7913425539

a4_local_4: 
+90098.421365239788 a4_x3
+118781.74307443609 a4_x4
+97048.496881643616 a4_x1
<= 18467592.437426075

a4_local_5: 
+5.6772055481155235 a4_x6
+5.8650938541563642 a4_x3
+3.1032034814233334 a4_x4
<= 700.56057582874905

a4_local_6: 
+55.410477173770907 a4_x5
+118.67990259121814 a4_x4
+58.959751205058929 a4_x2
<= 13050.528150067894

a4_local_7: 
+65725031.006929807 a4_x6
+47667058.655341111 a4_x2
+51178811.271850295 a4_x4
<= 11138088480.980621

a4_local_8: 
+1735.4039490090051 a4_x6
+2853.9234448983157 a4_x2
+2802.5491752191815 a4_x1
<= 267131.82223018288

a4_act_1: 
+2.2642359365464826e-05 a4_x1
-0.0022642359365464826 a4_z1
<= 0

a4_act_2: 
+392426.06953591196 a4_x2
-39242606.953591198 a4_z2
<= 0

coupling_1: 
+4.5904925519467154e-07 a1_x1
+7.4505312319332416e-05 a2_x1
+0.0065104607024211412 a3_x1
+0.724809202305707 a4_x1
+0.0005379965990882083 short_1
-0.0005379965990882083 surp_1
= 15.311625329931427

coupling_2: 
+0.010371072084359998 a1_x2
+1.5104080777249953 a2_x2
+129.54519612086145 a3_x2
+13987.920292769464 a4_x2
+10.805334372250375 short_2
-10.805334372250375 surp_2
= 1108864.955993314

coupling_3: 
+7.8641610162945368e-08 a1_x3
+8.4408548952590255e-06 a2_x3
+0.0017024414159063105 a3_x3
+0.15374790697126689 a4_x3
+0.00012983188798457976 short_3
-0.00012983188798457976 surp_3
= 8.6420746956631618

bounds
  0 <= a1_x1 <= 100
  0 <= a1_x2 <= 100
  0 <= a1_x3 <= 100
  0 <= a1_x4 <= 100
  0 <= a1_x5 <= 100
  0 <= a1_x6 <= 100
  0 <= a2_x1 <= 100
  0 <= a2_x2 <= 100
  0 <= a2_x3 <= 100
  0 <= a2_x4 <= 100
  0 <= a2_x5 <= 100
  0 <= a2_x6 <= 100
  0 <= a3_x1 <= 100
  0 <= a3_x2 <= 100
  0 <= a3_x3 <= 100
  0 <= a3_x4 <= 100
  0 <= a3_x5 <= 100
  0 <= a3_x6 <= 100
  0 <= a4_x1 <= 100
  0 <= a4_x2 <= 100
  0 <= a4_x3 <= 100
  0 <= a4_x4 <= 100
  0 <= a4_x5 <= 100
  0 <= a4_x6 <= 100
  0 <= short_1 <= +inf
  0 <= surp_1 <= +inf
  0 <= short_2 <= +inf
  0 <= surp_2 <= +inf
  0 <= short_3 <= +inf
  0 <= surp_3 <= +inf
 0 <= a1_z1 <= 1
 0 <= a1_z2 <= 1
 0 <= a2_z1 <= 1
 0 <= a2_z2 <= 1
 0 <= a3_z1 <= 1
 0 <= a3_z2 <= 1
 0 <= a4_z1 <= 1
 0 <= a4_z2 <= 1

binary
  a1_z1
  a1_z2
  a2_z1
  a2_z2
  a3_z1
  a3_z2
  a4_z1
  a4_z2
end
