min
obj: 
  +7.7820756929973847 a1_x1
  +2.6204029212029933 a1_x2
  +1.0229393332967094 a1_x3
  +7.1910932224071349 a1_x4
  +4.2632745770435907 a1_x5
  +6.0246265469097295 a1_x6
  +42.771027111197313 a1_z1
  +28.114118371176183 a1_z2
  +5.7911212590182997 a2_x1
  +5.4348931719458209 a2_x2
  +9.4259627235885386 a2_x3
  +8.9213052519907556 a2_x4
  +6.1484548986939966 a2_x5
  +2.146409388681831 a2_x6
  +31.660946131309107 a2_z1
  +6.9899613369063101 a2_z2
  +2.8186252614454075 a3_x1
  +1.3641205917884647 a3_x2
  +2.33366974601915 a3_x3
  +2.4556775991065138 a3_x4
  +5.2278265061317715 a3_x5
  +6.6696189442115292 a3_x6
  +49.857919593613119 a3_z1
  +30.640944798186169 a3_z2
  +7.0994894146457632 a4_x1
  +9.5674915626052641 a4_x2
  +9.235478138695818 a4_x3
  +8.9478139676632793 a4_x4
  +7.4338997063934436 a4_x5
  +1.7960169742966061 a4_x6
  +7.4304140982629434 a4_z1
  +14.530204301669533 a4_z2
  +1000000 short_1
  +1000000 surp_1
  +1000000 short_2
  +1000000 surp_2
  +1000000 short_3
  +1000000 surp_3

s.t.

a1_local_1: 
+37.827781679787783 a1_x4
+58.121578763873536 a1_x6
+27.005136760635192 a1_x3
<= 6146.0900172317279

a1_local_2: 
+6.5995451659656853e-05 a1_x6
+4.6267328841045204e-05 a1_x5
+6.7327355899333578e-05 a1_x4
<= 0.0095158128995443195

a1_local_3: 
+6.2929668684932452 a1_x4
+8.3029331815531471 a1_x2
+8.8342838822564094 a1_x3
<= 1359.1245661571459

a1_local_4: 
+2.0933779954202255e-05 a1_x4
+1.3938074700896755e-05 a1_x5
+2.1921973878004504e-05 a1_x2
<= 0.0028940741972385197

a1_local_5: 
+0.12355887652284446 a1_x2
+0.3006644431724701 a1_x5
+0.14664476456939554 a1_x4
<= 31.580575138454307

a1_local_6: 
+6.7631746507896908 a1_x2
+7.7993066675885938 a1_x3
+3.97905958474484 a1_x1
<= 1005.0228470733099

a1_local_7: 
+106.65966882020376 a1_x5
+222.78519696571007 a1_x2
+107.20105490549972 a1_x6
<= 23959.466857419477

a1_local_8: 
+0.38982050289274633 a1_x5
+0.69546091574024271 a1_x1
+0.50602461741944615 a1_x6
<= 97.777521451666061

a1_act_1: 
+7.5211378705497252 a1_x1
-752.11378705497248 a1_z1
<= 0

a1_act_2: 
+133684.08856022861 a1_x2
-13368408.856022861 a1_z2
<= 0

a2_local_1: 
+7.2232372046103571e-07 a2_x6
+1.0782239308976911e-06 a2_x4
+1.0726338310152719e-06 a2_x3
<= 0.00018080198247684895

a2_local_2: 
+0.80233495990818871 a2_x5
+1.1124895167973279 a2_x4
+1.6713602618622228 a2_x6
<= 162.70696936810424

a2_local_3: 
+0.0027499447541306913 a2_x4
+0.0018601494417725684 a2_x5
+0.003664369780394226 a2_x3
<= 0.25633067420397443

a2_local_4: 
+0.053781405688161726 a2_x5
+0.053109473957049132 a2_x6
+0.15273685510067622 a2_x4
<= 9.6999760099833381

a2_local_5: 
+3.986114532741841 a2_x4
+2.4820886421909774 a2_x2
+4.9728303980663631 a2_x3
<= 544.89733132841786

a2_local_6: 
+0.0077742075297917547 a2_x5
+0.0068720814880280324 a2_x4
+0.0070799367921338847 a2_x3
<= 0.82207264699115157

a2_local_7: 
+46255.086707347014 a2_x1
+74194.850481906207 a2_x6
+49570.427505720239 a2_x4
<= 11872092.375341078

a2_local_8: 
+3.9235928423240732e-06 a2_x4
+3.6442242972732322e-06 a2_x3
+2.4506278977467135e-06 a2_x5
<= 0.00038393304698017223

a2_act_1: 
+421.10662114422365 a2_x1
-42110.662114422368 a2_z1
<= 0

a2_act_2: 
+0.00032430849539005925 a2_x2
-0.032430849539005928 a2_z2
<= 0

a3_local_1: 
+38775.032518507469 a3_x6
+59327.045885411222 a3_x2
+48867.295767161115 a3_x1
<= 9815238.8562513348

a3_local_2: 
+43.155628484315834 a3_x1
+29.034864088612238 a3_x6
+24.063799050733213 a3_x2
<= 6602.505943062899

a3_local_3: 
+0.24958284285234769 a3_x6
+0.59750228529330729 a3_x5
+0.28123766485333024 a3_x3
<= 59.828791972482861

a3_local_4: 
+17172.857391871952 a3_x2
+7902.0290402388637 a3_x6
+18848.324238319688 a3_x4
<= 1862999.0606554432

a3_local_5: 
+4.456973830072384e-05 a3_x1
+5.9432168492754664e-05 a3_x5
+3.9808380478002527e-05 a3_x3
<= 0.0071289518749169294

a3_local_6: 
+178904.46489799893 a3_x5
+211774.56901776404 a3_x2
+175212.62819194794 a3_x3
<= 29160165.190375347

a3_local_7: 
+3.2858058367517993 a3_x2
+2.6869179557668148 a3_x3
+3.9090554897386687 a3_x1
<= 527.74100785405858

a3_local_8: 
+102.84207163521741 a3_x6
+47.808689593375263 a3_x1
+83.739697350177408 a3_x2
<= 10662.572844527471

a3_act_1: 
+0.00096353767655552752 a3_x1
-0.096353767655552758 a3_z1
<= 0

a3_act_2: 
+0.00038953720416156734 a3_x2
-0.038953720416156731 a3_z2
<= 0

a4_local_1: 
+16002888.067796154 a4_x1
+36768866.75977616 a4_x6
+19405063.579190552 a4_x5
<= 4559147940.4151297

a4_local_2: 
+7028169.6907015881 a4_x2
+3340728.2377224006 a4_x5
+6552003.8008749699 a4_x4
<= 1137603706.7473419

a4_local_3: 
+4580755.7625647495 a4_x6
+3563111.3768796707 a4_x2
+2098695.846145527 a4_x5
<= 596484915.17651772

a4_local_4: 
+273663.9372735779 a4_x6
+166227.23953113469 a4_x3
+287080.36338047741 a4_x4
<= 46032070.251704007

a4_local_5: 
+14366.369190748474 a4_x5
+14614.716381919197 a4_x2
+25041.530958476917 a4_x3
<= 2164533.3300539758

a4_local_6: 
+5203284.502975137 a4_x1
+4437270.66175438 a4_x5
+5326758.3604250206 a4_x4
<= 825367273.02018309

a4_local_7: 
+0.042017830588908893 a4_x6
+0.080895459704312667 a4_x3
+0.066972415205509062 a4_x2
<= 11.416992236184006

a4_local_8: 
+168996.58366706505 a4_x3
+267795.95435809949 a4_x6
+134356.27691118125 a4_x4
<= 20584767.778324459

a4_act_1: 
+270.67735686498156 a4_x1
-27067.735686498156 a4_z1
<= 0

a4_act_2: 
+0.83645193683873353 a4_x2
-83.645193683873359 a4_z2
<= 0

coupling_1: 
+3.0207103395789554 a1_x1
+377.7858130840923 a2_x1
+30405.428531725731 a3_x1
+1993073.2144241582 a4_x1
+3067.0209961217961 short_1
-3067.0209961217961 surp_1
= 143317043.56085464

coupling_2: 
+5.0413325550352467e-06 a1_x2
+0.0004481608055487878 a2_x2
+0.047141842832338382 a3_x2
+3.5616028464068052 a4_x2
+0.0036086311050635951 short_2
-0.0036086311050635951 surp_2
= 101.0663785657739

coupling_3: 
+0.0013042866560825331 a1_x3
+0.091811068638505341 a2_x3
+5.8866396137721182 a3_x3
+581.60884106861693 a4_x3
+1.1154625157093416 short_3
-1.1154625157093416 surp_3
= 13178.070196763758

bounds
  0 <= a1_x1 <= 100
  0 <= a1_x2 <= 100
  0 <= a1_x3 <= 100
  0 <= a1_x4 <= 100
  0 <= a1_x5 <= 100
  0 <= a1_x6 <= 100
  0 <= a2_x1 <= 100
  0 <= a2_x2 <= 100
  0 <= a2_x3 <= 100
  0 <= a2_x4 <= 100
  0 <= a2_x5 <= 100
  0 <= a2_x6 <= 100
  0 <= a3_x1 <= 100
  0 <= a3_x2 <= 100
  0 <= a3_x3 <= 100
  0 <= a3_x4 <= 100
  0 <= a3_x5 <= 100
  0 <= a3_x6 <= 100
  0 <= a4_x1 <= 100
  0 <= a4_x2 <= 100
  0 <= a4_x3 <= 100
  0 <= a4_x4 <= 100
  0 <= a4_x5 <= 100
  0 <= a4_x6 <= 100
  0 <= short_1 <= +inf
  0 <= surp_1 <= +inf
  0 <= short_2 <= +inf
  0 <= surp_2 <= +inf
  0 <= short_3 <= +inf
  0 <= surp_3 <= +inf
 0 <= a1_z1 <= 1
 0 <= a1_z2 <= 1
 0 <= a2_z1 <= 1
 0 <= a2_z2 <= 1
 0 <= a3_z1 <= 1
 0 <= a3_z2 <= 1
 0 <= a4_z1 <= 1
 0 <= a4_z2 <= 1

binary
  a1_z1
  a1_z2
  a2_z1
  a2_z2
  a3_z1
  a3_z2
  a4_z1
  a4_z2
end
