min
obj: 
  +4.6820518769511636 a1_x1
  +5.7129162548306427 a1_x2
  +9.0056358908477314 a1_x3
  +9.0172471176233611 a1_x4
  +9.406385688684578 a1_x5
  +5.7753562095118767 a1_x6
  +36.440798325108226 a1_z1
  +20.355895911925103 a1_z2
  +9.8523773325997031 a2_x1
  +8.6665660995193221 a2_x2
  +1.318348960475541 a2_x3
  +8.2691943978607085 a2_x4
  +6.0635318483155114 a2_x5
  +3.2631581910354219 a2_x6
  +31.015799445658949 a2_z1
  +42.142738976131909 a2_z2
  +3.407000856972263 a3_x1
  +9.4188250932667614 a3_x2
  +9.7490010795163791 a3_x3
  +7.0450820339939781 a3_x4
  +9.9763761898407548 a3_x5
  +5.8473553548384958 a3_x6
  +49.073547744148975 a3_z1
  +13.999141819476126 a3_z2
  +1.9143138950663818 a4_x1
  +6.1042201720531999 a4_x2
  +2.2574896326389386 a4_x3
  +5.6594666769891386 a4_x4
  +4.3520497618016583 a4_x5
  +6.7823412192640848 a4_x6
  +29.956754589694771 a4_z1
  +32.972144993024642 a4_z2
  +1000000 short_1
  +1000000 surp_1
  +1000000 short_2
  +1000000 surp_2
  +1000000 short_3
  +1000000 surp_3

s.t.

a1_local_1: 
+3.9513561099613194e-08 a1_x4
+3.2329961556271467e-08 a1_x2
+2.1288270463216642e-08 a1_x6
<= 4.0858428162894331e-06

a1_local_2: 
+0.00020814743070045812 a1_x3
+9.3092275951967571e-05 a1_x4
+0.00018758447637202383 a1_x5
<= 0.020534492798214912

a1_local_3: 
+0.61170000277962022 a1_x1
+1.0754391342952856 a1_x3
+0.80435441831657661 a1_x6
<= 129.73356648363915

a1_local_4: 
+4.3356768366254487e-08 a1_x2
+3.7669021254344626e-08 a1_x1
+7.4580468463067698e-08 a1_x5
<= 7.4438287009401872e-06

a1_local_5: 
+2.5144701491567116 a1_x2
+4.0940487828601189 a1_x3
+4.1977344057015689 a1_x5
<= 460.21342671693014

a1_local_6: 
+1.8236065752872344e-08 a1_x6
+1.2827825413181564e-08 a1_x1
+1.6198373296481626e-08 a1_x3
<= 2.465742201157538e-06

a1_local_7: 
+1.8339865253154359 a1_x4
+1.4847701207465078 a1_x2
+1.367950912262011 a1_x5
<= 246.79229005921377

a1_local_8: 
+7.1549196506900236e-09 a1_x6
+6.9840576383913895e-09 a1_x2
+5.7077617687802274e-09 a1_x4
<= 1.2414619821300118e-06

a1_act_1: 
+1.9628201094604767e-05 a1_x1
-0.0019628201094604768 a1_z1
<= 0

a1_act_2: 
+0.072730685835722911 a1_x2
-7.2730685835722912 a1_z2
<= 0

a2_local_1: 
+25791.248045097323 a2_x2
+35445.736822830055 a2_x6
+37148.846020345925 a2_x5
<= 3262159.4501751787

a2_local_2: 
+1.2995151368197804 a2_x1
+1.5247229644574969 a2_x4
+1.9206771362353978 a2_x5
<= 329.48676484979006

a2_local_3: 
+192.50629883236621 a2_x2
+133.68562501943887 a2_x5
+82.850455149124926 a2_x1
<= 25818.990657783164

a2_local_4: 
+4.2880294531928227 a2_x6
+8.2298200557250514 a2_x4
+4.5615294991517841 a2_x5
<= 636.92174478162906

a2_local_5: 
+1.4664716076891815e-06 a2_x5
+2.7173027564411687e-06 a2_x3
+1.9080600877104143e-06 a2_x6
<= 0.00031483162982848538

a2_local_6: 
+248.04057998803066 a2_x6
+173.42987528333217 a2_x4
+226.56640693928549 a2_x1
<= 34107.683210772702

a2_local_7: 
+1124.2738561919632 a2_x3
+1026.8142668943351 a2_x6
+1278.5232198820788 a2_x1
<= 160304.5585252266

a2_local_8: 
+1.3072986736596577 a2_x5
+1.3101821392454522 a2_x3
+1.4140610911082048 a2_x6
<= 280.41968284834672

a2_act_1: 
+0.36369542065584565 a2_x1
-36.369542065584568 a2_z1
<= 0

a2_act_2: 
+8.366740682445806e-06 a2_x2
-0.00083667406824458059 a2_z2
<= 0

a3_local_1: 
+1174.8453865143069 a3_x5
+794.27682226823049 a3_x2
+950.68700551178665 a3_x3
<= 113065.01615268597

a3_local_2: 
+128.09566881030904 a3_x2
+84.188409269441905 a3_x3
+115.00784346854248 a3_x4
<= 16591.892917804049

a3_local_3: 
+0.20423213634675508 a3_x6
+0.41512212609055366 a3_x4
+0.35634676726288678 a3_x1
<= 66.949380429454294

a3_local_4: 
+0.0004152271617467873 a3_x4
+0.00046726589616026337 a3_x2
+0.00018808999030664109 a3_x1
<= 0.052707228192191938

a3_local_5: 
+20.009846382298786 a3_x3
+39.136400256088535 a3_x5
+45.672937829611413 a3_x2
<= 5184.7646401183383

a3_local_6: 
+0.08669947219394572 a3_x1
+0.07854503778098508 a3_x6
+0.070640708846972364 a3_x2
<= 10.70487120838423

a3_local_7: 
+85587.060042698271 a3_x1
+114183.08267072357 a3_x4
+64408.52709416156 a3_x6
<= 9017017.1915023904

a3_local_8: 
+388.10713683170559 a3_x4
+184.95330221475521 a3_x3
+297.63565424262634 a3_x5
<= 55345.830113228229

a3_act_1: 
+0.00051177465597417591 a3_x1
-0.051177465597417593 a3_z1
<= 0

a3_act_2: 
+3.5443538682302975 a3_x2
-354.43538682302977 a3_z2
<= 0

a4_local_1: 
+30275.091572593203 a4_x3
+23077.454827296231 a4_x5
+26427.329728163997 a4_x2
<= 5097450.4695076104

a4_local_2: 
+167.35008881546869 a4_x3
+78.555872959909834 a4_x2
+117.05915466504791 a4_x6
<= 12470.593049463292

a4_local_3: 
+0.033082813769358552 a4_x5
+0.051279717376593724 a4_x6
+0.061018943263865831 a4_x3
<= 8.5143868694276232

a4_local_4: 
+4821.565778436463 a4_x3
+4554.3938349830987 a4_x6
+5218.0958519313463 a4_x1
<= 992000.6201879764

a4_local_5: 
+0.081296123256711997 a4_x3
+0.083765047638202958 a4_x6
+0.030857285514975696 a4_x5
<= 10.124674691456246

a4_local_6: 
+1763.3902591556091 a4_x3
+1833.5358755539185 a4_x4
+2481.631494669894 a4_x6
<= 356317.21571795404

a4_local_7: 
+0.82683901637165713 a4_x6
+0.73967074842631331 a4_x3
+1.0923054862122654 a4_x1
<= 179.89695630987413

a4_local_8: 
+0.035286654699673091 a4_x1
+0.080205882279149335 a4_x6
+0.061189061104042396 a4_x3
<= 9.3561686778798041

a4_act_1: 
+0.0003984222716995969 a4_x1
-0.039842227169959693 a4_z1
<= 0

a4_act_2: 
+0.0023205767078603992 a4_x2
-0.23205767078603992 a4_z2
<= 0

coupling_1: 
+598.85747169362924 a1_x1
+39740.158266979219 a2_x1
+3825590.8679167363 a3_x1
+797964789.62619317 a4_x1
+667620.69556152553 short_1
-667620.69556152553 surp_1
= 40462640333.439774

coupling_2: 
+0.00035017740954005851 a1_x2
+0.016620566777388841 a2_x2
+1.7198184072298059 a3_x2
+401.78004641883547 a4_x2
+0.28973691174563837 short_2
-0.28973691174563837 surp_2
= 9602.6159220576646

coupling_3: 
+0.12030807264692364 a1_x3
+20.14898552515373 a2_x3
+989.32610536870118 a3_x3
+193516.0003712386 a4_x3
+156.37143617608061 short_3
-156.37143617608061 surp_3
= 11696934.159262877

bounds
  0 <= a1_x1 <= 100
  0 <= a1_x2 <= 100
  0 <= a1_x3 <= 100
  0 <= a1_x4 <= 100
  0 <= a1_x5 <= 100
  0 <= a1_x6 <= 100
  0 <= a2_x1 <= 100
  0 <= a2_x2 <= 100
  0 <= a2_x3 <= 100
  0 <= a2_x4 <= 100
  0 <= a2_x5 <= 100
  0 <= a2_x6 <= 100
  0 <= a3_x1 <= 100
  0 <= a3_x2 <= 100
  0 <= a3_x3 <= 100
  0 <= a3_x4 <= 100
  0 <= a3_x5 <= 100
  0 <= a3_x6 <= 100
  0 <= a4_x1 <= 100
  0 <= a4_x2 <= 100
  0 <= a4_x3 <= 100
  0 <= a4_x4 <= 100
  0 <= a4_x5 <= 100
  0 <= a4_x6 <= 100
  0 <= short_1 <= +inf
  0 <= surp_1 <= +inf
  0 <= short_2 <= +inf
  0 <= surp_2 <= +inf
  0 <= short_3 <= +inf
  0 <= surp_3 <= +inf
 0 <= a1_z1 <= 1
 0 <= a1_z2 <= 1
 0 <= a2_z1 <= 1
 0 <= a2_z2 <= 1
 0 <= a3_z1 <= 1
 0 <= a3_z2 <= 1
 0 <= a4_z1 <= 1
 0 <= a4_z2 <= 1

binary
  a1_z1
  a1_z2
  a2_z1
  a2_z2
  a3_z1
  a3_z2
  a4_z1
  a4_z2
end
