min
obj: 
  +3.043052453503527 a1_x1
  +8.5242104678500681 a1_x2
  +7.6930756521091874 a1_x3
  +6.9189962156082423 a1_x4
  +9.2097073421305335 a1_x5
  +1.6783613276554563 a1_x6
  +29.957301038510835 a1_z1
  +31.080729858907144 a1_z2
  +3.9982275243752419 a2_x1
  +4.0716566341487717 a2_x2
  +8.3479540678562252 a2_x3
  +4.8717105490747867 a2_x4
  +6.0061452108085005 a2_x5
  +2.7882654202354971 a2_x6
  +21.648290212377919 a2_z1
  +42.54057128991149 a2_z2
  +2.9928805955584821 a3_x1
  +5.5354110864277946 a3_x2
  +5.213896919227734 a3_x3
  +2.0650047465660801 a3_x4
  +6.4105355661416237 a3_x5
  +2.6598622040549174 a3_x6
  +31.217971703687525 a3_z1
  +44.913093336265895 a3_z2
  +1.3478391985630118 a4_x1
  +6.3176473690479504 a4_x2
  +9.9894359630934186 a4_x3
  +5.7054129264347031 a4_x4
  +4.4415295718065089 a4_x5
  +5.0613340194576661 a4_x6
  +15.238383211322466 a4_z1
  +39.666499040349478 a4_z2
  +1000000 short_1
  +1000000 surp_1
  +1000000 short_2
  +1000000 surp_2
  +1000000 short_3
  +1000000 surp_3

s.t.

a1_local_1: 
+0.6108352406217703 a1_x4
+0.75992141376050704 a1_x3
+1.6371026645124438 a1_x1
<= 186.84874811651443

a1_local_2: 
+1.2816727312149632 a1_x5
+0.7802303783525526 a1_x2
+0.96459965814708049 a1_x1
<= 118.14080501464848

a1_local_3: 
+0.83814828794477125 a1_x1
+1.1866722829728054 a1_x5
+1.1931062968011379 a1_x4
<= 184.90245738792163

a1_local_4: 
+1.7157663527066787 a1_x4
+1.2882459592162221 a1_x1
+1.3813422351551679 a1_x2
<= 184.39876968004188

a1_local_5: 
+0.76839671045887636 a1_x4
+1.5705830582505265 a1_x6
+0.63670621858986609 a1_x3
<= 203.99958733883088

a1_local_6: 
+0.77981160522968507 a1_x5
+1.3320970965516734 a1_x1
+0.75069602853173789 a1_x6
<= 154.87677919563512

a1_local_7: 
+1.1665526777181088 a1_x1
+1.2224709658400097 a1_x2
+0.81801533774085089 a1_x4
<= 182.71194594159218

a1_local_8: 
+1.5175426503233505 a1_x3
+1.6116386587670135 a1_x6
+0.62048648098640868 a1_x5
<= 192.24584051903966

a1_act_1: 
+0.099999999999999992 a1_x1
-9.9999999999999982 a1_z1
<= 0

a1_act_2: 
+0.10000000000000001 a1_x2
-10 a1_z2
<= 0

a2_local_1: 
+0.83121414050046549 a2_x5
+1.0130779955759122 a2_x3
+1.2030594178750498 a2_x6
<= 200.08494408220861

a2_local_2: 
+0.80080234873124057 a2_x4
+1.2487475861982178 a2_x3
+0.85059161206027145 a2_x6
<= 141.84245488227077

a2_local_3: 
+1.1275326115402597 a2_x3
+0.84431617156280248 a2_x1
+1.1843904377065662 a2_x2
<= 209.1570788209392

a2_local_4: 
+1.1738365543853597 a2_x4
+0.90978364752428631 a2_x5
+0.85190735989953625 a2_x1
<= 91.922379094820215

a2_local_5: 
+1.2218594129167171 a2_x1
+1.3712936057216345 a2_x6
+0.72923843284003087 a2_x2
<= 200.80296991925582

a2_local_6: 
+1.0657790371032199 a2_x1
+0.84355059122910925 a2_x5
+1.1854653537056188 a2_x3
<= 169.19342062257232

a2_local_7: 
+0.74943303332591915 a2_x3
+1.4059169830871248 a2_x6
+0.71127955066322002 a2_x1
<= 132.19884138635334

a2_local_8: 
+0.72695623445771251 a2_x4
+1.2748383830115055 a2_x1
+1.3755986297386527 a2_x6
<= 121.40413491819471

a2_act_1: 
+0.10000000000000001 a2_x1
-10 a2_z1
<= 0

a2_act_2: 
+0.099999999999999992 a2_x2
-10 a2_z2
<= 0

a3_local_1: 
+1.6069357663193369 a3_x4
+0.62230240994043318 a3_x2
+1.1489362166329999 a3_x5
<= 180.71658361201324

a3_local_2: 
+1.0413565192452914 a3_x1
+0.96028591699290056 a3_x6
+1.0014092714346958 a3_x3
<= 96.326670460255542

a3_local_3: 
+1.1439014425380363 a3_x2
+0.97424530062977965 a3_x6
+0.8742011879810605 a3_x5
<= 209.12867977639806

a3_local_4: 
+0.83646468463381485 a3_x1
+1.1955077343615257 a3_x5
+1.1212881366714094 a3_x4
<= 100.43263112113526

a3_local_5: 
+1.3318714440171868 a3_x4
+0.75082321532760166 a3_x2
+1.1525023835381898 a3_x6
<= 131.07917882021133

a3_local_6: 
+0.91886614957596946 a3_x5
+0.7945062754270612 a3_x2
+1.258643299528984 a3_x1
<= 148.23468286587337

a3_local_7: 
+1.4269328797408114 a3_x2
+1.3457235300016739 a3_x4
+0.70080381088537291 a3_x5
<= 222.96661119032044

a3_local_8: 
+0.43533703839269516 a3_x3
+0.47280372398178389 a3_x5
+0.74038545815377244 a3_x6
<= 81.555464989263399

a3_act_1: 
+0.10000000000000001 a3_x1
-10 a3_z1
<= 0

a3_act_2: 
+0.099999999999999992 a3_x2
-9.9999999999999982 a3_z2
<= 0

a4_local_1: 
+0.7977388225289137 a4_x6
+1.2535431042830505 a4_x2
+0.97361602930101743 a4_x1
<= 93.364521298471431

a4_local_2: 
+0.9755219323215617 a4_x1
+1.1677949602310087 a4_x6
+0.85631470767966311 a4_x5
<= 99.126498019476813

a4_local_3: 
+1.1088163646805387 a4_x6
+0.89504944078909066 a4_x3
+1.1172567172584154 a4_x2
<= 134.03701841242651

a4_local_4: 
+0.83066174780787505 a4_x4
+1.2038594561974358 a4_x6
+1.1137007347118573 a4_x2
<= 122.18659249368861

a4_local_5: 
+1.5178039652775257 a4_x5
+0.65884661186608051 a4_x6
+0.95218348458280599 a4_x1
<= 114.38959660981772

a4_local_6: 
+1.2160102572228435 a4_x5
+1.0453147602173307 a4_x1
+0.82236148425575506 a4_x2
<= 200.88225268007602

a4_local_7: 
+1.3640820842263421 a4_x4
+1.1361642867030537 a4_x2
+0.73309371302766113 a4_x5
<= 154.88574268506829

a4_local_8: 
+1.4019604847134937 a4_x3
+0.71328686571673328 a4_x1
+1.1807311926564823 a4_x2
<= 210.71218896068643

a4_act_1: 
+0.10000000000000001 a4_x1
-10 a4_z1
<= 0

a4_act_2: 
+0.10000000000000001 a4_x2
-10.000000000000002 a4_z2
<= 0

coupling_1: 
+1.3235684726014971e-06 a1_x1
+0.00018260638167602686 a2_x1
+0.011164375598535961 a3_x1
+0.99993583815433462 a4_x1
+0.0013496194353798236 short_1
-0.0013496194353798236 surp_1
= 57.806439709207531

coupling_2: 
+7.9882255025954216e-07 a1_x2
+9.783521648525976e-05 a2_x2
+0.004652580231061145 a3_x2
+0.99998861481159151 a4_x2
+0.000746381946549772 short_2
-0.000746381946549772 surp_2
= 71.810578637137169

coupling_3: 
+1.0372454153006756e-06 a1_x3
+5.8457542498139835e-05 a2_x3
+0.011034046575296377 a3_x3
+0.99993839229816706 a4_x3
+0.00085381671657085286 short_3
-0.00085381671657085286 surp_3
= 24.849720799303295

bounds
  0 <= a1_x1 <= 100
  0 <= a1_x2 <= 100
  0 <= a1_x3 <= 100
  0 <= a1_x4 <= 100
  0 <= a1_x5 <= 100
  0 <= a1_x6 <= 100
  0 <= a2_x1 <= 100
  0 <= a2_x2 <= 100
  0 <= a2_x3 <= 100
  0 <= a2_x4 <= 100
  0 <= a2_x5 <= 100
  0 <= a2_x6 <= 100
  0 <= a3_x1 <= 100
  0 <= a3_x2 <= 100
  0 <= a3_x3 <= 100
  0 <= a3_x4 <= 100
  0 <= a3_x5 <= 100
  0 <= a3_x6 <= 100
  0 <= a4_x1 <= 100
  0 <= a4_x2 <= 100
  0 <= a4_x3 <= 100
  0 <= a4_x4 <= 100
  0 <= a4_x5 <= 100
  0 <= a4_x6 <= 100
  0 <= short_1 <= +inf
  0 <= surp_1 <= +inf
  0 <= short_2 <= +inf
  0 <= surp_2 <= +inf
  0 <= short_3 <= +inf
  0 <= surp_3 <= +inf
 0 <= a1_z1 <= 1
 0 <= a1_z2 <= 1
 0 <= a2_z1 <= 1
 0 <= a2_z2 <= 1
 0 <= a3_z1 <= 1
 0 <= a3_z2 <= 1
 0 <= a4_z1 <= 1
 0 <= a4_z2 <= 1

binary
  a1_z1
  a1_z2
  a2_z1
  a2_z2
  a3_z1
  a3_z2
  a4_z1
  a4_z2
end
