min
obj: 
  +9.9278906915658744 a1_x1
  +4.1029321056614965 a1_x2
  +3.3290118192963942 a1_x3
  +9.1017647242801925 a1_x4
  +1.0276781995025082 a1_x5
  +7.5015228430107515 a1_x6
  +48.476105885704612 a1_z1
  +46.462393702811802 a1_z2
  +3.1850077691017789 a2_x1
  +1.0794293017939207 a2_x2
  +3.499564475939096 a2_x3
  +4.2123952542391079 a2_x4
  +5.825176560091875 a2_x5
  +3.8934254066749405 a2_x6
  +48.499085817086311 a2_z1
  +41.1366386984797 a2_z2
  +2.6719241979528361 a3_x1
  +3.8682188322270532 a3_x2
  +5.9140343670384405 a3_x3
  +8.8118059009872773 a3_x4
  +5.9790956134935263 a3_x5
  +2.6868556403382673 a3_x6
  +5.1863767770133045 a3_z1
  +6.8806666184499186 a3_z2
  +1.2856225251920637 a4_x1
  +5.2994894770405514 a4_x2
  +9.0295106348529277 a4_x3
  +3.0822666442565567 a4_x4
  +2.1929853575171814 a4_x5
  +7.0676293507155048 a4_x6
  +41.576942647234446 a4_z1
  +44.440960753164354 a4_z2
  +1000000 short_1
  +1000000 surp_1
  +1000000 short_2
  +1000000 surp_2
  +1000000 short_3
  +1000000 surp_3

s.t.

a1_local_1: 
+0.64487030906653131 a1_x4
+0.62715795005958985 a1_x6
+0.43682398075367795 a1_x1
<= 68.134168933867855

a1_local_2: 
+0.44737937552888835 a1_x6
+0.53786898669433547 a1_x5
+0.71452686968636148 a1_x4
<= 75.808377004217988

a1_local_3: 
+0.6918785091363423 a1_x3
+0.5596181476074521 a1_x1
+0.45621448624925998 a1_x6
<= 101.42087380321365

a1_local_4: 
+0.64076899997732262 a1_x5
+0.67641350257041111 a1_x2
+0.36315267066137696 a1_x4
<= 70.831046148713042

a1_local_5: 
+0.39715983147360528 a1_x4
+0.78120394458983666 a1_x2
+0.48164765671716581 a1_x5
<= 99.004582765784747

a1_local_6: 
+0.68485032841912152 a1_x3
+0.64617948147040327 a1_x4
+0.33679683102853286 a1_x1
<= 64.223494376359128

a1_local_7: 
+0.66021050181277285 a1_x1
+0.49253464439347366 a1_x2
+0.56703766838572622 a1_x5
<= 90.782935610441243

a1_local_8: 
+0.60048625924283983 a1_x5
+0.64977477468682587 a1_x2
+0.4660568577343604 a1_x4
<= 77.921614892845611

a1_act_1: 
+0.0099995000374968734 a1_x1
-0.99995000374968745 a1_z1
<= 0

a1_act_2: 
+0.0099995000374968768 a1_x2
-0.99995000374968757 a1_z2
<= 0

a2_local_1: 
+0.53923796050476791 a2_x6
+0.32873021339790798 a2_x4
+0.77534435494818954 a2_x1
<= 108.91256355524723

a2_local_2: 
+0.61132284953184857 a2_x2
+0.59031462912152299 a2_x1
+0.52707970202368792 a2_x4
<= 96.282682778944135

a2_local_3: 
+0.65523060180262294 a2_x3
+0.67391663327311335 a2_x4
+0.34133448384129667 a2_x5
<= 116.08739757168593

a2_local_4: 
+0.37959269927598366 a2_x4
+0.65057410562144435 a2_x3
+0.65777102075967919 a2_x2
<= 62.485851038690747

a2_local_5: 
+0.6257941117943161 a2_x1
+0.41209212010096363 a2_x4
+0.66223999742861783 a2_x2
<= 73.794909766482007

a2_local_6: 
+0.36063709666573496 a2_x3
+0.74443169307690982 a2_x5
+0.56192734303569447 a2_x1
<= 105.77715627541777

a2_local_7: 
+0.44695403758900681 a2_x3
+0.5742135343598358 a2_x6
+0.68593797477677976 a2_x4
<= 112.35119026785894

a2_local_8: 
+0.62194496559138313 a2_x1
+1.1382305237900043 a2_x6
+1.0748981448758121 a2_x5
<= 166.47884345995038

a2_act_1: 
+0.0099995000374968768 a2_x1
-0.99995000374968757 a2_z1
<= 0

a2_act_2: 
+0.0099995000374968734 a2_x2
-0.99995000374968745 a2_z2
<= 0

a3_local_1: 
+0.71358288090222244 a3_x1
+0.63176022955442346 a3_x4
+0.30278455118553715 a3_x2
<= 63.469987965614031

a3_local_2: 
+0.38781087529701186 a3_x6
+0.70025373615686703 a3_x4
+0.59937253023450665 a3_x1
<= 65.660705588808852

a3_local_3: 
+0.78080195138319808 a3_x2
+0.4795159479683162 a3_x3
+0.40051562810986185 a3_x5
<= 86.885049796609508

a3_local_4: 
+0.39338963232188406 a3_x5
+0.70881497427790474 a3_x1
+0.58551338961723698 a3_x6
<= 75.48634717131975

a3_local_5: 
+0.56253379692003902 a3_x6
+0.39202186068769768 a3_x3
+0.72792485056197898 a3_x1
<= 64.080460403783206

a3_local_6: 
+0.5268372892195714 a3_x2
+0.64773196948122647 a3_x6
+0.55035058499082667 a3_x4
<= 71.162242291632225

a3_local_7: 
+0.65210837055157034 a3_x2
+0.30770131147342566 a3_x5
+0.69287414151064242 a3_x4
<= 87.701227779133248

a3_local_8: 
+0.61440012342858352 a3_x2
+0.66150209910170144 a3_x1
+0.43003193045980231 a3_x5
<= 105.99279894451459

a3_act_1: 
+0.0099995000374968768 a3_x1
-0.99995000374968757 a3_z1
<= 0

a3_act_2: 
+0.0099995000374968751 a3_x2
-0.99995000374968757 a3_z2
<= 0

a4_local_1: 
+0.68398731547087066 a4_x2
+0.307010502738914 a4_x6
+0.66174459082258519 a4_x5
<= 108.65450007313819

a4_local_2: 
+0.29355431155367595 a4_x3
+0.7437832093568213 a4_x5
+0.60051011952099065 a4_x1
<= 94.295715234906424

a4_local_3: 
+0.46504008228414995 a4_x4
+0.66662887429837736 a4_x3
+0.58253211569906538 a4_x6
<= 105.22686396257046

a4_local_4: 
+0.73273612164256774 a4_x5
+0.47968518718265601 a4_x1
+0.48270062900077976 a4_x4
<= 81.744403272861263

a4_local_5: 
+0.44154259406591373 a4_x5
+0.79200384505297183 a4_x6
+0.42162785373697981 a4_x1
<= 101.92063285757361

a4_local_6: 
+0.60353779186966161 a4_x4
+0.60342364200718224 a4_x3
+0.52117371581065075 a4_x2
<= 72.145994422269723

a4_local_7: 
+0.49161390536252253 a4_x3
+0.78464791920210564 a4_x6
+0.3776816264342423 a4_x1
<= 100.56889343927341

a4_local_8: 
+0.54785981381314153 a4_x3
+0.56789266677678474 a4_x2
+0.61428620644597076 a4_x6
<= 65.765067917168679

a4_act_1: 
+0.0099995000374968768 a4_x1
-0.99995000374968757 a4_z1
<= 0

a4_act_2: 
+0.0099995000374968734 a4_x2
-0.99995000374968745 a4_z2
<= 0

coupling_1: 
+8.4634598211979056e-07 a1_x1
+0.00010875503192077823 a2_x1
+0.009692928854972355 a3_x1
+0.99995225866138826 a4_x1
+0.00087054575618836076 short_1
-0.00087054575618836076 surp_1
= 29.479051108249944

coupling_2: 
+1.3011607799716273e-06 a1_x2
+9.9901590237409232e-05 a2_x2
+0.023220591585706059 a3_x2
+0.99972706995725125 a4_x2
+0.0018137997517153194 short_2
-0.0018137997517153194 surp_2
= 57.518459865119659

coupling_3: 
+5.3725723930604775e-07 a1_x3
+4.0032556720706182e-05 a2_x3
+0.0069391102616908323 a3_x3
+0.99997544338651079 a4_x3
+0.00069273726362575764 short_3
-0.00069273726362575764 surp_3
= 35.712391932500601

bounds
  0 <= a1_x1 <= 100
  0 <= a1_x2 <= 100
  0 <= a1_x3 <= 100
  0 <= a1_x4 <= 100
  0 <= a1_x5 <= 100
  0 <= a1_x6 <= 100
  0 <= a2_x1 <= 100
  0 <= a2_x2 <= 100
  0 <= a2_x3 <= 100
  0 <= a2_x4 <= 100
  0 <= a2_x5 <= 100
  0 <= a2_x6 <= 100
  0 <= a3_x1 <= 100
  0 <= a3_x2 <= 100
  0 <= a3_x3 <= 100
  0 <= a3_x4 <= 100
  0 <= a3_x5 <= 100
  0 <= a3_x6 <= 100
  0 <= a4_x1 <= 100
  0 <= a4_x2 <= 100
  0 <= a4_x3 <= 100
  0 <= a4_x4 <= 100
  0 <= a4_x5 <= 100
  0 <= a4_x6 <= 100
  0 <= short_1 <= +inf
  0 <= surp_1 <= +inf
  0 <= short_2 <= +inf
  0 <= surp_2 <= +inf
  0 <= short_3 <= +inf
  0 <= surp_3 <= +inf
 0 <= a1_z1 <= 1
 0 <= a1_z2 <= 1
 0 <= a2_z1 <= 1
 0 <= a2_z2 <= 1
 0 <= a3_z1 <= 1
 0 <= a3_z2 <= 1
 0 <= a4_z1 <= 1
 0 <= a4_z2 <= 1

binary
  a1_z1
  a1_z2
  a2_z1
  a2_z2
  a3_z1
  a3_z2
  a4_z1
  a4_z2
end
