min
obj: 
  +3.043052453503527 a1_x1
  +8.5242104678500681 a1_x2
  +7.6930756521091874 a1_x3
  +6.9189962156082423 a1_x4
  +9.2097073421305335 a1_x5
  +1.6783613276554563 a1_x6
  +29.957301038510835 a1_z1
  +31.080729858907144 a1_z2
  +3.9982275243752419 a2_x1
  +4.0716566341487717 a2_x2
  +8.3479540678562252 a2_x3
  +4.8717105490747867 a2_x4
  +6.0061452108085005 a2_x5
  +2.7882654202354971 a2_x6
  +21.648290212377919 a2_z1
  +42.54057128991149 a2_z2
  +2.9928805955584821 a3_x1
  +5.5354110864277946 a3_x2
  +5.213896919227734 a3_x3
  +2.0650047465660801 a3_x4
  +6.4105355661416237 a3_x5
  +2.6598622040549174 a3_x6
  +31.217971703687525 a3_z1
  +44.913093336265895 a3_z2
  +1.3478391985630118 a4_x1
  +6.3176473690479504 a4_x2
  +9.9894359630934186 a4_x3
  +5.7054129264347031 a4_x4
  +4.4415295718065089 a4_x5
  +5.0613340194576661 a4_x6
  +15.238383211322466 a4_z1
  +39.666499040349478 a4_z2
  +1000000 short_1
  +1000000 surp_1
  +1000000 short_2
  +1000000 surp_2
  +1000000 short_3
  +1000000 surp_3

s.t.

a1_local_1: 
+1.9341549887029824e-08 a1_x4
+2.4062229807680869e-08 a1_x3
+5.1837387154719386e-08 a1_x1
<= 5.9163979788494079e-06

a1_local_2: 
+1.2895526791424564e-09 a1_x5
+7.8502737106615919e-10 a1_x2
+9.7053018541192401e-10 a1_x1
<= 1.1886715532932287e-07

a1_local_3: 
+47.238693029913144 a1_x1
+66.881777972625741 a1_x5
+67.244404024075536 a1_x4
<= 10421.247111823937

a1_local_4: 
+1.7157663527066787 a1_x4
+1.2882459592162221 a1_x1
+1.3813422351551679 a1_x2
<= 184.39876968004188

a1_local_5: 
+665.86282426176751 a1_x4
+1361.0064393428311 a1_x6
+551.74494524071531 a1_x3
<= 176778.140151784

a1_local_6: 
+7.5931811489737745e-09 a1_x5
+1.2970895142243547e-08 a1_x1
+7.3096769709880721e-09 a1_x6
<= 1.5080660922655673e-06

a1_local_7: 
+0.012050567091264352 a1_x1
+0.012628206743131363 a1_x2
+0.0084501530855955187 a1_x4
<= 1.887426607473504

a1_local_8: 
+0.00013800007467604109 a1_x3
+0.00014655683991039945 a1_x6
+5.6424892370144149e-05 a1_x5
<= 0.017482171154881803

a1_act_1: 
+0.025452749689395333 a1_x1
-2.5452749689395331 a1_z1
<= 0

a1_act_2: 
+0.019614658831632568 a1_x2
-1.9614658831632568 a1_z2
<= 0

a2_local_1: 
+179.24921070455935 a2_x5
+218.46768749603297 a2_x3
+259.43669696830494 a2_x6
<= 43147.808191770891

a2_local_2: 
+7023.6729024422102 a2_x4
+10952.508564774616 a2_x3
+7460.3643035485266 a2_x6
<= 1244071.0349450321

a2_local_3: 
+1.2892231305980192e-06 a2_x3
+9.6539286471703441e-07 a2_x1
+1.3542344871644508e-06 a2_x2
<= 0.0002391506384688189

a2_local_4: 
+1199.0116499025428 a2_x4
+929.29564017848338 a2_x5
+870.17808854326302 a2_x1
<= 93893.824493443477

a2_local_5: 
+4032.1117615392809 a2_x1
+4525.2416257570603 a2_x6
+2406.4723248329874 a2_x2
<= 662645.80704149872

a2_local_6: 
+0.037653084354216118 a2_x1
+0.029801938734813356 a2_x5
+0.041881502082645398 a2_x3
<= 5.9774624167833874

a2_local_7: 
+2854.549756192635 a2_x3
+5355.0614969398066 a2_x6
+2709.225211117046 a2_x1
<= 503538.21311243286

a2_local_8: 
+0.029159751697746608 a2_x4
+0.051136463161503734 a2_x1
+0.055178169713149254 a2_x6
<= 4.8697765580552526

a2_act_1: 
+0.0081989731169978368 a2_x1
-0.81989731169978364 a2_z1
<= 0

a2_act_2: 
+3178.8338464666226 a2_x2
-317883.38464666228 a2_z2
<= 0

a3_local_1: 
+5.6123658025308217e-05 a3_x4
+2.1734464050059249e-05 a3_x2
+4.0127617212042127e-05 a3_x5
<= 0.0063116870946085439

a3_local_2: 
+1340.5206100950279 a3_x1
+1236.1597968829417 a3_x6
+1289.0971945624815 a3_x3
<= 123999.69142881836

a3_local_3: 
+70.329283711625067 a3_x2
+59.898494402354004 a3_x6
+53.747587933927555 a3_x5
<= 12857.637647172414

a3_local_4: 
+75862.814955655398 a3_x1
+108426.07428145908 a3_x5
+101694.75889052491 a3_x4
<= 9108695.5016968232

a3_local_5: 
+423590.74077979458 a3_x4
+238793.13833473998 a3_x2
+366543.88874120271 a3_x6
<= 41688652.990253605

a3_local_6: 
+4384.7004637656219 a3_x5
+3791.2725764654056 a3_x2
+6006.0693950984978 a3_x1
<= 707355.12784760329

a3_local_7: 
+8.6548936970435293e-05 a3_x2
+8.1623279294610118e-05 a3_x4
+4.2506431604530818e-05 a3_x5
<= 0.013523777784087369

a3_local_8: 
+0.43533703839269516 a3_x3
+0.47280372398178389 a3_x5
+0.74038545815377244 a3_x6
<= 81.555464989263399

a3_act_1: 
+0.00031946936814620971 a3_x1
-0.03194693681462097 a3_z1
<= 0

a3_act_2: 
+635.92751236185927 a3_x2
-63592.751236185926 a3_z2
<= 0

a4_local_1: 
+447281.99810182949 a4_x6
+702845.65393602988 a4_x2
+545894.10803552135 a4_x1
<= 52348298.037967846

a4_local_2: 
+27794446.004135597 a4_x1
+33272664.499503259 a4_x6
+24398009.021189377 a4_x5
<= 2824299490.8629241

a4_local_3: 
+2123.4028236798094 a4_x6
+1714.0354078848372 a4_x3
+2139.5662471894184 a4_x2
<= 256683.24570278995

a4_local_4: 
+0.0040187689135503897 a4_x4
+0.0058243117269063506 a4_x6
+0.0053881208608313495 a4_x2
<= 0.59114276161403112

a4_local_5: 
+0.025027222058878414 a4_x5
+0.010863787969414809 a4_x6
+0.015700649131650663 a4_x1
<= 1.8861815498393228

a4_local_6: 
+0.57336027796138378 a4_x5
+0.49287574501562104 a4_x1
+0.38775117758830552 a4_x2
<= 94.717872279468821

a4_local_7: 
+12768.157817717491 a4_x4
+10634.788835091767 a4_x2
+6861.9449894926756 a4_x5
<= 1449770.236839494

a4_local_8: 
+0.0086332538110625353 a4_x3
+0.0043924109266804991 a4_x1
+0.0072709268057046233 a4_x2
<= 1.2975628259265348

a4_act_1: 
+1.6372715586305402 a4_x1
-163.72715586305401 a4_z1
<= 0

a4_act_2: 
+0.26079473459132091 a4_x2
-26.079473459132092 a4_z2
<= 0

coupling_1: 
+116.64154065596425 a1_x1
+16092.472836284995 a2_x1
+983878.05182117363 a3_x1
+88120908.841375023 a4_x1
+118937.32247378188 short_1
-118937.32247378188 surp_1
= 5094282862.6503277

coupling_2: 
+0.019598479675471001 a1_x2
+2.4003096823051466 a2_x2
+114.14737737101181 a3_x2
+24533.930015771068 a4_x2
+18.311890926015398 short_2
-18.311890926015398 surp_2
= 1761815.7692800227

coupling_3: 
+0.024377975601975955 a1_x3
+1.3739048866829899 a2_x3
+259.32890542173914 a3_x3
+23501.163149376323 a4_x3
+20.066922232758039 short_3
-20.066922232758039 surp_3
= 584033.32367174223

bounds
  0 <= a1_x1 <= 100
  0 <= a1_x2 <= 100
  0 <= a1_x3 <= 100
  0 <= a1_x4 <= 100
  0 <= a1_x5 <= 100
  0 <= a1_x6 <= 100
  0 <= a2_x1 <= 100
  0 <= a2_x2 <= 100
  0 <= a2_x3 <= 100
  0 <= a2_x4 <= 100
  0 <= a2_x5 <= 100
  0 <= a2_x6 <= 100
  0 <= a3_x1 <= 100
  0 <= a3_x2 <= 100
  0 <= a3_x3 <= 100
  0 <= a3_x4 <= 100
  0 <= a3_x5 <= 100
  0 <= a3_x6 <= 100
  0 <= a4_x1 <= 100
  0 <= a4_x2 <= 100
  0 <= a4_x3 <= 100
  0 <= a4_x4 <= 100
  0 <= a4_x5 <= 100
  0 <= a4_x6 <= 100
  0 <= short_1 <= +inf
  0 <= surp_1 <= +inf
  0 <= short_2 <= +inf
  0 <= surp_2 <= +inf
  0 <= short_3 <= +inf
  0 <= surp_3 <= +inf
 0 <= a1_z1 <= 1
 0 <= a1_z2 <= 1
 0 <= a2_z1 <= 1
 0 <= a2_z2 <= 1
 0 <= a3_z1 <= 1
 0 <= a3_z2 <= 1
 0 <= a4_z1 <= 1
 0 <= a4_z2 <= 1

binary
  a1_z1
  a1_z2
  a2_z1
  a2_z2
  a3_z1
  a3_z2
  a4_z1
  a4_z2
end
