min
obj: 
  +9.9278906915658744 a1_x1
  +4.1029321056614965 a1_x2
  +3.3290118192963942 a1_x3
  +9.1017647242801925 a1_x4
  +1.0276781995025082 a1_x5
  +7.5015228430107515 a1_x6
  +48.476105885704612 a1_z1
  +46.462393702811802 a1_z2
  +3.1850077691017789 a2_x1
  +1.0794293017939207 a2_x2
  +3.499564475939096 a2_x3
  +4.2123952542391079 a2_x4
  +5.825176560091875 a2_x5
  +3.8934254066749405 a2_x6
  +48.499085817086311 a2_z1
  +41.1366386984797 a2_z2
  +2.6719241979528361 a3_x1
  +3.8682188322270532 a3_x2
  +5.9140343670384405 a3_x3
  +8.8118059009872773 a3_x4
  +5.9790956134935263 a3_x5
  +2.6868556403382673 a3_x6
  +5.1863767770133045 a3_z1
  +6.8806666184499186 a3_z2
  +1.2856225251920637 a4_x1
  +5.2994894770405514 a4_x2
  +9.0295106348529277 a4_x3
  +3.0822666442565567 a4_x4
  +2.1929853575171814 a4_x5
  +7.0676293507155048 a4_x6
  +41.576942647234446 a4_z1
  +44.440960753164354 a4_z2
  +1000000 short_1
  +1000000 surp_1
  +1000000 short_2
  +1000000 surp_2
  +1000000 short_3
  +1000000 surp_3

s.t.

a1_local_1: 
+4.0307988315652684e-05 a1_x4
+3.9200867162985716e-05 a1_x6
+2.7303933309789857e-05 a1_x1
<= 0.0042587652845398876

a1_local_2: 
+360.17760013467807 a1_x6
+433.02926198914002 a1_x5
+575.25354817962409 a1_x4
<= 61032.047503765709

a1_local_3: 
+0.03711217129908484 a1_x3
+0.030017762196443101 a1_x1
+0.024471218485946727 a1_x6
<= 5.4401875360837426

a1_local_4: 
+0.00011900900910258201 a1_x5
+0.00012562920598118882 a1_x2
+6.7447768993032304e-05 a1_x4
<= 0.013155337752225726

a1_local_5: 
+661.91981187144802 a1_x4
+1301.9805304014064 a1_x2
+802.73003727401874 a1_x5
<= 165004.33731071991

a1_local_6: 
+113.32962057063267 a1_x3
+106.93033560283577 a1_x4
+55.733428876296067 a1_x1
<= 10627.759011511516

a1_local_7: 
+8.84024069176625e-05 a1_x1
+6.5950553550973035e-05 a1_x2
+7.5926533371765487e-05 a1_x5
<= 0.012155865429250758

a1_local_8: 
+24.905551110189336 a1_x5
+26.94982376695819 a1_x2
+19.330005827599226 a1_x4
<= 3231.8487432989464

a1_act_1: 
+0.00021364355531851764 a1_x1
-0.021364355531851766 a1_z1
<= 0

a1_act_2: 
+9.6661992293179748e-06 a1_x2
-0.00096661992293179744 a1_z2
<= 0

a2_local_1: 
+0.26008683810034511 a2_x6
+0.15855412276739669 a2_x4
+0.37396636825912638 a2_x1
<= 52.531027782189433

a2_local_2: 
+0.0025337316171791537 a2_x2
+0.0024466594713971447 a2_x1
+0.0021845715513717436 a2_x4
<= 0.39905996926282417

a2_local_3: 
+0.020235826550868002 a2_x3
+0.020812916953423421 a2_x4
+0.010541609918462275 a2_x5
<= 3.5851873150300837

a2_local_4: 
+6.06461930252829 a2_x4
+10.393994105266808 a2_x3
+10.508976691995283 a2_x2
<= 998.31450675143992

a2_local_5: 
+4.3547271121719584 a2_x1
+2.867634409295809 a2_x4
+4.6083438901306764 a2_x2
<= 513.51824544812098

a2_local_6: 
+1.0118732601584155e-07 a2_x3
+2.0887216850494121e-07 a2_x5
+1.5766521465114394e-07 a2_x1
<= 2.9678886881096238e-05

a2_local_7: 
+2.0956261112207336e-07 a2_x3
+2.6923056395506492e-07 a2_x6
+3.216146202357171e-07 a2_x4
<= 5.2677919461722509e-05

a2_local_8: 
+0.62194496559138313 a2_x1
+1.1382305237900043 a2_x6
+1.0748981448758121 a2_x5
<= 166.47884345995038

a2_act_1: 
+0.00093385961436545943 a2_x1
-0.093385961436545942 a2_z1
<= 0

a2_act_2: 
+19833.151613301219 a2_x2
-1983315.161330122 a2_z2
<= 0

a3_local_1: 
+414892.51806292491 a3_x1
+367319.05916863185 a3_x4
+176045.48572281879 a3_x2
<= 36902823.530719504

a3_local_2: 
+2053.1814191570843 a3_x6
+3707.3430668273081 a3_x4
+3173.2491805139921 a3_x1
<= 347626.50887610327

a3_local_3: 
+5902861.1711410712 a3_x2
+3625139.5955027901 a3_x3
+3027897.3373679449 a3_x5
<= 656850800.49878192

a3_local_4: 
+0.035256767868078139 a3_x5
+0.063526140386653121 a3_x1
+0.052475479690566665 a3_x6
<= 6.7653145908297105

a3_local_5: 
+3334253.7321616923 a3_x6
+2323594.3497857498 a3_x3
+4314560.5881961212 a3_x1
<= 379818093.47238982

a3_local_6: 
+2.8769925437147821e-05 a3_x2
+3.5371832720567262e-05 a3_x6
+3.0053957110613287e-05 a3_x4
<= 0.0038860810473444565

a3_local_7: 
+0.0093644500464161243 a3_x2
+0.0044186728627212905 a3_x5
+0.0099498573851180931 a3_x4
<= 1.2594130111416921

a3_local_8: 
+133.45079487220676 a3_x2
+143.68158072972227 a3_x1
+93.405096698293264 a3_x5
<= 23022.168665823247

a3_act_1: 
+826.00074869091873 a3_x1
-82600.07486909187 a3_z1
<= 0

a3_act_2: 
+8.4199435669067511e-05 a3_x2
-0.0084199435669067516 a3_z2
<= 0

a4_local_1: 
+577945.76254486351 a4_x2
+259413.31820250707 a4_x6
+559151.42503718752 a4_x5
<= 91809316.457090244

a4_local_2: 
+16044695.363726754 a4_x3
+40652698.805969074 a4_x5
+32821871.631027613 a4_x1
<= 5153887936.5843058

a4_local_3: 
+551.05759160969671 a4_x4
+789.93384863519657 a4_x3
+690.28188524249526 a4_x6
<= 124690.46096638285

a4_local_4: 
+63.308140474702725 a4_x5
+41.444629678850887 a4_x1
+41.705162780163171 a4_x4
<= 7062.6873884941106

a4_local_5: 
+106986.28317943627 a4_x5
+191903.45118412413 a4_x6
+102160.91847643731 a4_x1
<= 24695487.672702208

a4_local_6: 
+301524.48638468469 a4_x4
+301467.45767974085 a4_x3
+260375.80263232472 a4_x2
<= 36043780.863328427

a4_local_7: 
+2.0033664619102818 a4_x3
+3.1975037902518642 a4_x6
+1.5390832021322434 a4_x1
<= 409.82638210588863

a4_local_8: 
+794492119.97717655 a4_x3
+823543244.77039683 a4_x2
+890821955.04570174 a4_x6
<= 95370799085.065201

a4_act_1: 
+0.15616070134083881 a4_x1
-15.616070134083881 a4_z1
<= 0

a4_act_2: 
+777614.7724960933 a4_x2
-77761477.249609336 a4_z2
<= 0

coupling_1: 
+1.8859113631988186e-08 a1_x1
+2.4233865917427612e-06 a2_x1
+0.00021598737462527181 a3_x1
+0.022281919771658113 a4_x1
+1.939835680046702e-05 short_1
-1.939835680046702e-05 surp_1
= 0.65688121212701023

coupling_2: 
+107.90392522146902 a1_x2
+8284.7361282425882 a2_x2
+1925659.7775079999 a3_x2
+82906337.678651705 a4_x2
+150416.54789201118 short_2
-150416.54789201118 surp_2
= 4769946718.0952654

coupling_3: 
+0.011298106421340305 a1_x3
+0.84185387009970658 a2_x3
+145.92415042608266 a3_x3
+21028.714276052717 a4_x3
+14.56773171931791 short_3
-14.56773171931791 surp_3
= 751004.12818106974

bounds
  0 <= a1_x1 <= 100
  0 <= a1_x2 <= 100
  0 <= a1_x3 <= 100
  0 <= a1_x4 <= 100
  0 <= a1_x5 <= 100
  0 <= a1_x6 <= 100
  0 <= a2_x1 <= 100
  0 <= a2_x2 <= 100
  0 <= a2_x3 <= 100
  0 <= a2_x4 <= 100
  0 <= a2_x5 <= 100
  0 <= a2_x6 <= 100
  0 <= a3_x1 <= 100
  0 <= a3_x2 <= 100
  0 <= a3_x3 <= 100
  0 <= a3_x4 <= 100
  0 <= a3_x5 <= 100
  0 <= a3_x6 <= 100
  0 <= a4_x1 <= 100
  0 <= a4_x2 <= 100
  0 <= a4_x3 <= 100
  0 <= a4_x4 <= 100
  0 <= a4_x5 <= 100
  0 <= a4_x6 <= 100
  0 <= short_1 <= +inf
  0 <= surp_1 <= +inf
  0 <= short_2 <= +inf
  0 <= surp_2 <= +inf
  0 <= short_3 <= +inf
  0 <= surp_3 <= +inf
 0 <= a1_z1 <= 1
 0 <= a1_z2 <= 1
 0 <= a2_z1 <= 1
 0 <= a2_z2 <= 1
 0 <= a3_z1 <= 1
 0 <= a3_z2 <= 1
 0 <= a4_z1 <= 1
 0 <= a4_z2 <= 1

binary
  a1_z1
  a1_z2
  a2_z1
  a2_z2
  a3_z1
  a3_z2
  a4_z1
  a4_z2
end
