min
obj: 
  +1.5770974257819579 a1_x1
  +5.2436233239928463 a1_x2
  +8.0695966456126804 a1_x3
  +3.4781022885686368 a1_x4
  +9.412058306823841 a1_x5
  +8.3165688602967034 a1_x6
  +34.001400959855452 a1_z1
  +10.410503430419741 a1_z2
  +6.4773554290647395 a2_x1
  +9.5833935756226563 a2_x2
  +2.026827474230366 a2_x3
  +2.5146383338919818 a2_x4
  +5.9719159164755045 a2_x5
  +2.1752834405324757 a2_x6
  +46.820939487606068 a2_z1
  +31.119838842287344 a2_z2
  +4.2898026117145012 a3_x1
  +6.2971939246586208 a3_x2
  +7.0812452369118279 a3_x3
  +4.947199835085236 a3_x4
  +8.0650994710678727 a3_x5
  +5.8436848317688934 a3_x6
  +45.408472421232204 a3_z1
  +47.685437857449642 a3_z2
  +7.6745490131872192 a4_x1
  +9.5447276615633179 a4_x2
  +6.4685946234911675 a4_x3
  +6.1047180091187832 a4_x4
  +9.0091726197219533 a4_x5
  +9.2042443028710519 a4_x6
  +10.38795682780167 a4_z1
  +22.655186795949191 a4_z2
  +1000000 short_1
  +1000000 surp_1
  +1000000 short_2
  +1000000 surp_2
  +1000000 short_3
  +1000000 surp_3

s.t.

a1_local_1: 
+1.2525172836979444 a1_x1
+1.2804747506447107 a1_x6
+0.78096034263581249 a1_x5
<= 174.32419763247333

a1_local_2: 
+1.0791845523965875 a1_x5
+0.59517578531382465 a1_x4
+1.680175881941701 a1_x1
<= 104.85681522484602

a1_local_3: 
+0.89270406332237739 a1_x2
+1.2747380882235062 a1_x3
+0.7844748731040232 a1_x5
<= 116.12772131325382

a1_local_4: 
+1.6520243963786574 a1_x2
+1.3204078717738379 a1_x4
+0.60531793730895467 a1_x1
<= 179.89053224872004

a1_local_5: 
+1.1722434656335712 a1_x1
+0.7467581154732762 a1_x3
+1.3391217039084011 a1_x2
<= 126.48859834837606

a1_local_6: 
+1.2083917506497222 a1_x3
+0.96587917193756179 a1_x4
+0.82754619887327507 a1_x2
<= 126.01684076705146

a1_local_7: 
+1.2662087841130116 a1_x1
+0.78975917127324868 a1_x4
+1.0908889042874164 a1_x3
<= 174.42061074419132

a1_local_8: 
+1.2459527386243718 a1_x3
+0.80259866124944457 a1_x2
+1.1040826118019005 a1_x5
<= 144.06629023227055

a1_act_1: 
+0.10000000000000001 a1_x1
-10 a1_z1
<= 0

a1_act_2: 
+0.10000000000000001 a1_x2
-10 a1_z2
<= 0

a2_local_1: 
+0.76186603796907815 a2_x3
+1.3124695577592138 a2_x6
+1.3125667114204491 a2_x4
<= 188.18012575027757

a2_local_2: 
+1.554892625026667 a2_x6
+0.64313122585094884 a2_x4
+1.4470071225202903 a2_x2
<= 195.86404912045779

a2_local_3: 
+0.76130476611049092 a2_x4
+1.0882847904716022 a2_x5
+1.3135344010901229 a2_x2
<= 142.98480390460614

a2_local_4: 
+1.0453318990184335 a2_x6
+1.1874033479468109 a2_x5
+0.84217380869705505 a2_x1
<= 102.27083894036093

a2_local_5: 
+0.84973289704978339 a2_x6
+0.85933583192992846 a2_x5
+0.81304898779583756 a2_x2
<= 99.313295888986261

a2_local_6: 
+1.090980489507771 a2_x1
+0.75472511954018351 a2_x6
+1.3249857121613369 a2_x3
<= 162.5834167346967

a2_local_7: 
+0.80454931070370905 a2_x2
+0.89037752881170562 a2_x4
+1.2429318957781934 a2_x5
<= 154.76738912987938

a2_local_8: 
+0.89370985112736967 a2_x4
+0.91182239385060437 a2_x3
+1.1189313833103112 a2_x2
<= 94.186182812119554

a2_act_1: 
+0.10000000000000001 a2_x1
-10 a2_z1
<= 0

a2_act_2: 
+0.099999999999999992 a2_x2
-9.9999999999999982 a2_z2
<= 0

a3_local_1: 
+0.99491844976276522 a3_x3
+0.87679432982304117 a3_x4
+1.1405183245218122 a3_x2
<= 167.36035613867074

a3_local_2: 
+0.75336589426491984 a3_x3
+0.90753637434175383 a3_x4
+1.3273762558308111 a3_x6
<= 195.3971174066115

a3_local_3: 
+0.80466499375644907 a3_x2
+1.2833772731155852 a3_x3
+0.77919410055653715 a3_x5
<= 107.91363937623389

a3_local_4: 
+0.7811896405842369 a3_x2
+1.2800989005078445 a3_x5
+1.1277805149638251 a3_x3
<= 167.41371675394876

a3_local_5: 
+1.3784213239651573 a3_x2
+0.67828926617813468 a3_x5
+1.4742972502492417 a3_x3
<= 220.63589166539731

a3_local_6: 
+1.0794771875715234 a3_x5
+0.92637437040210036 a3_x6
+1.0413297956701688 a3_x1
<= 160.77113007230633

a3_local_7: 
+0.93910889416367194 a3_x3
+1.0852195843150181 a3_x5
+0.9214724968598792 a3_x2
<= 173.36241756313217

a3_local_8: 
+0.80923264578732934 a3_x5
+1.2357385792648869 a3_x3
+0.82535701501189274 a3_x2
<= 159.86597848900558

a3_act_1: 
+0.099999999999999992 a3_x1
-10 a3_z1
<= 0

a3_act_2: 
+0.099999999999999992 a3_x2
-9.9999999999999982 a3_z2
<= 0

a4_local_1: 
+0.95020154027090098 a4_x6
+1.0597408698062436 a4_x1
+0.94362690775796343 a4_x3
<= 110.3289837405659

a4_local_2: 
+0.77431874008728174 a4_x2
+1.2914578302564124 a4_x4
+0.85866900393110535 a4_x6
<= 164.29578002588187

a4_local_3: 
+0.94068920870850514 a4_x3
+0.7140815209420599 a4_x2
+1.4004003333971433 a4_x1
<= 92.225516132273441

a4_local_4: 
+0.80334177925406458 a4_x3
+1.2119016078222344 a4_x5
+1.244800190684145 a4_x2
<= 200.47814259734076

a4_local_5: 
+1.0958005848874759 a4_x3
+1.1302081674264521 a4_x2
+0.8847927566096575 a4_x1
<= 171.56751917356763

a4_local_6: 
+1.6550341780681224 a4_x5
+0.60421712932072114 a4_x1
+1.5137459625436034 a4_x6
<= 179.4503555571961

a4_local_7: 
+1.3615289192489259 a4_x6
+0.73446842432964266 a4_x3
+1.1495283889235046 a4_x2
<= 216.73546035018407

a4_local_8: 
+0.75677666254288756 a4_x2
+0.8973053768294611 a4_x6
+1.3213938133872203 a4_x5
<= 151.05691871104892

a4_act_1: 
+0.099999999999999992 a4_x1
-10 a4_z1
<= 0

a4_act_2: 
+0.10000000000000001 a4_x2
-10 a4_z2
<= 0

coupling_1: 
+0.00084317168738967186 a1_x1
+0.12525545030339247 a2_x1
+11.009466003573433 a3_x1
+1185.9980772075544 a4_x1
+0.84467047247969029 short_1
-0.84467047247969029 surp_1
= 88290.276641036529

coupling_2: 
+0.00089918479456677124 a1_x2
+0.074560345864897626 a2_x2
+12.056099612254551 a3_x2
+1112.1184500031516 a4_x2
+0.99022932366488081 short_2
-0.99022932366488081 surp_2
= 40497.959696645514

coupling_3: 
+0.0012049545112541439 a1_x3
+0.079663704660775089 a2_x3
+6.3971844679432861 a3_x3
+829.90684765284402 a4_x3
+0.97060779588891499 short_3
-0.97060779588891499 surp_3
= 48821.351302332616

bounds
  0 <= a1_x1 <= 100
  0 <= a1_x2 <= 100
  0 <= a1_x3 <= 100
  0 <= a1_x4 <= 100
  0 <= a1_x5 <= 100
  0 <= a1_x6 <= 100
  0 <= a2_x1 <= 100
  0 <= a2_x2 <= 100
  0 <= a2_x3 <= 100
  0 <= a2_x4 <= 100
  0 <= a2_x5 <= 100
  0 <= a2_x6 <= 100
  0 <= a3_x1 <= 100
  0 <= a3_x2 <= 100
  0 <= a3_x3 <= 100
  0 <= a3_x4 <= 100
  0 <= a3_x5 <= 100
  0 <= a3_x6 <= 100
  0 <= a4_x1 <= 100
  0 <= a4_x2 <= 100
  0 <= a4_x3 <= 100
  0 <= a4_x4 <= 100
  0 <= a4_x5 <= 100
  0 <= a4_x6 <= 100
  0 <= short_1 <= +inf
  0 <= surp_1 <= +inf
  0 <= short_2 <= +inf
  0 <= surp_2 <= +inf
  0 <= short_3 <= +inf
  0 <= surp_3 <= +inf
 0 <= a1_z1 <= 1
 0 <= a1_z2 <= 1
 0 <= a2_z1 <= 1
 0 <= a2_z2 <= 1
 0 <= a3_z1 <= 1
 0 <= a3_z2 <= 1
 0 <= a4_z1 <= 1
 0 <= a4_z2 <= 1

binary
  a1_z1
  a1_z2
  a2_z1
  a2_z2
  a3_z1
  a3_z2
  a4_z1
  a4_z2
end
