min
obj: 
  +1.5869078218103445 a1_x1
  +1.8591431952918778 a1_x2
  +3.3231109040519993 a1_x3
  +9.2087059181463786 a1_x4
  +9.6203246603591985 a1_x5
  +2.6522167369866532 a1_x6
  +45.971215901918207 a1_z1
  +15.231591264695247 a1_z2
  +7.3851642913844699 a2_x1
  +8.184615433312981 a2_x2
  +6.3286902635835114 a2_x3
  +1.720840343178456 a2_x4
  +2.5195780412124975 a2_x5
  +8.1969421632275719 a2_x6
  +32.909722818284479 a2_z1
  +29.006081337850453 a2_z2
  +9.6251817518945995 a3_x1
  +3.9009418953480735 a3_x2
  +1.3219510135661245 a3_x3
  +4.7485775019531236 a3_x4
  +3.5558983548633152 a3_x5
  +8.1243659823807501 a3_x6
  +20.822115549059351 a3_z1
  +25.222874624514855 a3_z2
  +3.9740281273618923 a4_x1
  +5.8725760658506196 a4_x2
  +8.5449306619724936 a4_x3
  +7.8945369096479574 a4_x4
  +2.7042977066829055 a4_x5
  +9.2622687133164359 a4_x6
  +13.310232891557296 a4_z1
  +27.542990425232677 a4_z2
  +1000000 short_1
  +1000000 surp_1
  +1000000 short_2
  +1000000 surp_2
  +1000000 short_3
  +1000000 surp_3

s.t.

a1_local_1: 
+0.91555290746555562 a1_x4
+1.1866305975125666 a1_x1
+0.84272224405490281 a1_x3
<= 130.56099750115047

a1_local_2: 
+1.212903756041932 a1_x2
+0.82446772468023277 a1_x4
+0.94047146436761953 a1_x3
<= 200.52635914903732

a1_local_3: 
+0.70624019261684512 a1_x6
+1.4159488661990205 a1_x4
+0.84574465110272823 a1_x1
<= 128.1738014578504

a1_local_4: 
+1.105304944324456 a1_x6
+0.98232533685459622 a1_x2
+0.90472769993007085 a1_x1
<= 117.22584078360318

a1_local_5: 
+0.76824010820558197 a1_x1
+1.1192767905085204 a1_x2
+1.3016763760691323 a1_x5
<= 166.45317172246794

a1_local_6: 
+0.7949898278877221 a1_x1
+1.257877729903774 a1_x2
+1.1199098105920446 a1_x6
<= 115.06265014146931

a1_local_7: 
+0.68561719186186942 a1_x5
+1.4585398555779927 a1_x2
+1.2564220981266885 a1_x4
<= 225.26480219821289

a1_local_8: 
+1.1913257363905447 a1_x1
+0.83940098786901096 a1_x2
+1.1722428543263963 a1_x3
<= 200.69197057039935

a1_act_1: 
+0.099999999999999992 a1_x1
-10 a1_z1
<= 0

a1_act_2: 
+0.10000000000000001 a1_x2
-10 a1_z2
<= 0

a2_local_1: 
+1.1657875811032239 a2_x1
+2.9671222795509928 a2_x5
+1.7776233985964258 a2_x3
<= 316.39072378357366

a2_local_2: 
+1.2551564556781125 a2_x4
+2.9661665118672449 a2_x2
+2.4207732243628151 a2_x5
<= 303.95923980939148

a2_local_3: 
+1.109270528514626 a2_x2
+0.98690089922469182 a2_x1
+0.901493345666593 a2_x5
<= 99.631991056283027

a2_local_4: 
+1.2060793228487074 a2_x6
+0.82274844310066719 a2_x2
+1.215438337666529 a2_x4
<= 151.57228435011822

a2_local_5: 
+0.74301116243361165 a2_x1
+1.345874800487066 a2_x6
+1.1724271539103086 a2_x2
<= 154.6009875303518

a2_local_6: 
+0.99533775265008906 a2_x4
+1.0427600178726864 a2_x6
+0.95899342404792209 a2_x5
<= 157.15927654167575

a2_local_7: 
+1.9226986426709853 a2_x4
+1.3268941948385975 a2_x6
+2.5759408871820244 a2_x3
<= 358.39008996353186

a2_local_8: 
+1.2241366966643883 a2_x5
+1.0672067519535393 a2_x1
+0.81690223218115154 a2_x4
<= 202.49091843312499

a2_act_1: 
+0.10000000000000001 a2_x1
-10.000000000000002 a2_z1
<= 0

a2_act_2: 
+0.099999999999999992 a2_x2
-10 a2_z2
<= 0

a3_local_1: 
+1.294066883200826 a3_x3
+1.5005317376178442 a3_x5
+0.66643042258309126 a3_x4
<= 119.91388423991926

a3_local_2: 
+1.0945636544864943 a3_x3
+1.2169345762837116 a3_x5
+0.82173686202080909 a3_x2
<= 159.55734036243359

a3_local_3: 
+0.83838813987461258 a3_x5
+1.0696121414360911 a3_x6
+1.1927649646255223 a3_x2
<= 155.5536086462071

a3_local_4: 
+1.5410614029575274 a3_x4
+1.3481275166892885 a3_x3
+0.64890341039030019 a3_x1
<= 154.49538725697164

a3_local_5: 
+1.4700543535625183 a3_x1
+1.2510176638048407 a3_x4
+0.68024695656769962 a3_x5
<= 195.14260034300594

a3_local_6: 
+0.74214363035317832 a3_x5
+1.3474480667901314 a3_x4
+1.0476830310946885 a3_x6
<= 126.88459199627015

a3_local_7: 
+1.1414649673954567 a3_x5
+0.87606718433221376 a3_x4
+1.0228261738446118 a3_x2
<= 184.58100150212579

a3_local_8: 
+1.4793239649500829 a3_x6
+0.67598445215057634 a3_x2
+1.1207892307676857 a3_x3
<= 178.75290101777702

a3_act_1: 
+0.099999999999999992 a3_x1
-10 a3_z1
<= 0

a3_act_2: 
+0.099999999999999992 a3_x2
-10 a3_z2
<= 0

a4_local_1: 
+0.93947639559538931 a4_x3
+0.7876558711354007 a4_x2
+1.2695899778649615 a4_x4
<= 177.37443455055583

a4_local_2: 
+1.3648935583549873 a4_x5
+0.69086760369113132 a4_x4
+1.4474553368217764 a4_x1
<= 140.56322969863706

a4_local_3: 
+0.8690249825853007 a4_x3
+1.0521663348511829 a4_x2
+1.1507149046797895 a4_x6
<= 176.11462229582634

a4_local_4: 
+0.91916710229171561 a4_x1
+1.0879414608146307 a4_x6
+1.0470652219010967 a4_x5
<= 141.09578028810029

a4_local_5: 
+0.97886237065940362 a4_x1
+1.0842770647637967 a4_x2
+0.92227349678178783 a4_x6
<= 117.43876355440079

a4_local_6: 
+0.58343803471211131 a4_x6
+1.7139780756553438 a4_x3
+0.97723231614370909 a4_x5
<= 134.29665337981862

a4_local_7: 
+0.82781481242985799 a4_x1
+0.86914953755802127 a4_x4
+1.2079996455544593 a4_x5
<= 93.539775984328642

a4_local_8: 
+0.91569763806754612 a4_x5
+0.80675946977201041 a4_x1
+1.239526819911515 a4_x6
<= 169.00558659030298

a4_act_1: 
+0.10000000000000001 a4_x1
-10 a4_z1
<= 0

a4_act_2: 
+0.10000000000000001 a4_x2
-10 a4_z2
<= 0

coupling_1: 
+1.0417771199878478e-06 a1_x1
+7.0541080084727479e-05 a2_x1
+0.0050827735474931442 a3_x1
+0.99998657740226882 a4_x1
+0.00070903146326514982 short_1
-0.00070903146326514982 surp_1
= 59.743617134628067

coupling_2: 
+1.310970817824361e-06 a1_x2
+6.3849045535202932e-05 a2_x2
+0.015893389645302347 a3_x2
+0.99987234543310421 a4_x2
+0.0011595096520664585 short_2
-0.0011595096520664585 surp_2
= 78.960729320558698

coupling_3: 
+7.7532268583185828e-07 a1_x3
+6.8765131633671638e-05 a2_x3
+0.014072109779591642 a3_x3
+0.99989959629728598 a4_x3
+0.0011765036402794353 short_3
-0.0011765036402794353 surp_3
= 51.695734301999479

bounds
  0 <= a1_x1 <= 100
  0 <= a1_x2 <= 100
  0 <= a1_x3 <= 100
  0 <= a1_x4 <= 100
  0 <= a1_x5 <= 100
  0 <= a1_x6 <= 100
  0 <= a2_x1 <= 100
  0 <= a2_x2 <= 100
  0 <= a2_x3 <= 100
  0 <= a2_x4 <= 100
  0 <= a2_x5 <= 100
  0 <= a2_x6 <= 100
  0 <= a3_x1 <= 100
  0 <= a3_x2 <= 100
  0 <= a3_x3 <= 100
  0 <= a3_x4 <= 100
  0 <= a3_x5 <= 100
  0 <= a3_x6 <= 100
  0 <= a4_x1 <= 100
  0 <= a4_x2 <= 100
  0 <= a4_x3 <= 100
  0 <= a4_x4 <= 100
  0 <= a4_x5 <= 100
  0 <= a4_x6 <= 100
  0 <= short_1 <= +inf
  0 <= surp_1 <= +inf
  0 <= short_2 <= +inf
  0 <= surp_2 <= +inf
  0 <= short_3 <= +inf
  0 <= surp_3 <= +inf
 0 <= a1_z1 <= 1
 0 <= a1_z2 <= 1
 0 <= a2_z1 <= 1
 0 <= a2_z2 <= 1
 0 <= a3_z1 <= 1
 0 <= a3_z2 <= 1
 0 <= a4_z1 <= 1
 0 <= a4_z2 <= 1

binary
  a1_z1
  a1_z2
  a2_z1
  a2_z2
  a3_z1
  a3_z2
  a4_z1
  a4_z2
end
