min
obj: 
  +7.7820756929973847 a1_x1
  +2.6204029212029933 a1_x2
  +1.0229393332967094 a1_x3
  +7.1910932224071349 a1_x4
  +4.2632745770435907 a1_x5
  +6.0246265469097295 a1_x6
  +42.771027111197313 a1_z1
  +28.114118371176183 a1_z2
  +5.7911212590182997 a2_x1
  +5.4348931719458209 a2_x2
  +9.4259627235885386 a2_x3
  +8.9213052519907556 a2_x4
  +6.1484548986939966 a2_x5
  +2.146409388681831 a2_x6
  +31.660946131309107 a2_z1
  +6.9899613369063101 a2_z2
  +2.8186252614454075 a3_x1
  +1.3641205917884647 a3_x2
  +2.33366974601915 a3_x3
  +2.4556775991065138 a3_x4
  +5.2278265061317715 a3_x5
  +6.6696189442115292 a3_x6
  +49.857919593613119 a3_z1
  +30.640944798186169 a3_z2
  +7.0994894146457632 a4_x1
  +9.5674915626052641 a4_x2
  +9.235478138695818 a4_x3
  +8.9478139676632793 a4_x4
  +7.4338997063934436 a4_x5
  +1.7960169742966061 a4_x6
  +7.4304140982629434 a4_z1
  +14.530204301669533 a4_z2
  +1000000 short_1
  +1000000 surp_1
  +1000000 short_2
  +1000000 surp_2
  +1000000 short_3
  +1000000 surp_3

s.t.

a1_local_1: 
+0.50830128584377543 a1_x4
+0.78099407126304765 a1_x6
+0.3628747214418967 a1_x3
<= 82.586536136739312

a1_local_2: 
+0.62841303478021893 a1_x6
+0.44056055071972733 a1_x5
+0.64109551462153114 a1_x4
<= 90.610196797227175

a1_local_3: 
+0.46069916733291399 a1_x4
+0.60784594660963664 a1_x2
+0.64674537679754174 a1_x3
<= 99.499579294658915

a1_local_4: 
+0.62746166085074528 a1_x4
+0.41777488442219135 a1_x5
+0.65708143339197256 a1_x2
<= 86.74594872007529

a1_local_5: 
+0.34648194375364338 a1_x2
+0.84311871084991374 a1_x5
+0.41121904390175895 a1_x4
<= 88.557773967834521

a1_local_6: 
+0.61130116884469288 a1_x2
+0.70495374262121391 a1_x3
+0.35965414182719407 a1_x1
<= 90.840717984386117

a1_local_7: 
+0.39611970782760031 a1_x5
+0.82739434789670929 a1_x2
+0.3981303431530378 a1_x6
<= 88.9822471440892

a1_local_8: 
+0.38982050289274633 a1_x5
+0.69546091574024271 a1_x1
+0.50602461741944615 a1_x6
<= 97.777521451666061

a1_act_1: 
+0.0099995000374968751 a1_x1
-0.99995000374968745 a1_z1
<= 0

a1_act_2: 
+0.0099995000374968751 a1_x2
-0.99995000374968745 a1_z2
<= 0

a2_local_1: 
+0.4290085383223996 a2_x6
+0.64038776448239687 a2_x4
+0.6370676456607387 a2_x3
<= 107.38342384585886

a2_local_2: 
+0.37108491094252494 a2_x5
+0.51453332323007461 a2_x4
+0.77301452001666426 a2_x6
<= 75.252985666485444

a2_local_3: 
+0.55614099615882662 a2_x4
+0.37619132602491417 a2_x5
+0.74107170949583878 a2_x3
<= 51.839585607575806

a2_local_4: 
+0.3155890013343513 a2_x5
+0.31164610952493615 a2_x6
+0.8962590499709101 a2_x4
<= 56.91940741949842

a2_local_5: 
+0.5828069198387672 a2_x4
+0.36290438331361374 a2_x2
+0.72707393211406957 a2_x3
<= 79.669044301504186

a2_local_6: 
+0.61889551998623793 a2_x5
+0.54707832658473365 a2_x4
+0.56362544293370187 a2_x3
<= 65.444236776076934

a2_local_7: 
+0.46021803969222491 a2_x1
+0.73820656439537036 a2_x6
+0.49320424189723844 a2_x4
<= 118.1221670730678

a2_local_8: 
+0.66625591748106305 a2_x4
+0.61881701294173619 a2_x3
+0.41613526276360435 a2_x5
<= 65.194752551224795

a2_act_1: 
+0.0099995000374968751 a2_x1
-0.99995000374968757 a2_z1
<= 0

a2_act_2: 
+0.0099995000374968751 a2_x2
-0.99995000374968757 a2_z2
<= 0

a3_local_1: 
+0.45040944646498604 a3_x6
+0.68914092811905814 a3_x2
+0.56764082986190145 a3_x1
<= 114.01347756589722

a3_local_2: 
+0.75301381339081752 a3_x1
+0.5066234578554677 a3_x6
+0.41988435168887617 a3_x2
<= 115.2057878134769

a3_local_3: 
+0.24958284285234769 a3_x6
+0.59750228529330729 a3_x5
+0.28123766485333024 a3_x3
<= 59.828791972482861

a3_local_4: 
+0.6433052393453027 a3_x2
+0.2960146099769288 a3_x6
+0.70606920320255395 a3_x4
<= 69.789029819945554

a3_local_5: 
+0.52882068558906292 a3_x1
+0.70516366679839348 a3_x5
+0.47232709589918487 a3_x3
<= 84.585132463382223

a3_local_6: 
+0.54551462774739479 a3_x5
+0.64574199000543053 a3_x2
+0.53425749714669224 a3_x3
<= 88.915034445616413

a3_local_7: 
+0.56943071577997528 a3_x2
+0.46564334315836153 a3_x3
+0.67743998767315872 a3_x1
<= 91.457607289983628

a3_local_8: 
+0.72949566772882768 a3_x6
+0.33912416760590097 a3_x1
+0.5939956815587778 a3_x2
<= 75.633450136201063

a3_act_1: 
+0.0099995000374968734 a3_x1
-0.99995000374968745 a3_z1
<= 0

a3_act_2: 
+0.0099995000374968768 a3_x2
-0.99995000374968757 a3_z2
<= 0

a4_local_1: 
+0.35922126688313905 a4_x1
+0.82536095005775423 a4_x6
+0.43559084418595612 a4_x5
<= 102.34045830510641

a4_local_2: 
+0.69088349963423634 a4_x2
+0.3284004396277127 a4_x5
+0.64407541575926885 a4_x4
<= 111.82877828836619

a4_local_3: 
+0.74228054919970943 a4_x6
+0.57737814604835958 a4_x2
+0.34007949474429783 a4_x5
<= 96.656353967815193

a4_local_4: 
+0.6363613737893532 a4_x6
+0.38653465108739338 a4_x3
+0.66755911008514757 a4_x4
<= 107.04015938518985

a4_local_5: 
+0.44397761964560301 a4_x5
+0.45165252993905791 a4_x2
+0.77388233308008325 a4_x3
<= 66.892639522294431

a4_local_6: 
+0.60027196439209529 a4_x1
+0.51190150666328882 a4_x5
+0.61451640843895294 a4_x4
<= 95.217709897947415

a4_local_7: 
+0.37146299245302 a4_x6
+0.71516470785044872 a4_x3
+0.59207658785247519 a4_x2
<= 100.93310486108884

a4_local_8: 
+0.491289632353483 a4_x3
+0.77850908644126027 a4_x6
+0.39058686546064753 a4_x4
<= 59.841937478560631

a4_act_1: 
+0.0099995000374968751 a4_x1
-0.99995000374968757 a4_z1
<= 0

a4_act_2: 
+0.0099995000374968751 a4_x2
-0.99995000374968757 a4_z2
<= 0

coupling_1: 
+1.515424353962448e-06 a1_x1
+0.00018952688519248686 a2_x1
+0.015253738925548337 a3_x1
+0.99988126924794263 a4_x1
+0.0015386573981419813 short_1
-0.0015386573981419813 surp_1
= 71.899028286270195

coupling_2: 
+1.4153419142999088e-06 a1_x2
+0.0001258200615640949 a2_x2
+0.01323495828723022 a3_x2
+0.99991137969555521 a4_x2
+0.0010131144495003851 short_2
-0.0010131144495003851 surp_2
= 28.374141191651979

coupling_3: 
+2.2424264385144885e-06 a1_x3
+0.00015784840449232127 a2_x3
+0.010120747799089665 a3_x3
+0.99994509336106352 a4_x3
+0.001917785959653512 short_3
-0.001917785959653512 surp_3
= 22.656716512441996

bounds
  0 <= a1_x1 <= 100
  0 <= a1_x2 <= 100
  0 <= a1_x3 <= 100
  0 <= a1_x4 <= 100
  0 <= a1_x5 <= 100
  0 <= a1_x6 <= 100
  0 <= a2_x1 <= 100
  0 <= a2_x2 <= 100
  0 <= a2_x3 <= 100
  0 <= a2_x4 <= 100
  0 <= a2_x5 <= 100
  0 <= a2_x6 <= 100
  0 <= a3_x1 <= 100
  0 <= a3_x2 <= 100
  0 <= a3_x3 <= 100
  0 <= a3_x4 <= 100
  0 <= a3_x5 <= 100
  0 <= a3_x6 <= 100
  0 <= a4_x1 <= 100
  0 <= a4_x2 <= 100
  0 <= a4_x3 <= 100
  0 <= a4_x4 <= 100
  0 <= a4_x5 <= 100
  0 <= a4_x6 <= 100
  0 <= short_1 <= +inf
  0 <= surp_1 <= +inf
  0 <= short_2 <= +inf
  0 <= surp_2 <= +inf
  0 <= short_3 <= +inf
  0 <= surp_3 <= +inf
 0 <= a1_z1 <= 1
 0 <= a1_z2 <= 1
 0 <= a2_z1 <= 1
 0 <= a2_z2 <= 1
 0 <= a3_z1 <= 1
 0 <= a3_z2 <= 1
 0 <= a4_z1 <= 1
 0 <= a4_z2 <= 1

binary
  a1_z1
  a1_z2
  a2_z1
  a2_z2
  a3_z1
  a3_z2
  a4_z1
  a4_z2
end
