min
obj: 
  +1.5869078218103445 a1_x1
  +1.8591431952918778 a1_x2
  +3.3231109040519993 a1_x3
  +9.2087059181463786 a1_x4
  +9.6203246603591985 a1_x5
  +2.6522167369866532 a1_x6
  +45.971215901918207 a1_z1
  +15.231591264695247 a1_z2
  +7.3851642913844699 a2_x1
  +8.184615433312981 a2_x2
  +6.3286902635835114 a2_x3
  +1.720840343178456 a2_x4
  +2.5195780412124975 a2_x5
  +8.1969421632275719 a2_x6
  +32.909722818284479 a2_z1
  +29.006081337850453 a2_z2
  +9.6251817518945995 a3_x1
  +3.9009418953480735 a3_x2
  +1.3219510135661245 a3_x3
  +4.7485775019531236 a3_x4
  +3.5558983548633152 a3_x5
  +8.1243659823807501 a3_x6
  +20.822115549059351 a3_z1
  +25.222874624514855 a3_z2
  +3.9740281273618923 a4_x1
  +5.8725760658506196 a4_x2
  +8.5449306619724936 a4_x3
  +7.8945369096479574 a4_x4
  +2.7042977066829055 a4_x5
  +9.2622687133164359 a4_x6
  +13.310232891557296 a4_z1
  +27.542990425232677 a4_z2
  +1000000 short_1
  +1000000 surp_1
  +1000000 short_2
  +1000000 surp_2
  +1000000 short_3
  +1000000 surp_3

s.t.

a1_local_1: 
+3.5376350179723647e-08 a1_x4
+4.5850610280715599e-08 a1_x1
+3.2562222201288091e-08 a1_x3
<= 5.0447893614367524e-06

a1_local_2: 
+6.6895165410702413 a1_x2
+4.5471789945024215 a1_x4
+5.1869733158565978 a1_x3
<= 1105.9611199701008

a1_local_3: 
+4.6675278284622377e-09 a1_x6
+9.3579787808098267e-09 a1_x4
+5.5895101072741098e-09 a1_x1
<= 8.4709818477986333e-07

a1_local_4: 
+3.7484949796724013e-07 a1_x6
+3.3314259675685964e-07 a1_x2
+3.0682638837114557e-07 a1_x1
<= 3.9755587625076556e-05

a1_local_5: 
+2.3353845199401774e-05 a1_x1
+3.4025061464018608e-05 a1_x2
+3.9569853567580142e-05 a1_x5
<= 0.0050600346998749841

a1_local_6: 
+7.6000431532965281e-09 a1_x1
+1.2025216793326722e-08 a1_x2
+1.0706253828321632e-08 a1_x6
<= 1.0999903089720188e-06

a1_local_7: 
+4.1115188710231902e-09 a1_x5
+8.7465924301917561e-09 a1_x2
+7.5345298042922749e-09 a1_x4
<= 1.3508711511450185e-06

a1_local_8: 
+1.9478767768610294e-07 a1_x1
+1.3724623256256467e-07 a1_x2
+1.9166753164435346e-07 a1_x3
<= 3.2814134441598616e-05

a1_act_1: 
+80.129338077455188 a1_x1
-8012.9338077455186 a1_z1
<= 0

a1_act_2: 
+449.36641123088737 a1_x2
-44936.641123088739 a1_z2
<= 0

a2_local_1: 
+1.1657875811032239 a2_x1
+2.9671222795509928 a2_x5
+1.7776233985964258 a2_x3
<= 316.39072378357366

a2_local_2: 
+1.2551564556781125 a2_x4
+2.9661665118672449 a2_x2
+2.4207732243628151 a2_x5
<= 303.95923980939148

a2_local_3: 
+0.0050180324453490315 a2_x2
+0.0044644661562270481 a2_x1
+0.0040781060539656867 a2_x5
<= 0.45070751531154618

a2_local_4: 
+0.0004906407028824432 a2_x6
+0.00033469927455922788 a2_x2
+0.00049444800935185293 a2_x4
<= 0.061660564709281843

a2_local_5: 
+2.0957785669333116e-05 a2_x1
+3.7962492399143012e-05 a2_x6
+3.3070131711182664e-05 a2_x2
<= 0.0043607613515737166

a2_local_6: 
+2.691328383652329 a2_x4
+2.8195550967161633 a2_x6
+2.5930556888898044 a2_x5
<= 424.94843643248373

a2_local_7: 
+1.9226986426709853 a2_x4
+1.3268941948385975 a2_x6
+2.5759408871820244 a2_x3
<= 358.39008996353186

a2_local_8: 
+3.2954003396630602e-07 a2_x5
+2.8729418066310922e-07 a2_x1
+2.1991170599955704e-07 a2_x4
<= 5.4510958065506823e-05

a2_act_1: 
+0.42594959901698443 a2_x1
-42.594959901698445 a2_z1
<= 0

a2_act_2: 
+436.738468188583 a2_x2
-43673.846818858299 a2_z2
<= 0

a3_local_1: 
+0.011229597912740367 a3_x3
+0.013021249741802576 a3_x5
+0.005783121243250579 a3_x4
<= 1.0405835445216405

a3_local_2: 
+148153.60410690482 a3_x3
+164717.00179312465 a3_x5
+111225.39766131381 a3_x2
<= 21596729.381167598

a3_local_3: 
+6111.2066110999531 a3_x5
+7796.6522654228147 a3_x6
+8694.3419051682376 a3_x2
<= 1133866.5187717567

a3_local_4: 
+0.12330928752838013 a3_x4
+0.10787152495113275 a3_x3
+0.051922536672712488 a3_x1
<= 12.362074666536438

a3_local_5: 
+0.0019652768355526819 a3_x1
+0.00167245247060746 a3_x4
+0.00090940418832673924 a3_x5
<= 0.26088098794050102

a3_local_6: 
+9.5228760450470339e-05 a3_x5
+0.00017289888900716245 a3_x4
+0.00013443429589048617 a3_x6
<= 0.016281299093435963

a3_local_7: 
+5931.4836649036197 a3_x5
+4552.3764124636218 a3_x4
+5314.9916252255307 a3_x2
<= 959152.69108920998

a3_local_8: 
+17160.822420143573 a3_x6
+7841.7232580461286 a3_x2
+13001.658470572112 a3_x3
<= 2073613.9372656494

a3_act_1: 
+3.0284500262069163e-05 a3_x1
-0.0030284500262069162 a3_z1
<= 0

a3_act_2: 
+128141.03396411342 a3_x2
-12814103.396411343 a3_z2
<= 0

a4_local_1: 
+0.011206682447963469 a4_x3
+0.009395668978457292 a4_x2
+0.01514449089700942 a4_x4
<= 2.1158370468003214

a4_local_2: 
+2541.6202319530885 a4_x5
+1286.4908537326687 a4_x4
+2695.3616612775309 a4_x1
<= 261748.13873493858

a4_local_3: 
+346.95726149344796 a4_x3
+420.07624348098852 a4_x2
+459.42165080185691 a4_x6
<= 70313.567831998473

a4_local_4: 
+34874645.46182856 a4_x1
+41278210.060538694 a4_x6
+39727301.268907383 a4_x5
<= 5353395809.5748806

a4_local_5: 
+143.83262621785678 a4_x1
+159.32210946847255 a4_x2
+135.51753863404707 a4_x6
<= 17256.282689085838

a4_local_6: 
+2614.6131555691295 a4_x6
+7681.0035656602277 a4_x3
+4379.3587627474444 a4_x5
<= 601835.62912390998

a4_local_7: 
+15.920942668284438 a4_x1
+16.715912484109694 a4_x4
+23.232844848146598 a4_x5
<= 1799.0030962110279

a4_local_8: 
+0.0081955207511152685 a4_x5
+0.0072205209457879413 a4_x1
+0.011093801438198528 a4_x6
<= 1.5126049630075227

a4_act_1: 
+33285.110120648438 a4_x1
-3328511.0120648439 a4_z1
<= 0

a4_act_2: 
+8298.8540236336921 a4_x2
-829885.40236336924 a4_z2
<= 0

coupling_1: 
+0.0013736557864692117 a1_x1
+0.093013333642136722 a2_x1
+6.7019913961136375 a3_x1
+1318.5520415885044 a4_x1
+0.93490743232512796 short_1
-0.93490743232512796 surp_1
= 78776.12572499222

coupling_2: 
+7.9930259964311787 a1_x2
+389.28942877397407 a2_x2
+96902.44426427166 a3_x2
+6096249.8489651028 a4_x2
+7069.563003287054 short_2
-7069.563003287054 surp_2
= 481425790.3953957

coupling_3: 
+2.1404400333296497e-09 a1_x3
+1.8984049265625897e-07 a2_x3
+3.8848994974693366e-05 a3_x3
+0.0027604314491695525 a4_x3
+3.2479837582855024e-06 short_3
-3.2479837582855024e-06 surp_3
= 0.14271686005634193

bounds
  0 <= a1_x1 <= 100
  0 <= a1_x2 <= 100
  0 <= a1_x3 <= 100
  0 <= a1_x4 <= 100
  0 <= a1_x5 <= 100
  0 <= a1_x6 <= 100
  0 <= a2_x1 <= 100
  0 <= a2_x2 <= 100
  0 <= a2_x3 <= 100
  0 <= a2_x4 <= 100
  0 <= a2_x5 <= 100
  0 <= a2_x6 <= 100
  0 <= a3_x1 <= 100
  0 <= a3_x2 <= 100
  0 <= a3_x3 <= 100
  0 <= a3_x4 <= 100
  0 <= a3_x5 <= 100
  0 <= a3_x6 <= 100
  0 <= a4_x1 <= 100
  0 <= a4_x2 <= 100
  0 <= a4_x3 <= 100
  0 <= a4_x4 <= 100
  0 <= a4_x5 <= 100
  0 <= a4_x6 <= 100
  0 <= short_1 <= +inf
  0 <= surp_1 <= +inf
  0 <= short_2 <= +inf
  0 <= surp_2 <= +inf
  0 <= short_3 <= +inf
  0 <= surp_3 <= +inf
 0 <= a1_z1 <= 1
 0 <= a1_z2 <= 1
 0 <= a2_z1 <= 1
 0 <= a2_z2 <= 1
 0 <= a3_z1 <= 1
 0 <= a3_z2 <= 1
 0 <= a4_z1 <= 1
 0 <= a4_z2 <= 1

binary
  a1_z1
  a1_z2
  a2_z1
  a2_z2
  a3_z1
  a3_z2
  a4_z1
  a4_z2
end
