min
obj: 
  +4.6820518769511636 a1_x1
  +5.7129162548306427 a1_x2
  +9.0056358908477314 a1_x3
  +9.0172471176233611 a1_x4
  +9.406385688684578 a1_x5
  +5.7753562095118767 a1_x6
  +36.440798325108226 a1_z1
  +20.355895911925103 a1_z2
  +9.8523773325997031 a2_x1
  +8.6665660995193221 a2_x2
  +1.318348960475541 a2_x3
  +8.2691943978607085 a2_x4
  +6.0635318483155114 a2_x5
  +3.2631581910354219 a2_x6
  +31.015799445658949 a2_z1
  +42.142738976131909 a2_z2
  +3.407000856972263 a3_x1
  +9.4188250932667614 a3_x2
  +9.7490010795163791 a3_x3
  +7.0450820339939781 a3_x4
  +9.9763761898407548 a3_x5
  +5.8473553548384958 a3_x6
  +49.073547744148975 a3_z1
  +13.999141819476126 a3_z2
  +1.9143138950663818 a4_x1
  +6.1042201720531999 a4_x2
  +2.2574896326389386 a4_x3
  +5.6594666769891386 a4_x4
  +4.3520497618016583 a4_x5
  +6.7823412192640848 a4_x6
  +29.956754589694771 a4_z1
  +32.972144993024642 a4_z2
  +1000000 short_1
  +1000000 surp_1
  +1000000 short_2
  +1000000 surp_2
  +1000000 short_3
  +1000000 surp_3

s.t.

a1_local_1: 
+1.3623945454214452 a1_x4
+1.1147100401026735 a1_x2
+0.7340017642911647 a1_x6
<= 140.8764437183722

a1_local_2: 
+1.4953012733070599 a1_x3
+0.66876155183655084 a1_x4
+1.3475799601647833 a1_x5
<= 147.51684959336771

a1_local_3: 
+0.61170000277962022 a1_x1
+1.0754391342952856 a1_x3
+0.80435441831657661 a1_x6
<= 129.73356648363915

a1_local_4: 
+0.81799788854876532 a1_x2
+0.71068903451150744 a1_x1
+1.407085168673456 a1_x5
<= 140.44026779512009

a1_local_5: 
+0.77395509511110949 a1_x2
+1.2601501418462635 a1_x3
+1.292064625346822 a1_x5
<= 141.6539092999638

a1_local_6: 
+1.1923096376581672 a1_x6
+0.83870830899607174 a1_x1
+1.0590813203630662 a1_x3
<= 161.21504661483962

a1_local_7: 
+1.8339865253154359 a1_x4
+1.4847701207465078 a1_x2
+1.367950912262011 a1_x5
<= 246.79229005921377

a1_local_8: 
+1.1196169416042345 a1_x6
+1.092880092976215 a1_x2
+0.89316261914289863 a1_x4
<= 194.26659353418262

a1_act_1: 
+0.099999999999999992 a1_x1
-10 a1_z1
<= 0

a1_act_2: 
+0.072730685835722911 a1_x2
-7.2730685835722912 a1_z2
<= 0

a2_local_1: 
+0.83322734713048552 a2_x2
+1.1451309842908612 a2_x6
+1.2001526395453239 a2_x5
<= 105.38925684531954

a2_local_2: 
+1.2995151368197804 a2_x1
+1.5247229644574969 a2_x4
+1.9206771362353978 a2_x5
<= 329.48676484979006

a2_local_3: 
+1.5243160512059697 a2_x2
+1.0585583187077072 a2_x5
+0.65603192934224197 a2_x1
<= 204.44163190663792

a2_local_4: 
+0.72182797607453419 a2_x6
+1.3853716302854164 a2_x4
+0.76786776819486402 a2_x5
<= 107.21659889981882

a2_local_5: 
+0.73462857105759261 a2_x5
+1.3612321102082525 a2_x3
+0.95584220545224485 a2_x6
<= 157.71482320689691

a2_local_6: 
+1.1959125218165827 a2_x6
+0.83618156157526213 a2_x4
+1.0923761067433322 a2_x1
<= 164.44811346548471

a2_local_7: 
+0.98123234262351178 a2_x3
+0.89617254994848883 a2_x6
+1.1158565390755151 a2_x1
<= 139.90898803581052

a2_local_8: 
+1.3072986736596577 a2_x5
+1.3101821392454522 a2_x3
+1.4140610911082048 a2_x6
<= 280.41968284834672

a2_act_1: 
+0.099999999999999992 a2_x1
-10 a2_z1
<= 0

a2_act_2: 
+0.099999999999999992 a2_x2
-10 a2_z2
<= 0

a3_local_1: 
+1.2161983589985279 a3_x5
+0.82223429476047372 a3_x2
+0.98414990542296288 a3_x3
<= 117.04475217204607

a3_local_2: 
+1.2335054451200038 a3_x2
+0.81069767787098268 a3_x3
+1.1074753929427099 a3_x4
<= 159.77269527564403

a3_local_3: 
+0.70141346562245221 a3_x6
+1.4256926178521174 a3_x4
+1.2238349236324289 a3_x1
<= 229.9304986389113

a3_local_4: 
+1.4006217636003986 a3_x4
+1.5761560028903203 a3_x2
+0.63445496395421641 a3_x1
<= 177.78916628304532

a3_local_5: 
+0.66190003401050868 a3_x3
+1.2945818856195495 a3_x5
+1.5108021583575311 a3_x2
<= 171.50535921488452

a3_local_6: 
+1.1078493380353669 a3_x1
+1.0036516475783528 a3_x6
+0.90264981497698571 a3_x2
<= 136.78727426890237

a3_local_7: 
+0.9980114931231393 a3_x1
+1.3314632932684041 a3_x4
+0.75105337492650959 a3_x6
<= 105.14541317716474

a3_local_8: 
+1.4485876210779118 a3_x4
+0.69032758905939573 a3_x3
+1.110908002998805 a3_x5
<= 206.57513550200179

a3_act_1: 
+0.10000000000000001 a3_x1
-10 a3_z1
<= 0

a3_act_2: 
+0.099999999999999992 a3_x2
-10 a3_z2
<= 0

a4_local_1: 
+1.1453778440132709 a4_x3
+0.87307433544909174 a4_x5
+0.99980797331340965 a4_x2
<= 192.84852746785489

a4_local_2: 
+1.4595656838598425 a4_x3
+0.68513531871719902 a4_x2
+1.0209467251561628 a4_x6
<= 108.76390805174914

a4_local_3: 
+0.73632386902872871 a4_x5
+1.1413321782322303 a4_x6
+1.3580980354732783 a4_x3
<= 189.50462695863703

a4_local_4: 
+0.98904665465250396 a4_x3
+0.93424173670005251 a4_x6
+1.0703867754102061 a4_x1
<= 203.48885401461629

a4_local_5: 
+1.5990408426952309 a4_x3
+1.6476029483083563 a4_x6
+0.60694234677519243 a4_x5
<= 199.14563821842032

a4_local_6: 
+0.84295729347153847 a4_x3
+0.87648915554291329 a4_x4
+1.1862997185559838 a4_x6
<= 170.3310961481362

a4_local_7: 
+0.82683901637165713 a4_x6
+0.73967074842631331 a4_x3
+1.0923054862122654 a4_x1
<= 179.89695630987413

a4_local_8: 
+0.66328798980764103 a4_x1
+1.5076407463521364 a4_x6
+1.1501790034602855 a4_x3
<= 175.86915981325944

a4_act_1: 
+0.099999999999999992 a4_x1
-10 a4_z1
<= 0

a4_act_2: 
+0.10000000000000001 a4_x2
-10.000000000000002 a4_z2
<= 0

coupling_1: 
+0.00086630310700062517 a1_x1
+0.057487840106624354 a2_x1
+5.5340734843247734 a3_x1
+1154.3303861188601 a4_x1
+0.96577551454305544 short_1
-0.96577551454305544 surp_1
= 58532.97770365046

coupling_2: 
+0.00093357643427928016 a1_x2
+0.04431059527259517 a2_x2
+4.5850528688824594 a3_x2
+1071.149574134226 a4_x2
+0.77244146988768192 short_2
-0.77244146988768192 surp_2
= 25600.668941045758

coupling_3: 
+0.00078847684677703833 a1_x3
+0.13205272283975569 a2_x3
+6.4838602334243953 a3_x3
+1268.2680589640386 a4_x3
+1.0248294583186948 short_3
-1.0248294583186948 surp_3
= 76659.542123336083

bounds
  0 <= a1_x1 <= 100
  0 <= a1_x2 <= 100
  0 <= a1_x3 <= 100
  0 <= a1_x4 <= 100
  0 <= a1_x5 <= 100
  0 <= a1_x6 <= 100
  0 <= a2_x1 <= 100
  0 <= a2_x2 <= 100
  0 <= a2_x3 <= 100
  0 <= a2_x4 <= 100
  0 <= a2_x5 <= 100
  0 <= a2_x6 <= 100
  0 <= a3_x1 <= 100
  0 <= a3_x2 <= 100
  0 <= a3_x3 <= 100
  0 <= a3_x4 <= 100
  0 <= a3_x5 <= 100
  0 <= a3_x6 <= 100
  0 <= a4_x1 <= 100
  0 <= a4_x2 <= 100
  0 <= a4_x3 <= 100
  0 <= a4_x4 <= 100
  0 <= a4_x5 <= 100
  0 <= a4_x6 <= 100
  0 <= short_1 <= +inf
  0 <= surp_1 <= +inf
  0 <= short_2 <= +inf
  0 <= surp_2 <= +inf
  0 <= short_3 <= +inf
  0 <= surp_3 <= +inf
 0 <= a1_z1 <= 1
 0 <= a1_z2 <= 1
 0 <= a2_z1 <= 1
 0 <= a2_z2 <= 1
 0 <= a3_z1 <= 1
 0 <= a3_z2 <= 1
 0 <= a4_z1 <= 1
 0 <= a4_z2 <= 1

binary
  a1_z1
  a1_z2
  a2_z1
  a2_z2
  a3_z1
  a3_z2
  a4_z1
  a4_z2
end
