min
obj: 
  +4.0092711480649195 a1_x1
  +1.9679731558453351 a1_x2
  +5.1245063990813229 a1_x3
  +5.3289660462088069 a1_x4
  +7.7326436197250805 a1_x5
  +5.1395422066191525 a1_x6
  +7.4601303692563201 a1_z1
  +49.872667351617643 a1_z2
  +9.3684343534405965 a2_x1
  +1.0573707236444929 a2_x2
  +6.6071911877442115 a2_x3
  +2.1574642417771144 a2_x4
  +4.0288495580936399 a2_x5
  +6.5816021448275457 a2_x6
  +37.186317612242192 a2_z1
  +14.569927030673126 a2_z2
  +7.5771846442232071 a3_x1
  +6.3254671996139473 a3_x2
  +1.3182946718516668 a3_x3
  +2.4508427443497842 a3_x4
  +7.5821505201430535 a3_x5
  +8.0396019839617026 a3_x6
  +34.570982164584187 a3_z1
  +17.019236119633661 a3_z2
  +9.6576292080467585 a4_x1
  +1.0103892115093069 a4_x2
  +8.2624531172852755 a4_x3
  +1.8717492610420641 a4_x4
  +5.7231033614351237 a4_x5
  +2.0382344427317065 a4_x6
  +33.41705432517788 a4_z1
  +11.211459891146486 a4_z2
  +1000000 short_1
  +1000000 surp_1
  +1000000 short_2
  +1000000 surp_2
  +1000000 short_3
  +1000000 surp_3

s.t.

a1_local_1: 
+493.17660671276599 a1_x3
+209.52571324793868 a1_x6
+333.37064632404082 a1_x4
<= 39164.11771477689

a1_local_2: 
+1.9585904701585385e-05 a1_x4
+1.0850720875844403e-05 a1_x6
+7.5831317244740197e-06 a1_x2
<= 0.0021553211840955066

a1_local_3: 
+0.035073671583835064 a1_x6
+0.059314807322054047 a1_x4
+0.03100049867464021 a1_x1
<= 7.9604010838483319

a1_local_4: 
+238.27412134538409 a1_x2
+281.29093939916851 a1_x5
+276.29126140992639 a1_x3
<= 53717.515668226435

a1_local_5: 
+6.4517596272371884 a1_x1
+2.9259934730869483 a1_x4
+4.1070030258772157 a1_x2
<= 922.96424802887248

a1_local_6: 
+5.1788117247391744e-06 a1_x1
+5.3088087037690286e-06 a1_x3
+2.7060848591755188e-06 a1_x6
<= 0.00082365176934769461

a1_local_7: 
+541.30013310029915 a1_x2
+873.04570203943206 a1_x5
+689.56878285655716 a1_x4
<= 117038.58205713418

a1_local_8: 
+8.0590373836509626e-05 a1_x4
+0.00012563975727735327 a1_x5
+5.0981270996522015e-05 a1_x6
<= 0.013327163959735855

a1_act_1: 
+1013.0202625481508 a1_x1
-101302.02625481508 a1_z1
<= 0

a1_act_2: 
+0.00039829861158940987 a1_x2
-0.039829861158940986 a1_z2
<= 0

a2_local_1: 
+9.3521167221805496e-05 a2_x4
+0.00017643620724757802 a2_x2
+0.00014152252439249261 a2_x6
<= 0.023744709384783725

a2_local_2: 
+12.892257184991967 a2_x1
+17.789195962803948 a2_x4
+11.365997234431759 a2_x5
<= 2700.8356491773693

a2_local_3: 
+0.016440199677026861 a2_x4
+0.012152184188815859 a2_x5
+0.023750484766215298 a2_x3
<= 3.3439790154526947

a2_local_4: 
+3.554335418714904e-05 a2_x2
+2.40573948378096e-05 a2_x1
+3.4115054476455954e-05 a2_x5
<= 0.0042842666428633425

a2_local_5: 
+0.010811061580820402 a2_x2
+0.0068167622159391308 a2_x3
+0.012661293048435612 a2_x6
<= 1.7077305165116263

a2_local_6: 
+2218.7485585233994 a2_x6
+1592.3941849363969 a2_x5
+2542.228460497648 a2_x2
<= 353985.10422464163

a2_local_7: 
+1.6289757019608115 a2_x2
+1.1116796450704485 a2_x5
+1.1751578655991355 a2_x6
<= 261.09006761185384

a2_local_8: 
+28082.591473603159 a2_x2
+23081.605358913926 a2_x4
+20043.735410540052 a2_x5
<= 4728468.016500446

a2_act_1: 
+5155.5993390668173 a2_x1
-515559.93390668172 a2_z1
<= 0

a2_act_2: 
+675888.71614944481 a2_x2
-67588871.614944488 a2_z2
<= 0

a3_local_1: 
+1062.577187696784 a3_x1
+883.81026991574026 a3_x2
+1644.2949748832225 a3_x6
<= 162168.78052993419

a3_local_2: 
+0.004690307101895547 a3_x2
+0.0038755844448964687 a3_x1
+0.008000820739354134 a3_x6
<= 0.7132327642439128

a3_local_3: 
+8.7933921051947124 a3_x1
+6.7927134670278972 a3_x5
+13.706938955146018 a3_x2
<= 1517.2955016334574

a3_local_4: 
+0.13315017808607463 a3_x4
+0.20259505601267158 a3_x6
+0.19075653416987148 a3_x5
<= 33.808147706211379

a3_local_5: 
+0.01369509468834082 a3_x4
+0.02011419070003171 a3_x1
+0.013356920485999499 a3_x5
<= 1.5349435855395459

a3_local_6: 
+0.96874760461079568 a3_x5
+0.54943429788926734 a3_x6
+0.49858472139441667 a3_x1
<= 118.85878927831428

a3_local_7: 
+0.46482309968614399 a3_x6
+0.57382031589999272 a3_x1
+0.6624639738437812 a3_x4
<= 106.71291528717347

a3_local_8: 
+0.016156919469839555 a3_x3
+0.020731236294204473 a3_x1
+0.013261581293992852 a3_x6
<= 2.042821765208847

a3_act_1: 
+686663.1252002354 a3_x1
-68666312.52002354 a3_z1
<= 0

a3_act_2: 
+0.00012862479913968599 a3_x2
-0.012862479913968598 a3_z2
<= 0

a4_local_1: 
+267672.65829797066 a4_x3
+260031.93257249831 a4_x2
+362943.9338434806 a4_x5
<= 53072298.42042689

a4_local_2: 
+892.36958228775495 a4_x2
+1759.4190662458843 a4_x5
+2062.694285868507 a4_x3
<= 326176.23858661304

a4_local_3: 
+124.88611455760136 a4_x4
+58.353947676732098 a4_x5
+59.586503076581323 a4_x2
<= 8231.2006383298503

a4_local_4: 
+100473360.47413464 a4_x5
+102359251.11191182 a4_x3
+84827696.848458216 a4_x1
<= 9518754987.4728737

a4_local_5: 
+288861474.30167156 a4_x5
+440743781.69734907 a4_x6
+222704963.63635343 a4_x1
<= 51121313296.162781

a4_local_6: 
+14.036224202640483 a4_x3
+6.3442720463063598 a4_x2
+8.1325515595465632 a4_x1
<= 1398.4681441562896

a4_local_7: 
+0.001054531573480223 a4_x1
+0.00093125305151856876 a4_x2
+0.0020608637414333748 a4_x3
<= 0.24720718779903719

a4_local_8: 
+5.4374728417934897 a4_x3
+3.8860856809788333 a4_x1
+5.9859247639862136 a4_x4
<= 879.93364768374545

a4_act_1: 
+0.0018442837864003762 a4_x1
-0.18442837864003761 a4_z1
<= 0

a4_act_2: 
+71551.722792492015 a4_x2
-7155172.2792492015 a4_z2
<= 0

coupling_1: 
+0.00074891348782630239 a1_x1
+0.096123705543170332 a2_x1
+9.7231346147552298 a3_x1
+393.39688329663795 a4_x1
+0.66348925535804648 short_1
-0.66348925535804648 surp_1
= 22801.134904659328

coupling_2: 
+1.4442224761735032e-08 a1_x2
+1.3221156227525074e-06 a2_x2
+0.00010819034001364412 a3_x2
+0.016783669490174655 a4_x2
+1.787045756170789e-05 short_2
-1.787045756170789e-05 surp_2
= 0.92784645866886406

coupling_3: 
+9.4914075802273827e-08 a1_x3
+6.3215469391401912e-06 a2_x3
+0.00090488166367519223 a3_x3
+0.10218209459118426 a4_x3
+0.00011917326850738593 short_3
-0.00011917326850738593 surp_3
= 2.2496132055175648

bounds
  0 <= a1_x1 <= 100
  0 <= a1_x2 <= 100
  0 <= a1_x3 <= 100
  0 <= a1_x4 <= 100
  0 <= a1_x5 <= 100
  0 <= a1_x6 <= 100
  0 <= a2_x1 <= 100
  0 <= a2_x2 <= 100
  0 <= a2_x3 <= 100
  0 <= a2_x4 <= 100
  0 <= a2_x5 <= 100
  0 <= a2_x6 <= 100
  0 <= a3_x1 <= 100
  0 <= a3_x2 <= 100
  0 <= a3_x3 <= 100
  0 <= a3_x4 <= 100
  0 <= a3_x5 <= 100
  0 <= a3_x6 <= 100
  0 <= a4_x1 <= 100
  0 <= a4_x2 <= 100
  0 <= a4_x3 <= 100
  0 <= a4_x4 <= 100
  0 <= a4_x5 <= 100
  0 <= a4_x6 <= 100
  0 <= short_1 <= +inf
  0 <= surp_1 <= +inf
  0 <= short_2 <= +inf
  0 <= surp_2 <= +inf
  0 <= short_3 <= +inf
  0 <= surp_3 <= +inf
 0 <= a1_z1 <= 1
 0 <= a1_z2 <= 1
 0 <= a2_z1 <= 1
 0 <= a2_z2 <= 1
 0 <= a3_z1 <= 1
 0 <= a3_z2 <= 1
 0 <= a4_z1 <= 1
 0 <= a4_z2 <= 1

binary
  a1_z1
  a1_z2
  a2_z1
  a2_z2
  a3_z1
  a3_z2
  a4_z1
  a4_z2
end
