min
obj: 
  +4.0092711480649195 a1_x1
  +1.9679731558453351 a1_x2
  +5.1245063990813229 a1_x3
  +5.3289660462088069 a1_x4
  +7.7326436197250805 a1_x5
  +5.1395422066191525 a1_x6
  +7.4601303692563201 a1_z1
  +49.872667351617643 a1_z2
  +9.3684343534405965 a2_x1
  +1.0573707236444929 a2_x2
  +6.6071911877442115 a2_x3
  +2.1574642417771144 a2_x4
  +4.0288495580936399 a2_x5
  +6.5816021448275457 a2_x6
  +37.186317612242192 a2_z1
  +14.569927030673126 a2_z2
  +7.5771846442232071 a3_x1
  +6.3254671996139473 a3_x2
  +1.3182946718516668 a3_x3
  +2.4508427443497842 a3_x4
  +7.5821505201430535 a3_x5
  +8.0396019839617026 a3_x6
  +34.570982164584187 a3_z1
  +17.019236119633661 a3_z2
  +9.6576292080467585 a4_x1
  +1.0103892115093069 a4_x2
  +8.2624531172852755 a4_x3
  +1.8717492610420641 a4_x4
  +5.7231033614351237 a4_x5
  +2.0382344427317065 a4_x6
  +33.41705432517788 a4_z1
  +11.211459891146486 a4_z2
  +1000000 short_1
  +1000000 surp_1
  +1000000 short_2
  +1000000 surp_2
  +1000000 short_3
  +1000000 surp_3

s.t.

a1_local_1: 
+0.78148208496250937 a1_x3
+0.33201208048706404 a1_x6
+0.52825536371465331 a1_x4
<= 62.059018921159925

a1_local_2: 
+0.82850689794525334 a1_x4
+0.45899830670512548 a1_x6
+0.3207754268938956 a1_x2
<= 91.172631314095725

a1_local_3: 
+0.46417792727740481 a1_x6
+0.7849940732266838 a1_x4
+0.4102720522134457 a1_x1
<= 105.35088881600053

a1_local_4: 
+0.51721050820825065 a1_x2
+0.61058510634536689 a1_x5
+0.59973253881057687 a1_x3
<= 116.6021027444082

a1_local_5: 
+0.78788977519871017 a1_x1
+0.3573227263475382 a1_x4
+0.50154777576307563 a1_x2
<= 112.71252122071361

a1_local_6: 
+0.65598510136492894 a1_x1
+0.67245144267999735 a1_x3
+0.34277194171173619 a1_x6
<= 104.3295871954415

a1_local_7: 
+0.43751232582857641 a1_x2
+0.70564966142939811 a1_x5
+0.55735224057380928 a1_x4
<= 94.597837902262967

a1_local_8: 
+0.51093370724646558 a1_x4
+0.79654162038621512 a1_x5
+0.32321539844488517 a1_x6
<= 84.492687710359405

a1_act_1: 
+0.0099995000374968751 a1_x1
-0.99995000374968745 a1_z1
<= 0

a1_act_2: 
+0.0099995000374968751 a1_x2
-0.99995000374968757 a1_z2
<= 0

a2_local_1: 
+0.38210255802832654 a2_x4
+0.72087130775669539 a2_x2
+0.57822330703748126 a2_x6
<= 97.014552588364424

a2_local_2: 
+0.52120176967801146 a2_x1
+0.71917277819711223 a2_x4
+0.45949889051526149 a2_x5
<= 109.18804207531662

a2_local_3: 
+0.52461682870637982 a2_x4
+0.38778363135704458 a2_x5
+0.75789249784491519 a2_x3
<= 106.70841600536656

a2_local_4: 
+0.64829000143276172 a2_x2
+0.43879281768829259 a2_x1
+0.62223864970562448 a2_x5
<= 78.142518947871721

a2_local_5: 
+0.60093396416614819 a2_x2
+0.37891042526939889 a2_x3
+0.70377926961066528 a2_x6
<= 94.924375496616051

a2_local_6: 
+0.59465521118310682 a2_x6
+0.42678360136503851 a2_x5
+0.68135228583946383 a2_x2
<= 94.872889539348122

a2_local_7: 
+0.70956674119344987 a2_x2
+0.48423736588227245 a2_x5
+0.51188789131557522 a2_x6
<= 113.72841731790145

a2_local_8: 
+0.67651343220211602 a2_x2
+0.55603899934844991 a2_x4
+0.48285630083254316 a2_x5
<= 113.9094349575073

a2_act_1: 
+0.0099995000374968751 a2_x1
-0.99995000374968745 a2_z1
<= 0

a2_act_2: 
+0.0099995000374968734 a2_x2
-0.99995000374968745 a2_z2
<= 0

a3_local_1: 
+0.49468250114607065 a3_x1
+0.41145761448933227 a3_x2
+0.7655010480323432 a3_x6
<= 75.497628679798211

a3_local_2: 
+0.46662846550291304 a3_x2
+0.38557347806034398 a3_x1
+0.7959842763515157 a3_x6
<= 70.957978463933372

a3_local_3: 
+0.49835127935034829 a3_x1
+0.38496605246954752 a3_x5
+0.77681860225916632 a3_x2
<= 85.990269209633809

a3_local_4: 
+0.43162885350286873 a3_x4
+0.65674618696769393 a3_x6
+0.61836961336016005 a3_x5
<= 109.59483677186165

a3_local_5: 
+0.49336283095547806 a3_x4
+0.72460937963388783 a3_x1
+0.48118017828895326 a3_x5
<= 55.296011451709681

a3_local_6: 
+0.96874760461079568 a3_x5
+0.54943429788926734 a3_x6
+0.49858472139441667 a3_x1
<= 118.85878927831428

a3_local_7: 
+0.46482309968614399 a3_x6
+0.57382031589999272 a3_x1
+0.6624639738437812 a3_x4
<= 106.71291528717347

a3_local_8: 
+0.54881279298141439 a3_x3
+0.70419164456558436 a3_x1
+0.45046492203495353 a3_x6
<= 69.389880949788747

a3_act_1: 
+0.0099995000374968751 a3_x1
-0.99995000374968745 a3_z1
<= 0

a3_act_2: 
+0.0099995000374968751 a3_x2
-0.99995000374968757 a3_z2
<= 0

a4_local_1: 
+0.51419106913609913 a4_x3
+0.49951346644504346 a4_x2
+0.69720430381684528 a4_x5
<= 101.95027777521908

a4_local_2: 
+0.31264890934173262 a4_x2
+0.61642671719781406 a4_x5
+0.72268164623999653 a4_x3
<= 114.27848648297957

a4_local_3: 
+0.83160858398989956 a4_x4
+0.38857517482686521 a4_x5
+0.39678268175738918 a4_x2
<= 54.81103429013362

a4_local_4: 
+0.60294574131329637 a4_x5
+0.61426306685376231 a4_x3
+0.50905531893063449 a4_x1
<= 57.122532333124894

a4_local_5: 
+0.50491806736059985 a4_x5
+0.77040214169723165 a4_x6
+0.38927918685842394 a4_x1
<= 89.357969154022555

a4_local_6: 
+0.80582327724305702 a4_x3
+0.36422630603993722 a4_x2
+0.46689189738285358 a4_x1
<= 80.286419394187376

a4_local_7: 
+0.42261030873506078 a4_x1
+0.37320564837512732 a4_x2
+0.82590439578183472 a4_x3
<= 99.069870058505714

a4_local_8: 
+0.60604053711379935 a4_x3
+0.43312868347014033 a4_x1
+0.667168952312861 a4_x4
<= 98.074137744266295

a4_act_1: 
+0.0099995000374968751 a4_x1
-0.99995000374968745 a4_z1
<= 0

a4_act_2: 
+0.0099995000374968751 a4_x2
-0.99995000374968745 a4_z2
<= 0

coupling_1: 
+1.9031231010503721e-06 a1_x1
+0.00024426752562400086 a2_x1
+0.024708223847952578 a3_x1
+0.99969183177095222 a4_x1
+0.0016860448499005664 short_1
-0.0016860448499005664 surp_1
= 57.941761328362517

coupling_2: 
+8.6047382565832097e-07 a1_x2
+7.8772204881252044e-05 a2_x2
+0.0064460259625284226 a3_x2
+0.99997808738301575 a4_x2
+0.0010647293777845982 short_2
-0.0010647293777845982 surp_2
= 55.281482256782681

coupling_3: 
+9.2883421003352928e-07 a1_x3
+6.1862995638687867e-05 a2_x3
+0.0088552202415633462 a3_x3
+0.99995942969399132 a4_x3
+0.0011662359642184881 short_3
-0.0011662359642184881 surp_3
= 22.014834859487141

bounds
  0 <= a1_x1 <= 100
  0 <= a1_x2 <= 100
  0 <= a1_x3 <= 100
  0 <= a1_x4 <= 100
  0 <= a1_x5 <= 100
  0 <= a1_x6 <= 100
  0 <= a2_x1 <= 100
  0 <= a2_x2 <= 100
  0 <= a2_x3 <= 100
  0 <= a2_x4 <= 100
  0 <= a2_x5 <= 100
  0 <= a2_x6 <= 100
  0 <= a3_x1 <= 100
  0 <= a3_x2 <= 100
  0 <= a3_x3 <= 100
  0 <= a3_x4 <= 100
  0 <= a3_x5 <= 100
  0 <= a3_x6 <= 100
  0 <= a4_x1 <= 100
  0 <= a4_x2 <= 100
  0 <= a4_x3 <= 100
  0 <= a4_x4 <= 100
  0 <= a4_x5 <= 100
  0 <= a4_x6 <= 100
  0 <= short_1 <= +inf
  0 <= surp_1 <= +inf
  0 <= short_2 <= +inf
  0 <= surp_2 <= +inf
  0 <= short_3 <= +inf
  0 <= surp_3 <= +inf
 0 <= a1_z1 <= 1
 0 <= a1_z2 <= 1
 0 <= a2_z1 <= 1
 0 <= a2_z2 <= 1
 0 <= a3_z1 <= 1
 0 <= a3_z2 <= 1
 0 <= a4_z1 <= 1
 0 <= a4_z2 <= 1

binary
  a1_z1
  a1_z2
  a2_z1
  a2_z2
  a3_z1
  a3_z2
  a4_z1
  a4_z2
end
