min
obj: 
  +2.8670230128866887 a1_x1
  +4.6121734767481746 a1_x2
  +8.3726653944305163 a1_x3
  +3.8874111784256438 a1_x4
  +3.5735214707131471 a1_x5
  +7.9063268225890937 a1_x6
  +32.521673256282952 a1_z1
  +46.9551209495583 a1_z2
  +1.341622492975389 a2_x1
  +5.0417707846324316 a2_x2
  +1.1098914253226899 a2_x3
  +7.5349912767704339 a2_x4
  +4.7451420176434915 a2_x5
  +4.9227196469025021 a2_x6
  +7.3717597202086891 a2_z1
  +32.23919956008293 a2_z2
  +7.1988333719011539 a3_x1
  +9.6965932883206509 a3_x2
  +2.6814504435085222 a3_x3
  +4.7418198986047297 a3_x4
  +5.4039251046059666 a3_x5
  +9.8502537099383343 a3_x6
  +17.992052798317559 a3_z1
  +28.73085531973274 a3_z2
  +5.3817190254650331 a4_x1
  +3.7297540390479749 a4_x2
  +6.6577904747627379 a4_x3
  +5.4304281417402382 a4_x4
  +9.7175944926778737 a4_x5
  +8.0479454867151716 a4_x6
  +7.8471654550187315 a4_z1
  +24.374477793367895 a4_z2
  +1000000 short_1
  +1000000 surp_1
  +1000000 short_2
  +1000000 surp_2
  +1000000 short_3
  +1000000 surp_3

s.t.

a1_local_1: 
+1.3386872415872288 a1_x3
+2.3501782505991722 a1_x1
+2.0881698515348814 a1_x2
<= 347.43406102466253

a1_local_2: 
+1.2031196616718667 a1_x4
+0.90361891902783431 a1_x6
+0.8311725191244822 a1_x2
<= 110.08493802765288

a1_local_3: 
+2.3563246447661701 a1_x3
+1.1087821194069221 a1_x4
+1.1813743206225522 a1_x1
<= 303.22773016481307

a1_local_4: 
+0.66872221773875962 a1_x3
+0.60839304254108106 a1_x6
+1.6436742863187435 a1_x1
<= 160.0441086950772

a1_local_5: 
+0.83167637709024855 a1_x5
+1.2023907706729129 a1_x1
+1.129227689859529 a1_x3
<= 161.33248219939517

a1_local_6: 
+1.1562019475051257 a1_x6
+0.93250323884611386 a1_x3
+0.86490080920363299 a1_x1
<= 134.9545695370181

a1_local_7: 
+0.85552678483154154 a1_x4
+1.1688704757465962 a1_x3
+1.0681992372289688 a1_x6
<= 107.08219069546789

a1_local_8: 
+0.91465463065916641 a1_x6
+1.12884328451427 a1_x3
+0.88586255835351846 a1_x2
<= 107.68454446858946

a1_act_1: 
+0.063506231441481889 a1_x1
-6.3506231441481891 a1_z1
<= 0

a1_act_2: 
+0.10000000000000001 a1_x2
-10 a1_z2
<= 0

a2_local_1: 
+0.80143586396699207 a2_x3
+1.2477604821053851 a2_x1
+1.035798582800223 a2_x4
<= 139.46428594288733

a2_local_2: 
+1.2640844113347431 a2_x3
+0.79108641087038056 a2_x4
+0.91668418827015508 a2_x1
<= 193.36213054034602

a2_local_3: 
+0.73450215460200574 a2_x2
+1.0235462810180609 a2_x5
+1.3614663942570135 a2_x6
<= 190.73097966050111

a2_local_4: 
+0.62853123172490022 a2_x3
+0.55342687175379035 a2_x4
+0.43282394898127574 a2_x2
<= 97.174014534878808

a2_local_5: 
+0.72994684638846874 a2_x3
+1.1176634644129735 a2_x5
+1.3699627650255131 a2_x6
<= 201.32238012683084

a2_local_6: 
+0.6553246735198236 a2_x2
+1.5259611615550595 a2_x5
+0.81324738353424653 a2_x1
<= 201.11392634011287

a2_local_7: 
+0.79411719683566373 a2_x6
+1.259259973193783 a2_x2
+0.85221890163606617 a2_x5
<= 141.52401830525275

a2_local_8: 
+0.89561606987628661 a2_x2
+1.2014021831111008 a2_x4
+0.83236073153325041 a2_x6
<= 191.79833654773432

a2_act_1: 
+0.10000000000000001 a2_x1
-10 a2_z1
<= 0

a2_act_2: 
+0.10000000000000001 a2_x2
-10.000000000000002 a2_z2
<= 0

a3_local_1: 
+0.85396775625603782 a3_x6
+1.1710043999602473 a3_x2
+0.85954162289799774 a3_x1
<= 147.74637758957081

a3_local_2: 
+1.2072508971605416 a3_x3
+0.82832823098496222 a3_x1
+0.96282836761533952 a3_x4
<= 172.85837826659764

a3_local_3: 
+1.0224101848897671 a3_x4
+0.82643913357730192 a3_x1
+1.2100104646199741 a3_x6
<= 178.26601003975497

a3_local_4: 
+1.1841687612627605 a3_x1
+1.1921296992425841 a3_x3
+0.83883490247357073 a3_x5
<= 117.93568821226448

a3_local_5: 
+0.59863986406980196 a3_x5
+1.270854499928032 a3_x4
+1.6704534061624052 a3_x6
<= 152.73533086485202

a3_local_6: 
+0.76733689581740516 a3_x2
+1.2682382204090372 a3_x3
+1.303208545621608 a3_x6
<= 178.51091042586629

a3_local_7: 
+1.200640685994802 a3_x4
+0.69594678063841831 a3_x1
+1.4368914805276665 a3_x2
<= 179.02285078260152

a3_local_8: 
+1.4574321732654951 a3_x2
+0.68613827685676709 a3_x1
+1.0737263195337501 a3_x5
<= 105.2918254746381

a3_act_1: 
+0.10000000000000001 a3_x1
-10 a3_z1
<= 0

a3_act_2: 
+0.099999999999999992 a3_x2
-10 a3_z2
<= 0

a4_local_1: 
+0.74796130182463094 a4_x1
+1.3369675644455503 a4_x4
+1.0040065975893777 a4_x3
<= 123.78675764172857

a4_local_2: 
+1.1768083834065994 a4_x1
+0.8497560130437054 a4_x6
+0.87646179667627666 a4_x3
<= 136.19792688034917

a4_local_3: 
+1.0771910329680103 a4_x2
+0.67935411715235661 a4_x5
+1.4719863687463797 a4_x1
<= 183.99945455645158

a4_local_4: 
+0.81124402459131395 a4_x5
+0.83831920664339388 a4_x4
+1.2326747189340186 a4_x3
<= 124.58661322045066

a4_local_5: 
+0.69082944963965465 a4_x1
+1.2521136485244224 a4_x4
+1.4475352788182558 a4_x2
<= 137.28956165673947

a4_local_6: 
+1.1374157169987706 a4_x4
+1.3509815986545362 a4_x2
+0.74020253199297148 a4_x6
<= 164.5336148342621

a4_local_7: 
+0.88127640658120243 a4_x2
+0.94058996728456079 a4_x1
+1.1347177713282603 a4_x3
<= 142.33234680476338

a4_local_8: 
+1.1863461384952076 a4_x1
+0.74023993197972604 a4_x2
+1.3509133414696524 a4_x5
<= 213.58129372300107

a4_act_1: 
+0.12433034612835597 a4_x1
-12.433034612835597 a4_z1
<= 0

a4_act_2: 
+0.099999999999999992 a4_x2
-10 a4_z2
<= 0

coupling_1: 
+2.2463815101029736e-06 a1_x1
+0.00018697310282092208 a2_x1
+0.018365755199171812 a3_x1
+1.859074964416868 a4_x1
+0.0015225462414554432 short_1
-0.0015225462414554432 surp_1
= 47.002971847576909

coupling_2: 
+9.8199615122694871e-07 a1_x2
+0.00011680710951263043 a2_x2
+0.016463117103005895 a3_x2
+1.1148815562293939 a4_x2
+0.00146402529328471 short_2
-0.00146402529328471 surp_2
= 25.674180256564579

coupling_3: 
+2.5197647085326269e-06 a1_x3
+0.00024426700097880292 a2_x3
+0.018330006205375893 a3_x3
+1.1148443678089328 a4_x3
+0.0017146577673179963 short_3
-0.0017146577673179963 surp_3
= 23.336782475628482

bounds
  0 <= a1_x1 <= 100
  0 <= a1_x2 <= 100
  0 <= a1_x3 <= 100
  0 <= a1_x4 <= 100
  0 <= a1_x5 <= 100
  0 <= a1_x6 <= 100
  0 <= a2_x1 <= 100
  0 <= a2_x2 <= 100
  0 <= a2_x3 <= 100
  0 <= a2_x4 <= 100
  0 <= a2_x5 <= 100
  0 <= a2_x6 <= 100
  0 <= a3_x1 <= 100
  0 <= a3_x2 <= 100
  0 <= a3_x3 <= 100
  0 <= a3_x4 <= 100
  0 <= a3_x5 <= 100
  0 <= a3_x6 <= 100
  0 <= a4_x1 <= 100
  0 <= a4_x2 <= 100
  0 <= a4_x3 <= 100
  0 <= a4_x4 <= 100
  0 <= a4_x5 <= 100
  0 <= a4_x6 <= 100
  0 <= short_1 <= +inf
  0 <= surp_1 <= +inf
  0 <= short_2 <= +inf
  0 <= surp_2 <= +inf
  0 <= short_3 <= +inf
  0 <= surp_3 <= +inf
 0 <= a1_z1 <= 1
 0 <= a1_z2 <= 1
 0 <= a2_z1 <= 1
 0 <= a2_z2 <= 1
 0 <= a3_z1 <= 1
 0 <= a3_z2 <= 1
 0 <= a4_z1 <= 1
 0 <= a4_z2 <= 1

binary
  a1_z1
  a1_z2
  a2_z1
  a2_z2
  a3_z1
  a3_z2
  a4_z1
  a4_z2
end
