min
obj: 
  +4.6820518769511636 a1_x1
  +5.7129162548306427 a1_x2
  +9.0056358908477314 a1_x3
  +9.0172471176233611 a1_x4
  +9.406385688684578 a1_x5
  +5.7753562095118767 a1_x6
  +36.440798325108226 a1_z1
  +20.355895911925103 a1_z2
  +9.8523773325997031 a2_x1
  +8.6665660995193221 a2_x2
  +1.318348960475541 a2_x3
  +8.2691943978607085 a2_x4
  +6.0635318483155114 a2_x5
  +3.2631581910354219 a2_x6
  +31.015799445658949 a2_z1
  +42.142738976131909 a2_z2
  +3.407000856972263 a3_x1
  +9.4188250932667614 a3_x2
  +9.7490010795163791 a3_x3
  +7.0450820339939781 a3_x4
  +9.9763761898407548 a3_x5
  +5.8473553548384958 a3_x6
  +49.073547744148975 a3_z1
  +13.999141819476126 a3_z2
  +1.9143138950663818 a4_x1
  +6.1042201720531999 a4_x2
  +2.2574896326389386 a4_x3
  +5.6594666769891386 a4_x4
  +4.3520497618016583 a4_x5
  +6.7823412192640848 a4_x6
  +29.956754589694771 a4_z1
  +32.972144993024642 a4_z2
  +1000000 short_1
  +1000000 surp_1
  +1000000 short_2
  +1000000 surp_2
  +1000000 short_3
  +1000000 surp_3

s.t.

a1_local_1: 
+0.71433844523206802 a1_x4
+0.58447109877792225 a1_x2
+0.38485597352355055 a1_x6
<= 73.865137022017976

a1_local_2: 
+0.70495917278386289 a1_x3
+0.31528735967011728 a1_x4
+0.63531602021367128 a1_x5
<= 69.54675831381239

a1_local_3: 
+0.61170000277962022 a1_x1
+1.0754391342952856 a1_x3
+0.80435441831657661 a1_x6
<= 129.73356648363915

a1_local_4: 
+0.4605908130218262 a1_x2
+0.40016831925090912 a1_x1
+0.79228872213846113 a1_x5
<= 79.077828965448617

a1_local_5: 
+0.39411578841246087 a1_x2
+0.64169752199966568 a1_x3
+0.65794911321736205 a1_x5
<= 72.133438358523563

a1_local_6: 
+0.66171173080293677 a1_x6
+0.46546895978685993 a1_x1
+0.58777226269425165 a1_x3
<= 89.471630655027894

a1_local_7: 
+0.67240197120697565 a1_x4
+0.54436733432785611 a1_x2
+0.50153743074047608 a1_x5
<= 90.48246539649881

a1_local_8: 
+0.62146601471376839 a1_x6
+0.60662518643990138 a1_x2
+0.49576796561752667 a1_x4
<= 107.83159953146192

a1_act_1: 
+0.0099995000374968751 a1_x1
-0.99995000374968757 a1_z1
<= 0

a1_act_2: 
+0.0099995000374968751 a1_x2
-0.99995000374968757 a1_z2
<= 0

a2_local_1: 
+0.44885746616390754 a2_x2
+0.61687916725815728 a2_x6
+0.64651919389280221 a2_x5
<= 56.772926322447425

a2_local_2: 
+0.4682361225787785 a2_x1
+0.54938211080138311 a2_x4
+0.69205074224641072 a2_x5
<= 118.71935989283288

a2_local_3: 
+0.77440698609889347 a2_x2
+0.5377854261600109 a2_x5
+0.33328764647241832 a2_x1
<= 103.86364945294805

a2_local_4: 
+0.414685421461433 a2_x6
+0.79588688361712889 a2_x4
+0.44113497901840465 a2_x5
<= 61.595230409636869

a2_local_5: 
+0.40401631066425492 a2_x5
+0.74862317746819773 a2_x3
+0.52567495553304 a2_x6
<= 86.736840247560025

a2_local_6: 
+0.65607633883902938 a2_x6
+0.45872831625651223 a2_x4
+0.59927637153490387 a2_x1
<= 90.216060324826742

a2_local_7: 
+0.56547167327310033 a2_x3
+0.5164528005730763 a2_x6
+0.64305387916250567 a2_x1
<= 80.627763816904022

a2_local_8: 
+0.56126493618842432 a2_x5
+0.56250289975453283 a2_x3
+0.60710144059551197 a2_x6
<= 120.39309652113239

a2_act_1: 
+0.0099995000374968734 a2_x1
-0.99995000374968745 a2_z1
<= 0

a2_act_2: 
+0.0099995000374968751 a2_x2
-0.99995000374968757 a2_z2
<= 0

a3_local_1: 
+0.68812236348274225 a3_x5
+0.46521836019664276 a3_x2
+0.5568298575066456 a3_x3
<= 66.223664011684193

a3_local_2: 
+0.66844458967972231 a3_x2
+0.43932232223429896 a3_x3
+0.60014808815372422 a3_x4
<= 86.58185835990453

a3_local_3: 
+0.20423213634675508 a3_x6
+0.41512212609055366 a3_x4
+0.35634676726288678 a3_x1
<= 66.949380429454294

a3_local_4: 
+0.63608518661876157 a3_x4
+0.71580316063459848 a3_x2
+0.28813446616067029 a3_x1
<= 80.742037538558151

a3_local_5: 
+0.31567127026281783 a3_x3
+0.61740789740806834 a3_x5
+0.72052698585743979 a3_x2
<= 81.793793350045235

a3_local_6: 
+0.63441264836813471 a3_x1
+0.57474358463614272 a3_x6
+0.51690463676593812 a3_x2
<= 78.331569061444355

a3_local_7: 
+0.54666872771579833 a3_x1
+0.7293196015744855 a3_x4
+0.41139545561032181 a3_x6
<= 57.594235780629909

a3_local_8: 
+0.74222403752031096 a3_x4
+0.35370848328944038 a3_x3
+0.56920452121898324 a3_x5
<= 105.84449907801232

a3_act_1: 
+0.0099995000374968734 a3_x1
-0.99995000374968745 a3_z1
<= 0

a3_act_2: 
+0.0099995000374968751 a3_x2
-0.99995000374968757 a3_z2
<= 0

a4_local_1: 
+0.65330116758955548 a4_x3
+0.49798456092255106 a4_x5
+0.57027095446717024 a4_x2
<= 109.99703619307682

a4_local_2: 
+0.76480237003958973 a4_x3
+0.35900619022984709 a4_x2
+0.53496905532794825 a4_x6
<= 56.991539039728167

a4_local_3: 
+0.38335425840995246 a4_x5
+0.59421481387365072 a4_x6
+0.70707019986141284 a4_x3
<= 98.662299008194367

a4_local_4: 
+0.57133602830775043 a4_x3
+0.53967723445066285 a4_x6
+0.61832323696688718 a4_x1
<= 117.54805813326774

a4_local_5: 
+0.67332326360099481 a4_x3
+0.69377176908360172 a4_x6
+0.25557095906286953 a4_x5
<= 83.856138928332868

a4_local_6: 
+0.49619066165061437 a4_x3
+0.51592854986444281 a4_x4
+0.69829260251380187 a4_x6
<= 100.26213658980782

a4_local_7: 
+0.82683901637165713 a4_x6
+0.73967074842631331 a4_x3
+1.0923054862122654 a4_x1
<= 179.89695630987413

a4_local_8: 
+0.33016800447811767 a4_x1
+0.75046547554304976 a4_x6
+0.57253005059724327 a4_x3
<= 87.543224718461687

a4_act_1: 
+0.0099995000374968751 a4_x1
-0.99995000374968757 a4_z1
<= 0

a4_act_2: 
+0.0099995000374968768 a4_x2
-0.99995000374968768 a4_z2
<= 0

coupling_1: 
+7.504719224983952e-07 a1_x1
+4.9801287258995819e-05 a2_x1
+0.004794126597800148 a3_x1
+0.99998780688698441 a4_x1
+0.00083664412749298914 short_1
-0.00083664412749298914 surp_1
= 50.706682166825658

coupling_2: 
+8.7155652008255774e-07 a1_x2
+4.1366927013730424e-05 a2_x2
+0.0042804558642086481 a3_x2
+0.99999031792298021 a4_x2
+0.00072112617108045763 short_2
-0.00072112617108045763 surp_2
= 23.899949821750404

coupling_3: 
+6.2168720433857154e-07 a1_x3
+0.00010411908532649471 a2_x3
+0.0051123034979611752 a3_x3
+0.99998627372785542 a4_x3
+0.0008080432082061183 short_3
-0.0008080432082061183 surp_3
= 60.443444374224406

bounds
  0 <= a1_x1 <= 100
  0 <= a1_x2 <= 100
  0 <= a1_x3 <= 100
  0 <= a1_x4 <= 100
  0 <= a1_x5 <= 100
  0 <= a1_x6 <= 100
  0 <= a2_x1 <= 100
  0 <= a2_x2 <= 100
  0 <= a2_x3 <= 100
  0 <= a2_x4 <= 100
  0 <= a2_x5 <= 100
  0 <= a2_x6 <= 100
  0 <= a3_x1 <= 100
  0 <= a3_x2 <= 100
  0 <= a3_x3 <= 100
  0 <= a3_x4 <= 100
  0 <= a3_x5 <= 100
  0 <= a3_x6 <= 100
  0 <= a4_x1 <= 100
  0 <= a4_x2 <= 100
  0 <= a4_x3 <= 100
  0 <= a4_x4 <= 100
  0 <= a4_x5 <= 100
  0 <= a4_x6 <= 100
  0 <= short_1 <= +inf
  0 <= surp_1 <= +inf
  0 <= short_2 <= +inf
  0 <= surp_2 <= +inf
  0 <= short_3 <= +inf
  0 <= surp_3 <= +inf
 0 <= a1_z1 <= 1
 0 <= a1_z2 <= 1
 0 <= a2_z1 <= 1
 0 <= a2_z2 <= 1
 0 <= a3_z1 <= 1
 0 <= a3_z2 <= 1
 0 <= a4_z1 <= 1
 0 <= a4_z2 <= 1

binary
  a1_z1
  a1_z2
  a2_z1
  a2_z2
  a3_z1
  a3_z2
  a4_z1
  a4_z2
end
