min
obj: 
  +3.043052453503527 a1_x1
  +8.5242104678500681 a1_x2
  +7.6930756521091874 a1_x3
  +6.9189962156082423 a1_x4
  +9.2097073421305335 a1_x5
  +1.6783613276554563 a1_x6
  +29.957301038510835 a1_z1
  +31.080729858907144 a1_z2
  +3.9982275243752419 a2_x1
  +4.0716566341487717 a2_x2
  +8.3479540678562252 a2_x3
  +4.8717105490747867 a2_x4
  +6.0061452108085005 a2_x5
  +2.7882654202354971 a2_x6
  +21.648290212377919 a2_z1
  +42.54057128991149 a2_z2
  +2.9928805955584821 a3_x1
  +5.5354110864277946 a3_x2
  +5.213896919227734 a3_x3
  +2.0650047465660801 a3_x4
  +6.4105355661416237 a3_x5
  +2.6598622040549174 a3_x6
  +31.217971703687525 a3_z1
  +44.913093336265895 a3_z2
  +1.3478391985630118 a4_x1
  +6.3176473690479504 a4_x2
  +9.9894359630934186 a4_x3
  +5.7054129264347031 a4_x4
  +4.4415295718065089 a4_x5
  +5.0613340194576661 a4_x6
  +15.238383211322466 a4_z1
  +39.666499040349478 a4_z2
  +1000000 short_1
  +1000000 surp_1
  +1000000 short_2
  +1000000 surp_2
  +1000000 short_3
  +1000000 surp_3

s.t.

a1_local_1: 
+0.32057420966845834 a1_x4
+0.39881655547319067 a1_x3
+0.85917258520971374 a1_x1
<= 98.060632019235271

a1_local_2: 
+0.71851210683700528 a1_x5
+0.43740103016539972 a1_x2
+0.54075936528080082 a1_x1
<= 66.230322801693319

a1_local_3: 
+0.44583703621762527 a1_x1
+0.63122774479384325 a1_x5
+0.63465019604437423 a1_x4
<= 98.355344486032962

a1_local_4: 
+0.67238242082710009 a1_x4
+0.50484375993973962 a1_x1
+0.54132675734032876 a1_x2
<= 72.263039171628819

a1_local_5: 
+0.41293992751723851 a1_x4
+0.84403856159986146 a1_x6
+0.3421688512920118 a1_x3
<= 109.63031681764571

a1_local_6: 
+0.45432171448337544 a1_x5
+0.77608570160407853 a1_x1
+0.4373588498185344 a1_x6
<= 90.231901379691848

a1_local_7: 
+0.62138382017165439 a1_x1
+0.65116963280946349 a1_x2
+0.43572956903986837 a1_x4
<= 97.324577902703425

a1_local_8: 
+0.66009330918955356 a1_x3
+0.70102273254504943 a1_x6
+0.26989618674271093 a1_x5
<= 83.622159165741266

a1_act_1: 
+0.0099995000374968751 a1_x1
-0.99995000374968745 a1_z1
<= 0

a1_act_2: 
+0.019614658831632568 a1_x2
-1.9614658831632568 a1_z2
<= 0

a2_local_1: 
+0.46725481970829102 a2_x5
+0.56948691451308953 a2_x3
+0.67628218049696809 a2_x6
<= 112.47481234761733

a2_local_2: 
+0.4683005803784383 a2_x4
+0.73025412611403573 a2_x3
+0.49741680481327116 a2_x6
<= 82.947938463106198

a2_local_3: 
+0.61266458497935927 a2_x3
+0.45877397385008212 a2_x1
+0.64355928027639631 a2_x2
<= 113.6491606360517

a2_local_4: 
+0.68560532977285071 a2_x4
+0.53137936056987289 a2_x5
+0.4975754283999701 a2_x1
<= 53.689308615720201

a2_local_5: 
+0.61830245895774449 a2_x1
+0.69392124773728792 a2_x6
+0.36901947263732876 a2_x2
<= 101.61313875768825

a2_local_6: 
+0.5909341882479634 a2_x1
+0.46771691553338895 a2_x5
+0.65729572650645851 a2_x3
<= 93.811356005131117

a2_local_7: 
+0.42953475260766755 a2_x3
+0.80579608405734904 a2_x6
+0.40766722608042893 a2_x1
<= 75.769273710694435

a2_local_8: 
+0.36140821265773371 a2_x4
+0.63378927037520971 a2_x1
+0.68388249325509243 a2_x6
<= 60.356386437449864

a2_act_1: 
+0.0081989731169978368 a2_x1
-0.81989731169978364 a2_z1
<= 0

a2_act_2: 
+0.0099995000374968734 a2_x2
-0.99995000374968745 a2_z2
<= 0

a3_local_1: 
+0.77587593470491301 a3_x4
+0.30046593902603058 a3_x2
+0.55474025762602031 a3_x5
<= 87.255291197984008

a3_local_2: 
+0.60028845242800899 a3_x1
+0.55355542155519699 a3_x6
+0.57726091947093916 a3_x3
<= 55.527369224169838

a3_local_3: 
+0.65803520434094132 a3_x2
+0.56043963372902372 a3_x6
+0.50288874196352173 a3_x5
<= 120.30235159497801

a3_local_4: 
+0.45456016235262342 a3_x1
+0.64967499502156922 a3_x5
+0.60934182496007983 a3_x4
<= 54.578123794802025

a3_local_5: 
+0.69562191725744771 a3_x4
+0.39214676980554591 a3_x2
+0.60193941486012403 a3_x6
<= 68.46122431187932

a3_local_6: 
+0.52530328897034662 a3_x5
+0.45420843915298609 a3_x2
+0.71954926752734905 a3_x1
<= 84.743753467089306

a3_local_7: 
+0.68508900262603034 a3_x2
+0.64609933940739328 a3_x4
+0.33646500872780316 a3_x5
<= 107.04916499438185

a3_local_8: 
+0.43533703839269516 a3_x3
+0.47280372398178389 a3_x5
+0.74038545815377244 a3_x6
<= 81.555464989263399

a3_act_1: 
+0.0099995000374968768 a3_x1
-0.99995000374968768 a3_z1
<= 0

a3_act_2: 
+0.0099995000374968751 a3_x2
-0.99995000374968757 a3_z2
<= 0

a4_local_1: 
+0.44906980633884042 a4_x6
+0.70565496272732198 a4_x2
+0.5480760737462439 a4_x1
<= 52.557536770630804

a4_local_2: 
+0.55870470512122905 a4_x1
+0.66882405949111434 a4_x6
+0.49043188102041924 a4_x5
<= 56.772112456633266

a4_local_3: 
+0.61234879185445101 a4_x6
+0.49429505297309517 a4_x3
+0.61701001427911961 a4_x2
<= 74.022542328070273

a4_local_4: 
+0.45184677256682371 a4_x4
+0.65485140171962775 a4_x6
+0.60580866268714229 a4_x2
<= 66.464620063352669

a4_local_5: 
+0.79505838499632686 a4_x5
+0.34511803577662192 a4_x6
+0.49877420325104893 a4_x1
<= 59.919732733307029

a4_local_6: 
+0.57336027796138378 a4_x5
+0.49287574501562104 a4_x1
+0.38775117758830552 a4_x2
<= 94.717872279468821

a4_local_7: 
+0.71020750681948652 a4_x4
+0.59154241136036001 a4_x2
+0.38168425801861361 a4_x5
<= 80.64105410242631

a4_local_8: 
+0.71280416022467408 a4_x3
+0.36265918395011687 a4_x1
+0.60032370056747941 a4_x2
<= 107.13320848834002

a4_act_1: 
+0.0099995000374968768 a4_x1
-0.99995000374968757 a4_z1
<= 0

a4_act_2: 
+0.0099995000374968751 a4_x2
-0.99995000374968757 a4_z2
<= 0

coupling_1: 
+1.3235684726014971e-06 a1_x1
+0.00018260638167602686 a2_x1
+0.011164375598535961 a3_x1
+0.99993583815433462 a4_x1
+0.0013496194353798236 short_1
-0.0013496194353798236 surp_1
= 57.806439709207531

coupling_2: 
+7.9882255025954216e-07 a1_x2
+9.783521648525976e-05 a2_x2
+0.004652580231061145 a3_x2
+0.99998861481159151 a4_x2
+0.000746381946549772 short_2
-0.000746381946549772 surp_2
= 71.810578637137169

coupling_3: 
+1.0372454153006756e-06 a1_x3
+5.8457542498139835e-05 a2_x3
+0.011034046575296377 a3_x3
+0.99993839229816706 a4_x3
+0.00085381671657085286 short_3
-0.00085381671657085286 surp_3
= 24.849720799303295

bounds
  0 <= a1_x1 <= 100
  0 <= a1_x2 <= 100
  0 <= a1_x3 <= 100
  0 <= a1_x4 <= 100
  0 <= a1_x5 <= 100
  0 <= a1_x6 <= 100
  0 <= a2_x1 <= 100
  0 <= a2_x2 <= 100
  0 <= a2_x3 <= 100
  0 <= a2_x4 <= 100
  0 <= a2_x5 <= 100
  0 <= a2_x6 <= 100
  0 <= a3_x1 <= 100
  0 <= a3_x2 <= 100
  0 <= a3_x3 <= 100
  0 <= a3_x4 <= 100
  0 <= a3_x5 <= 100
  0 <= a3_x6 <= 100
  0 <= a4_x1 <= 100
  0 <= a4_x2 <= 100
  0 <= a4_x3 <= 100
  0 <= a4_x4 <= 100
  0 <= a4_x5 <= 100
  0 <= a4_x6 <= 100
  0 <= short_1 <= +inf
  0 <= surp_1 <= +inf
  0 <= short_2 <= +inf
  0 <= surp_2 <= +inf
  0 <= short_3 <= +inf
  0 <= surp_3 <= +inf
 0 <= a1_z1 <= 1
 0 <= a1_z2 <= 1
 0 <= a2_z1 <= 1
 0 <= a2_z2 <= 1
 0 <= a3_z1 <= 1
 0 <= a3_z2 <= 1
 0 <= a4_z1 <= 1
 0 <= a4_z2 <= 1

binary
  a1_z1
  a1_z2
  a2_z1
  a2_z2
  a3_z1
  a3_z2
  a4_z1
  a4_z2
end
