min
obj: 
  +2.370294118728955 a1_x1
  +4.0871141162290519 a1_x2
  +7.6613663727576089 a1_x3
  +4.8999168943267346 a1_x4
  +9.1856075433138287 a1_x5
  +7.8055232956727103 a1_x6
  +17.430873114549655 a1_z1
  +23.402378726140935 a1_z2
  +7.7696749959897602 a2_x1
  +1.8033642153830525 a2_x2
  +9.5715816001394138 a2_x3
  +5.6582749389411147 a2_x4
  +2.4417372334426313 a2_x5
  +7.2729933705310286 a2_x6
  +31.321727314252385 a2_z1
  +17.358761230317288 a2_z2
  +2.3493759750782877 a3_x1
  +3.4440486133066264 a3_x2
  +8.9723629811002734 a3_x3
  +1.1828241076108115 a3_x4
  +8.9432908674835829 a3_x5
  +1.7190508218957756 a3_x6
  +16.001764697499688 a3_z1
  +34.61198408971174 a3_z2
  +6.5610669509273256 a4_x1
  +3.9905359855651432 a4_x2
  +4.1004087373899605 a4_x3
  +4.8874480478433391 a4_x4
  +2.9132673248674479 a4_x5
  +5.3684179760125765 a4_x6
  +43.700484803270278 a4_z1
  +7.0959851654145574 a4_z2
  +1000000 short_1
  +1000000 surp_1
  +1000000 short_2
  +1000000 surp_2
  +1000000 short_3
  +1000000 surp_3

s.t.

a1_local_1: 
+0.77241195716615829 a1_x3
+0.55510986696212827 a1_x2
+0.30859812706501172 a1_x1
<= 114.44416748198473

a1_local_2: 
+0.76791484251516673 a1_x6
+0.45663690431334675 a1_x3
+0.44920989778057013 a1_x2
<= 51.838027079838326

a1_local_3: 
+0.57353003939573333 a1_x4
+0.66341421880025575 a1_x3
+0.48056723588315409 a1_x6
<= 52.862756827297567

a1_local_4: 
+0.64081882809391288 a1_x5
+1.2101371064436703 a1_x3
+0.58246970166336487 a1_x6
<= 131.23135017643369

a1_local_5: 
+0.55119769666649032 a1_x3
+0.41735044904293245 a1_x5
+0.22101848813369857 a1_x4
<= 72.106980177197727

a1_local_6: 
+0.74094541606884634 a1_x3
+0.53463991929925514 a1_x1
+0.40639887684176712 a1_x6
<= 83.734928132956156

a1_local_7: 
+0.52339568222869326 a1_x6
+0.61423774093397809 a1_x1
+0.59056664097854683 a1_x4
<= 79.541278891571721

a1_local_8: 
+0.40881874508552429 a1_x3
+0.62272062132382811 a1_x2
+0.66714785575969793 a1_x4
<= 61.969700437706344

a1_act_1: 
+0.0099995000374968768 a1_x1
-0.99995000374968757 a1_z1
<= 0

a1_act_2: 
+0.0099995000374968768 a1_x2
-0.99995000374968757 a1_z2
<= 0

a2_local_1: 
+0.60791199623513248 a2_x3
+0.71091188389924798 a2_x2
+0.35362027397229145 a2_x1
<= 105.92391400569635

a2_local_2: 
+0.27298831903800402 a2_x6
+0.64549758915640554 a2_x2
+0.71330935789604866 a2_x1
<= 104.229228865457

a2_local_3: 
+0.46614415501724027 a2_x2
+0.77107279126206019 a2_x3
+0.43376995898586418 a2_x1
<= 93.242355106820014

a2_local_4: 
+0.55747467419237706 a2_x1
+0.53453374855096436 a2_x4
+0.63521308180338765 a2_x5
<= 97.956718183504918

a2_local_5: 
+0.34226725376765521 a2_x1
+0.51502778977282082 a2_x6
+0.46129867253637263 a2_x3
<= 40.806779256580974

a2_local_6: 
+0.45672210821443548 a2_x1
+0.37229940364563718 a2_x6
+0.80795920064893401 a2_x2
<= 79.820062261628081

a2_local_7: 
+0.55712484542162355 a2_x3
+0.50111201771719915 a2_x2
+0.66219230765188586 a2_x4
<= 70.751625411195818

a2_local_8: 
+0.69928387547025284 a2_x4
+0.36018019333233503 a2_x3
+0.61747250128113851 a2_x1
<= 101.37005601191338

a2_act_1: 
+0.0065671735624934805 a2_x1
-0.65671735624934802 a2_z1
<= 0

a2_act_2: 
+0.0099995000374968768 a2_x2
-0.99995000374968757 a2_z2
<= 0

a3_local_1: 
+0.46731663203920332 a3_x5
+0.31402123127994841 a3_x4
+0.82644166867659874 a3_x2
<= 72.167649080712309

a3_local_2: 
+0.6236432264172822 a3_x4
+0.45102014007742142 a3_x5
+0.63847471319417637 a3_x3
<= 86.233261316244381

a3_local_3: 
+0.61873482797448953 a3_x4
+0.32757898195559443 a3_x3
+0.71404427259961634 a3_x6
<= 70.380977330587385

a3_local_4: 
+0.5156199130326562 a3_x4
+0.54327962890760972 a3_x5
+0.66255818619816786 a3_x2
<= 94.768203938537766

a3_local_5: 
+0.72715879570718156 a3_x4
+0.28550485592540154 a3_x6
+0.62428123715894046 a3_x5
<= 67.364338951685255

a3_local_6: 
+0.56936091402592692 a3_x1
+0.54563177164048948 a3_x5
+0.61490984652713276 a3_x3
<= 57.308230221214529

a3_local_7: 
+0.53565463193328733 a3_x6
+0.41952980869997958 a3_x4
+0.73284981742548949 a3_x1
<= 63.639564450695786

a3_local_8: 
+0.68674676701610371 a3_x4
+0.33557359090746153 a3_x2
+0.6448017083401697 a3_x1
<= 105.44400300835248

a3_act_1: 
+0.0099995000374968751 a3_x1
-0.99995000374968745 a3_z1
<= 0

a3_act_2: 
+0.0078713682942155375 a3_x2
-0.78713682942155372 a3_z2
<= 0

a4_local_1: 
+0.53699798738911919 a4_x5
+0.67419212866122302 a4_x2
+0.50704845448071745 a4_x1
<= 114.95931583434506

a4_local_2: 
+0.61966013127884101 a4_x4
+0.33982951438988568 a4_x2
+0.70748655312523345 a4_x6
<= 104.06051717473623

a4_local_3: 
+0.6934140828770986 a4_x1
+0.49508363420821422 a4_x3
+0.52351609794437026 a4_x6
<= 84.80991781402912

a4_local_4: 
+0.50648080789037353 a4_x3
+0.66772172345937819 a4_x4
+0.54555008134831418 a4_x1
<= 103.81404019922493

a4_local_5: 
+0.65010965356042638 a4_x6
+0.67162516863435417 a4_x3
+0.35535485251283355 a4_x4
<= 80.222776749962634

a4_local_6: 
+0.38576832624855317 a4_x5
+0.82625073302251495 a4_x4
+0.41047840947258929 a4_x2
<= 90.857914565919657

a4_local_7: 
+0.68481414059526791 a4_x6
+0.49666124622017876 a4_x2
+0.53325153477864828 a4_x4
<= 116.05198771488718

a4_local_8: 
+0.39801599426753953 a4_x6
+0.65454914870586733 a4_x2
+0.64276642743351686 a4_x1
<= 61.266852530882502

a4_act_1: 
+0.0099995000374968768 a4_x1
-0.99995000374968768 a4_z1
<= 0

a4_act_2: 
+0.0099995000374968734 a4_x2
-0.99995000374968745 a4_z2
<= 0

coupling_1: 
+4.5904925519467154e-07 a1_x1
+7.4505312319332416e-05 a2_x1
+0.0065104607024211412 a3_x1
+0.724809202305707 a4_x1
+0.0005379965990882083 short_1
-0.0005379965990882083 surp_1
= 15.311625329931427

coupling_2: 
+7.4139835538591411e-07 a1_x2
+0.00010797476439062043 a2_x2
+0.0092608164875251 a3_x2
+0.99995651519652018 a4_x2
+0.00077244252742802923 short_2
-0.00077244252742802923 surp_2
= 79.269592191755535

coupling_3: 
+5.1146539061478458e-07 a1_x3
+5.4897212012586306e-05 a2_x3
+0.011072253759569972 a3_x3
+0.99993798616698348 a4_x3
+0.00084439417205087631 short_3
-0.00084439417205087631 surp_3
= 56.205895336845394

bounds
  0 <= a1_x1 <= 100
  0 <= a1_x2 <= 100
  0 <= a1_x3 <= 100
  0 <= a1_x4 <= 100
  0 <= a1_x5 <= 100
  0 <= a1_x6 <= 100
  0 <= a2_x1 <= 100
  0 <= a2_x2 <= 100
  0 <= a2_x3 <= 100
  0 <= a2_x4 <= 100
  0 <= a2_x5 <= 100
  0 <= a2_x6 <= 100
  0 <= a3_x1 <= 100
  0 <= a3_x2 <= 100
  0 <= a3_x3 <= 100
  0 <= a3_x4 <= 100
  0 <= a3_x5 <= 100
  0 <= a3_x6 <= 100
  0 <= a4_x1 <= 100
  0 <= a4_x2 <= 100
  0 <= a4_x3 <= 100
  0 <= a4_x4 <= 100
  0 <= a4_x5 <= 100
  0 <= a4_x6 <= 100
  0 <= short_1 <= +inf
  0 <= surp_1 <= +inf
  0 <= short_2 <= +inf
  0 <= surp_2 <= +inf
  0 <= short_3 <= +inf
  0 <= surp_3 <= +inf
 0 <= a1_z1 <= 1
 0 <= a1_z2 <= 1
 0 <= a2_z1 <= 1
 0 <= a2_z2 <= 1
 0 <= a3_z1 <= 1
 0 <= a3_z2 <= 1
 0 <= a4_z1 <= 1
 0 <= a4_z2 <= 1

binary
  a1_z1
  a1_z2
  a2_z1
  a2_z2
  a3_z1
  a3_z2
  a4_z1
  a4_z2
end
