min
obj: 
  +1.5770974257819579 a1_x1
  +5.2436233239928463 a1_x2
  +8.0695966456126804 a1_x3
  +3.4781022885686368 a1_x4
  +9.412058306823841 a1_x5
  +8.3165688602967034 a1_x6
  +34.001400959855452 a1_z1
  +10.410503430419741 a1_z2
  +6.4773554290647395 a2_x1
  +9.5833935756226563 a2_x2
  +2.026827474230366 a2_x3
  +2.5146383338919818 a2_x4
  +5.9719159164755045 a2_x5
  +2.1752834405324757 a2_x6
  +46.820939487606068 a2_z1
  +31.119838842287344 a2_z2
  +4.2898026117145012 a3_x1
  +6.2971939246586208 a3_x2
  +7.0812452369118279 a3_x3
  +4.947199835085236 a3_x4
  +8.0650994710678727 a3_x5
  +5.8436848317688934 a3_x6
  +45.408472421232204 a3_z1
  +47.685437857449642 a3_z2
  +7.6745490131872192 a4_x1
  +9.5447276615633179 a4_x2
  +6.4685946234911675 a4_x3
  +6.1047180091187832 a4_x4
  +9.0091726197219533 a4_x5
  +9.2042443028710519 a4_x6
  +10.38795682780167 a4_z1
  +22.655186795949191 a4_z2
  +1000000 short_1
  +1000000 surp_1
  +1000000 short_2
  +1000000 surp_2
  +1000000 short_3
  +1000000 surp_3

s.t.

a1_local_1: 
+0.64098504467401418 a1_x1
+0.65529248652179228 a1_x6
+0.39966226943800792 a1_x5
<= 89.211705947332462

a1_local_2: 
+0.51791392364174604 a1_x5
+0.28563217064578794 a1_x4
+0.80633704540358742 a1_x1
<= 50.322073711188985

a1_local_3: 
+0.51223022241792826 a1_x2
+0.73143990408782489 a1_x3
+0.450128721533822 a1_x5
<= 66.633648216849224

a1_local_4: 
+0.75099222928415799 a1_x2
+0.60024298270744092 a1_x4
+0.27517091645972552 a1_x1
<= 81.776269246822181

a1_local_5: 
+0.60736785680026173 a1_x1
+0.38691354606789713 a1_x3
+0.69383153170998368 a1_x2
<= 65.536819901998811

a1_local_6: 
+0.68877257932184777 a1_x3
+0.55054256056530115 a1_x4
+0.47169399294514086 a1_x2
<= 71.82848145598814

a1_local_7: 
+0.68498350042745682 a1_x1
+0.42723759969205399 a1_x4
+0.59014035411207089 a1_x3
<= 94.356666920411811

a1_local_8: 
+0.6741717186608206 a1_x3
+0.43427756292491182 a1_x2
+0.59740730837336986 a1_x5
<= 77.952730850940952

a1_act_1: 
+0.0099995000374968751 a1_x1
-0.99995000374968745 a1_z1
<= 0

a1_act_2: 
+0.0099995000374968751 a1_x2
-0.99995000374968745 a1_z2
<= 0

a2_local_1: 
+0.37970817769907894 a2_x3
+0.65412474007995325 a2_x6
+0.65417316071799991 a2_x4
<= 93.787528340673319

a2_local_2: 
+0.7006339560331758 a2_x6
+0.28979465704822427 a2_x4
+0.65202079445336991 a2_x2
<= 88.256257294672722

a2_local_3: 
+0.40755672572156981 a2_x4
+0.58260213990676446 a2_x5
+0.70318721681723706 a2_x2
<= 76.545453412864134

a2_local_4: 
+0.5832745751592584 a2_x6
+0.66254764057874038 a2_x5
+0.46991636908744827 a2_x1
<= 57.065110315807999

a2_local_5: 
+0.84973289704978339 a2_x6
+0.85933583192992846 a2_x5
+0.81304898779583756 a2_x2
<= 99.313295888986261

a2_local_6: 
+0.58187193742023713 a2_x1
+0.40253090843513067 a2_x6
+0.70667808526740672 a2_x3
<= 86.713491760519616

a2_local_7: 
+0.46567618922908599 a2_x2
+0.51535388704713025 a2_x4
+0.71941369036910197 a2_x5
<= 89.579951195159268

a2_local_8: 
+0.52642759393292127 a2_x4
+0.53709654009455499 a2_x3
+0.65909126451839239 a2_x2
<= 55.479085899036377

a2_act_1: 
+0.0099995000374968768 a2_x1
-0.99995000374968757 a2_z1
<= 0

a2_act_2: 
+0.0099995000374968768 a2_x2
-0.99995000374968757 a2_z2
<= 0

a3_local_1: 
+0.56881157551933192 a3_x3
+0.50127803366394641 a3_x4
+0.65205346753255056 a3_x2
<= 95.68272442571859

a3_local_2: 
+0.42426419607962779 a3_x3
+0.51108656922784357 a3_x4
+0.74752284960382309 a3_x6
<= 110.03949284654107

a3_local_3: 
+0.47237822426315718 a3_x2
+0.75340605349799239 a3_x3
+0.45742554781578004 a3_x5
<= 63.350653673085212

a3_local_4: 
+0.34215662763724686 a3_x2
+0.5606760510960489 a3_x5
+0.49396146296362747 a3_x3
<= 73.326257503758569

a3_local_5: 
+0.64737635948030336 a3_x2
+0.31855893998348123 a3_x5
+0.6924045428379495 a3_x3
<= 103.62177211983263

a3_local_6: 
+0.6123311649222285 a3_x5
+0.52548391379954906 a3_x6
+0.59069213707556223 a3_x1
<= 91.197085493310368

a3_local_7: 
+0.55063473608792679 a3_x3
+0.63630490896256409 a3_x5
+0.54029385545601227 a3_x2
<= 101.64888186630587

a3_local_8: 
+0.47824837657156016 a3_x5
+0.73030910514649916 a3_x3
+0.48777771704618372 a3_x2
<= 94.479189735362993

a3_act_1: 
+0.0099995000374968751 a3_x1
-0.99995000374968745 a3_z1
<= 0

a3_act_2: 
+0.0099995000374968751 a3_x2
-0.99995000374968745 a3_z2
<= 0

a4_local_1: 
+0.55640978656014128 a4_x6
+0.62055276295368045 a4_x1
+0.55255987712704135 a4_x3
<= 64.605374431390544

a4_local_2: 
+0.44669998527998561 a4_x2
+0.74503452376760715 a4_x4
+0.49536116273405534 a4_x6
<= 94.781281557065896

a4_local_3: 
+0.51349915663727086 a4_x3
+0.38979958032837603 a4_x2
+0.76444417932811393 a4_x1
<= 50.34364624994263

a4_local_4: 
+0.41970762564987546 a4_x3
+0.63316057931486336 a4_x5
+0.65034851408534078 a4_x2
<= 104.7402331077023

a4_local_5: 
+0.60681403829028902 a4_x3
+0.62586769129634812 a4_x2
+0.48996566810870612 a4_x1
<= 95.007778408741984

a4_local_6: 
+0.71250079101605179 a4_x5
+0.26011860558008487 a4_x1
+0.65167548199435343 a4_x6
<= 77.254308084356197

a4_local_7: 
+0.7064308417807228 a4_x6
+0.38107978459008401 a4_x3
+0.59643412340153279 a4_x2
<= 112.45344225473657

a4_local_8: 
+0.42816950302948492 a4_x2
+0.50767791381381555 a4_x6
+0.7476188952274655 a4_x5
<= 85.465063888660453

a4_act_1: 
+0.0099995000374968751 a4_x1
-0.99995000374968757 a4_z1
<= 0

a4_act_2: 
+0.0099995000374968768 a4_x2
-0.99995000374968768 a4_z2
<= 0

coupling_1: 
+7.1090750048589372e-07 a1_x1
+0.00010560724515441143 a2_x1
+0.009282465333383158 a3_x1
+0.9999564042038851 a4_x1
+0.00071217117854582618 short_1
-0.00071217117854582618 surp_1
= 74.440616096114184

coupling_2: 
+8.0848514685759394e-07 a1_x2
+6.7039536856690525e-05 a2_x2
+0.010840015894885776 a3_x2
+0.99994045029091128 a4_x2
+0.00089034612796318538 short_2
-0.00089034612796318538 surp_2
= 36.412981058638252

coupling_3: 
+1.4518702485909475e-06 a1_x3
+9.5988156904887957e-05 a2_x3
+0.0077080767091264974 a3_x3
+0.99996891995114356 a4_x3
+0.0011695018930090789 short_3
-0.0011695018930090789 surp_3
= 58.825679135461947

bounds
  0 <= a1_x1 <= 100
  0 <= a1_x2 <= 100
  0 <= a1_x3 <= 100
  0 <= a1_x4 <= 100
  0 <= a1_x5 <= 100
  0 <= a1_x6 <= 100
  0 <= a2_x1 <= 100
  0 <= a2_x2 <= 100
  0 <= a2_x3 <= 100
  0 <= a2_x4 <= 100
  0 <= a2_x5 <= 100
  0 <= a2_x6 <= 100
  0 <= a3_x1 <= 100
  0 <= a3_x2 <= 100
  0 <= a3_x3 <= 100
  0 <= a3_x4 <= 100
  0 <= a3_x5 <= 100
  0 <= a3_x6 <= 100
  0 <= a4_x1 <= 100
  0 <= a4_x2 <= 100
  0 <= a4_x3 <= 100
  0 <= a4_x4 <= 100
  0 <= a4_x5 <= 100
  0 <= a4_x6 <= 100
  0 <= short_1 <= +inf
  0 <= surp_1 <= +inf
  0 <= short_2 <= +inf
  0 <= surp_2 <= +inf
  0 <= short_3 <= +inf
  0 <= surp_3 <= +inf
 0 <= a1_z1 <= 1
 0 <= a1_z2 <= 1
 0 <= a2_z1 <= 1
 0 <= a2_z2 <= 1
 0 <= a3_z1 <= 1
 0 <= a3_z2 <= 1
 0 <= a4_z1 <= 1
 0 <= a4_z2 <= 1

binary
  a1_z1
  a1_z2
  a2_z1
  a2_z2
  a3_z1
  a3_z2
  a4_z1
  a4_z2
end
