min
obj: 
  +7.7820756929973847 a1_x1
  +2.6204029212029933 a1_x2
  +1.0229393332967094 a1_x3
  +7.1910932224071349 a1_x4
  +4.2632745770435907 a1_x5
  +6.0246265469097295 a1_x6
  +42.771027111197313 a1_z1
  +28.114118371176183 a1_z2
  +5.7911212590182997 a2_x1
  +5.4348931719458209 a2_x2
  +9.4259627235885386 a2_x3
  +8.9213052519907556 a2_x4
  +6.1484548986939966 a2_x5
  +2.146409388681831 a2_x6
  +31.660946131309107 a2_z1
  +6.9899613369063101 a2_z2
  +2.8186252614454075 a3_x1
  +1.3641205917884647 a3_x2
  +2.33366974601915 a3_x3
  +2.4556775991065138 a3_x4
  +5.2278265061317715 a3_x5
  +6.6696189442115292 a3_x6
  +49.857919593613119 a3_z1
  +30.640944798186169 a3_z2
  +7.0994894146457632 a4_x1
  +9.5674915626052641 a4_x2
  +9.235478138695818 a4_x3
  +8.9478139676632793 a4_x4
  +7.4338997063934436 a4_x5
  +1.7960169742966061 a4_x6
  +7.4304140982629434 a4_z1
  +14.530204301669533 a4_z2
  +1000000 short_1
  +1000000 surp_1
  +1000000 short_2
  +1000000 surp_2
  +1000000 short_3
  +1000000 surp_3

s.t.

a1_local_1: 
+0.9548144481537173 a1_x4
+1.4670520101606459 a1_x6
+0.68163909191637828 a1_x3
<= 155.13401229239369

a1_local_2: 
+1.1824451720521525 a1_x6
+0.82897500109521438 a1_x5
+1.2063089944556027 a1_x4
<= 170.49549231429987

a1_local_3: 
+0.84399922378939274 a1_x4
+1.1135715961720818 a1_x2
+1.1848352128929625 a1_x3
<= 182.28287274367645

a1_local_4: 
+1.1975852348650664 a1_x4
+0.79737307360439291 a1_x5
+1.2541180949084043 a1_x2
<= 165.56496412971393

a1_local_5: 
+0.64105595642665647 a1_x2
+1.5599262279289197 a1_x5
+0.76083161689006562 a1_x4
<= 163.84833182052029

a1_local_6: 
+1.2140382859411916 a1_x2
+1.4000314034686907 a1_x3
+0.71426969246719707 a1_x1
<= 180.40879876585035

a1_local_7: 
+0.69192169838644424 a1_x5
+1.4452502390544937 a1_x2
+0.69543377360441838 a1_x6
<= 155.42965006168424

a1_local_8: 
+0.38982050289274633 a1_x5
+0.69546091574024271 a1_x1
+0.50602461741944615 a1_x6
<= 97.777521451666061

a1_act_1: 
+0.10000000000000001 a1_x1
-10 a1_z1
<= 0

a1_act_2: 
+0.10000000000000001 a1_x2
-10 a1_z2
<= 0

a2_local_1: 
+0.8184863766049435 a2_x6
+1.221767433867341 a2_x4
+1.2154331263151805 a2_x3
<= 204.87207512168263

a2_local_2: 
+0.80233495990818871 a2_x5
+1.1124895167973279 a2_x4
+1.6713602618622228 a2_x6
<= 162.70696936810424

a2_local_3: 
+1.0532959261414334 a2_x4
+0.71248261481990205 a2_x5
+1.4035430187342541 a2_x3
<= 98.180901444866578

a2_local_4: 
+0.59713733734977448 a2_x5
+0.58967684947922938 a2_x6
+1.6958440896622378 a2_x4
<= 107.69926469648065

a2_local_5: 
+1.1345909253241842 a2_x4
+0.70649130278326999 a2_x2
+1.415445591559914 a2_x3
<= 155.09729143014263

a2_local_6: 
+1.0636136801527973 a2_x5
+0.94019099101502857 a2_x4
+0.96862832615074579 a2_x3
<= 112.47033348010348

a2_local_7: 
+0.78957405229364686 a2_x1
+1.2665056521235509 a2_x6
+0.846166899810463 a2_x4
<= 202.65654554515498

a2_local_8: 
+1.2653284711531627 a2_x4
+1.1752342671408833 a2_x3
+0.79030862167247784 a2_x5
<= 123.81545050246359

a2_act_1: 
+0.10000000000000001 a2_x1
-10 a2_z1
<= 0

a2_act_2: 
+0.099999999999999992 a2_x2
-10 a2_z2
<= 0

a3_local_1: 
+0.80844359286331824 a3_x6
+1.2369446784261515 a3_x2
+1.0188631600672824 a3_x1
<= 204.64372175502467

a3_local_2: 
+1.3391728214548215 a3_x1
+0.90098794126553783 a3_x6
+0.74672961098003898 a3_x2
<= 204.88397048040218

a3_local_3: 
+0.64630509300298711 a3_x6
+1.5472568773264768 a3_x5
+0.72827656365187821 a3_x3
<= 154.92913101766192

a3_local_4: 
+1.4071386132875516 a3_x2
+0.6474898109328332 a3_x6
+1.5444258475037755 a3_x4
<= 152.65356573725973

a3_local_5: 
+0.91630918724395705 a3_x1
+1.221865868726842 a3_x5
+0.81842043844139645 a3_x3
<= 146.56411160261013

a3_local_6: 
+0.92875587504695545 a3_x5
+1.099396123360727 a3_x2
+0.90959025482381695 a3_x3
<= 151.38065309516904

a3_local_7: 
+1.0138618376477764 a3_x2
+0.82907016165493708 a3_x3
+1.2061705344742644 a3_x1
<= 162.83873564298565

a3_local_8: 
+1.4666685794256691 a3_x6
+0.6818172926235242 a3_x1
+1.1942425993688564 a3_x2
<= 152.06286997383432

a3_act_1: 
+0.10000000000000001 a3_x1
-10 a3_z1
<= 0

a3_act_2: 
+0.099999999999999992 a3_x2
-9.9999999999999982 a3_z2
<= 0

a4_local_1: 
+0.65971910537090339 a4_x1
+1.5157966350508918 a4_x6
+0.79997380034740884 a4_x5
<= 187.95088660008861

a4_local_2: 
+1.4504425956802329 a4_x2
+0.68944472740819984 a4_x5
+1.3521735840301223 a4_x4
<= 234.77362469678141

a4_local_3: 
+1.4773854475192854 a4_x6
+1.1491747582597776 a4_x2
+0.67687142964561131 a4_x5
<= 192.3783277310468

a4_local_4: 
+1.2527509216987598 a4_x6
+0.76093814043862729 a4_x3
+1.3141672717621571 a4_x4
<= 210.72092658622998

a4_local_5: 
+0.75743099510792988 a4_x5
+0.77052448154442177 a4_x2
+1.32025228233168 a4_x3
<= 114.11962287470969

a4_local_6: 
+1.0702570922715986 a4_x1
+0.9126966617635297 a4_x5
+1.0956542758333103 a4_x4
<= 169.76876378249821

a4_local_7: 
+0.72070036033487961 a4_x6
+1.3875391980314 a4_x3
+1.1487276495385796 a4_x2
<= 195.82711204348269

a4_local_8: 
+0.89093688456836273 a4_x3
+1.4117995056388479 a4_x6
+0.70831587346922464 a4_x4
<= 108.52129951996039

a4_act_1: 
+0.10000000000000001 a4_x1
-10 a4_z1
<= 0

a4_act_2: 
+0.099999999999999992 a4_x2
-10 a4_z2
<= 0

coupling_1: 
+1.515424353962448e-06 a1_x1
+0.00018952688519248686 a2_x1
+0.015253738925548337 a3_x1
+0.99988126924794263 a4_x1
+0.0015386573981419813 short_1
-0.0015386573981419813 surp_1
= 71.899028286270195

coupling_2: 
+1.4153419142999086e-06 a1_x2
+0.00012582006156409487 a2_x2
+0.013234958287230219 a3_x2
+0.99991137969555499 a4_x2
+0.0010131144495003849 short_2
-0.0010131144495003849 surp_2
= 28.374141191651972

coupling_3: 
+2.2424264385144877e-06 a1_x3
+0.00015784840449232121 a2_x3
+0.010120747799089662 a3_x3
+0.99994509336106319 a4_x3
+0.0019177859596535111 short_3
-0.0019177859596535111 surp_3
= 22.656716512441985

bounds
  0 <= a1_x1 <= 100
  0 <= a1_x2 <= 100
  0 <= a1_x3 <= 100
  0 <= a1_x4 <= 100
  0 <= a1_x5 <= 100
  0 <= a1_x6 <= 100
  0 <= a2_x1 <= 100
  0 <= a2_x2 <= 100
  0 <= a2_x3 <= 100
  0 <= a2_x4 <= 100
  0 <= a2_x5 <= 100
  0 <= a2_x6 <= 100
  0 <= a3_x1 <= 100
  0 <= a3_x2 <= 100
  0 <= a3_x3 <= 100
  0 <= a3_x4 <= 100
  0 <= a3_x5 <= 100
  0 <= a3_x6 <= 100
  0 <= a4_x1 <= 100
  0 <= a4_x2 <= 100
  0 <= a4_x3 <= 100
  0 <= a4_x4 <= 100
  0 <= a4_x5 <= 100
  0 <= a4_x6 <= 100
  0 <= short_1 <= +inf
  0 <= surp_1 <= +inf
  0 <= short_2 <= +inf
  0 <= surp_2 <= +inf
  0 <= short_3 <= +inf
  0 <= surp_3 <= +inf
 0 <= a1_z1 <= 1
 0 <= a1_z2 <= 1
 0 <= a2_z1 <= 1
 0 <= a2_z2 <= 1
 0 <= a3_z1 <= 1
 0 <= a3_z2 <= 1
 0 <= a4_z1 <= 1
 0 <= a4_z2 <= 1

binary
  a1_z1
  a1_z2
  a2_z1
  a2_z2
  a3_z1
  a3_z2
  a4_z1
  a4_z2
end
