min
obj: 
  +2.8670230128866887 a1_x1
  +4.6121734767481746 a1_x2
  +8.3726653944305163 a1_x3
  +3.8874111784256438 a1_x4
  +3.5735214707131471 a1_x5
  +7.9063268225890937 a1_x6
  +32.521673256282952 a1_z1
  +46.9551209495583 a1_z2
  +1.341622492975389 a2_x1
  +5.0417707846324316 a2_x2
  +1.1098914253226899 a2_x3
  +7.5349912767704339 a2_x4
  +4.7451420176434915 a2_x5
  +4.9227196469025021 a2_x6
  +7.3717597202086891 a2_z1
  +32.23919956008293 a2_z2
  +7.1988333719011539 a3_x1
  +9.6965932883206509 a3_x2
  +2.6814504435085222 a3_x3
  +4.7418198986047297 a3_x4
  +5.4039251046059666 a3_x5
  +9.8502537099383343 a3_x6
  +17.992052798317559 a3_z1
  +28.73085531973274 a3_z2
  +5.3817190254650331 a4_x1
  +3.7297540390479749 a4_x2
  +6.6577904747627379 a4_x3
  +5.4304281417402382 a4_x4
  +9.7175944926778737 a4_x5
  +8.0479454867151716 a4_x6
  +7.8471654550187315 a4_z1
  +24.374477793367895 a4_z2
  +1000000 short_1
  +1000000 surp_1
  +1000000 short_2
  +1000000 surp_2
  +1000000 short_3
  +1000000 surp_3

s.t.

a1_local_1: 
+1.3386872415872288 a1_x3
+2.3501782505991722 a1_x1
+2.0881698515348814 a1_x2
<= 347.43406102466253

a1_local_2: 
+175.52206151784407 a1_x4
+131.82816352106838 a1_x6
+121.25902242423658 a1_x2
<= 16060.194077310014

a1_local_3: 
+2.3563246447661701 a1_x3
+1.1087821194069221 a1_x4
+1.1813743206225522 a1_x1
<= 303.22773016481307

a1_local_4: 
+8.6082561607620693 a1_x3
+7.8316571779659121 a1_x6
+21.158515338901122 a1_x1
<= 2060.1987613432034

a1_local_5: 
+2.5903384381490375e-07 a1_x5
+3.744965129160706e-07 a1_x1
+3.5170914685580465e-07 a1_x3
<= 5.0248599271894435e-05

a1_local_6: 
+1.5950711928100308e-06 a1_x6
+1.2864612939764087e-06 a1_x3
+1.1931984445932476e-06 a1_x1
<= 0.00018618040444497814

a1_local_7: 
+6.0662129471237218 a1_x4
+8.2880131156628281 a1_x3
+7.5741918989269177 a1_x6
<= 759.27882460293233

a1_local_8: 
+0.0073519710577199596 a1_x6
+0.0090736141033577102 a1_x3
+0.0071205411002393379 a1_x2
<= 0.86556567666013551

a1_act_1: 
+0.063506231441481889 a1_x1
-6.3506231441481891 a1_z1
<= 0

a1_act_2: 
+5.7390541622052778e-06 a1_x2
-0.00057390541622052776 a1_z2
<= 0

a2_local_1: 
+103.02534243229002 a2_x3
+160.40079652297803 a2_x1
+133.15289280374503 a2_x4
<= 17928.266580459087

a2_local_2: 
+266.33368954383388 a2_x3
+166.6763395433598 a2_x4
+193.138907354054 a2_x1
<= 40740.040129511057

a2_local_3: 
+0.00013585040222314956 a2_x2
+0.00018931077750977739 a2_x5
+0.00025181104795170511 a2_x6
<= 0.035276792778551336

a2_local_4: 
+0.62853123172490022 a2_x3
+0.55342687175379035 a2_x4
+0.43282394898127574 a2_x2
<= 97.174014534878808

a2_local_5: 
+3.0165086592078931 a2_x3
+4.6187493447814525 a2_x5
+5.6613773508825878 a2_x6
<= 831.96565058072133

a2_local_6: 
+0.0068231312513297032 a2_x2
+0.015888053220701359 a2_x5
+0.0084673961806609379 a2_x1
<= 2.0939646732946247

a2_local_7: 
+2.2760127687519343 a2_x6
+3.6091546557458365 a2_x2
+2.4425375871778696 a2_x5
<= 405.62082527787891

a2_local_8: 
+3.5741442080550082e-07 a2_x2
+4.7944479769152881e-07 a2_x4
+3.321710482520637e-07 a2_x6
<= 7.6541158286871902e-05

a2_act_1: 
+0.00015924100584423323 a2_x1
-0.015924100584423322 a2_z1
<= 0

a2_act_2: 
+141.53641529112923 a2_x2
-14153.641529112923 a2_z2
<= 0

a3_local_1: 
+0.41998925080838451 a3_x6
+0.57591080814200102 a3_x2
+0.42273053004043171 a3_x1
<= 72.663036723475599

a3_local_2: 
+0.0002512506867464999 a3_x3
+0.00017239004533024538 a3_x1
+0.00020038194972672353 a3_x4
<= 0.035974946344225774

a3_local_3: 
+125.99275752313223 a3_x4
+101.84302435881833 a3_x1
+149.11095108638213 a3_x6
<= 21967.921006163189

a3_local_4: 
+171.95000245364426 a3_x1
+173.10598912542932 a3_x3
+121.80498950565324 a3_x5
<= 17125.128225681419

a3_local_5: 
+32.45466433375644 a3_x5
+68.898111682383629 a3_x4
+90.561968616008443 a3_x6
<= 8280.3939273680135

a3_local_6: 
+170.15877574108183 a3_x2
+281.23483193515318 a3_x3
+288.98958445373205 a3_x6
<= 39585.217575305258

a3_local_7: 
+441519.69375480461 a3_x4
+255925.20147068123 a3_x1
+528397.79114749213 a3_x2
<= 65833279.826891109

a3_local_8: 
+418.94108933892079 a3_x2
+197.2314886527073 a3_x1
+308.64425954688721 a3_x5
<= 30266.294975493765

a3_act_1: 
+5.4943514238174656 a3_x1
-549.43514238174657 a3_z1
<= 0

a3_act_2: 
+2.99900848563669e-05 a3_x2
-0.0029990084856366902 a3_z2
<= 0

a4_local_1: 
+185104.90455986813 a4_x1
+330871.73469083779 a4_x4
+248470.80319649182 a4_x3
<= 30634654.364003532

a4_local_2: 
+4486.3547140157452 a4_x1
+3239.5307074938314 a4_x6
+3341.3413505695057 a4_x3
<= 519228.29571456957

a4_local_3: 
+2.5010444241700687 a4_x2
+1.5773384429865931 a4_x5
+3.4176884019018847 a4_x1
<= 427.21373998145197

a4_local_4: 
+0.012779038165148585 a4_x5
+0.013205537189219893 a4_x4
+0.019417581887777015 a4_x3
<= 1.9625378270278244

a4_local_5: 
+38347527.797719948 a4_x1
+69504076.538341418 a4_x4
+80351813.854516134 a4_x2
<= 7620861103.5831566

a4_local_6: 
+9227.2642223428793 a4_x4
+10959.813535196703 a4_x2
+6004.8795164958483 a4_x6
<= 1334775.9441366778

a4_local_7: 
+13443.252784282493 a4_x2
+14348.039505130284 a4_x1
+17309.322846801871 a4_x3
<= 2171180.0102528804

a4_local_8: 
+634.02651545482161 a4_x1
+395.61113695614375 a4_x2
+721.97721287301454 a4_x5
<= 114145.60981105613

a4_act_1: 
+0.12433034612835597 a4_x1
-12.433034612835597 a4_z1
<= 0

a4_act_2: 
+0.00043403942169190475 a4_x2
-0.043403942169190475 a4_z2
<= 0

coupling_1: 
+224.63815101029735 a1_x1
+18697.310282092207 a2_x1
+1836575.519917181 a3_x1
+185907496.44168681 a4_x1
+152254.62414554431 short_1
-152254.62414554431 surp_1
= 4700297184.7576904

coupling_2: 
+0.0013682463775455251 a1_x2
+0.16275104974956656 a2_x2
+22.938583120871836 a3_x2
+1553.3998262592413 a4_x2
+2.0398728667816162 short_2
-2.0398728667816162 surp_2
= 35772.649504383611

coupling_3: 
+0.028019056582718076 a1_x3
+2.7161785775234457 a2_x3
+203.82438062206492 a3_x3
+12396.747726796168 a4_x3
+19.066499677447126 short_3
-19.066499677447126 surp_3
= 259498.28824453967

bounds
  0 <= a1_x1 <= 100
  0 <= a1_x2 <= 100
  0 <= a1_x3 <= 100
  0 <= a1_x4 <= 100
  0 <= a1_x5 <= 100
  0 <= a1_x6 <= 100
  0 <= a2_x1 <= 100
  0 <= a2_x2 <= 100
  0 <= a2_x3 <= 100
  0 <= a2_x4 <= 100
  0 <= a2_x5 <= 100
  0 <= a2_x6 <= 100
  0 <= a3_x1 <= 100
  0 <= a3_x2 <= 100
  0 <= a3_x3 <= 100
  0 <= a3_x4 <= 100
  0 <= a3_x5 <= 100
  0 <= a3_x6 <= 100
  0 <= a4_x1 <= 100
  0 <= a4_x2 <= 100
  0 <= a4_x3 <= 100
  0 <= a4_x4 <= 100
  0 <= a4_x5 <= 100
  0 <= a4_x6 <= 100
  0 <= short_1 <= +inf
  0 <= surp_1 <= +inf
  0 <= short_2 <= +inf
  0 <= surp_2 <= +inf
  0 <= short_3 <= +inf
  0 <= surp_3 <= +inf
 0 <= a1_z1 <= 1
 0 <= a1_z2 <= 1
 0 <= a2_z1 <= 1
 0 <= a2_z2 <= 1
 0 <= a3_z1 <= 1
 0 <= a3_z2 <= 1
 0 <= a4_z1 <= 1
 0 <= a4_z2 <= 1

binary
  a1_z1
  a1_z2
  a2_z1
  a2_z2
  a3_z1
  a3_z2
  a4_z1
  a4_z2
end
