min
obj: 
  +7.7820756929973847 a1_x1
  +2.6204029212029933 a1_x2
  +1.0229393332967094 a1_x3
  +7.1910932224071349 a1_x4
  +4.2632745770435907 a1_x5
  +6.0246265469097295 a1_x6
  +42.771027111197313 a1_z1
  +28.114118371176183 a1_z2
  +5.7911212590182997 a2_x1
  +5.4348931719458209 a2_x2
  +9.4259627235885386 a2_x3
  +8.9213052519907556 a2_x4
  +6.1484548986939966 a2_x5
  +2.146409388681831 a2_x6
  +31.660946131309107 a2_z1
  +6.9899613369063101 a2_z2
  +2.8186252614454075 a3_x1
  +1.3641205917884647 a3_x2
  +2.33366974601915 a3_x3
  +2.4556775991065138 a3_x4
  +5.2278265061317715 a3_x5
  +6.6696189442115292 a3_x6
  +49.857919593613119 a3_z1
  +30.640944798186169 a3_z2
  +7.0994894146457632 a4_x1
  +9.5674915626052641 a4_x2
  +9.235478138695818 a4_x3
  +8.9478139676632793 a4_x4
  +7.4338997063934436 a4_x5
  +1.7960169742966061 a4_x6
  +7.4304140982629434 a4_z1
  +14.530204301669533 a4_z2
  +1000000 short_1
  +1000000 surp_1
  +1000000 short_2
  +1000000 surp_2
  +1000000 short_3
  +1000000 surp_3

s.t.

a1_local_1: 
+0.95481444815371719 a1_x4
+1.4670520101606459 a1_x6
+0.68163909191637817 a1_x3
<= 155.13401229239369

a1_local_2: 
+1.182445172052152 a1_x6
+0.82897500109521438 a1_x5
+1.2063089944556025 a1_x4
<= 170.49549231429984

a1_local_3: 
+0.84399922378939263 a1_x4
+1.1135715961720816 a1_x2
+1.1848352128929622 a1_x3
<= 182.28287274367645

a1_local_4: 
+1.1975852348650664 a1_x4
+0.79737307360439291 a1_x5
+1.2541180949084043 a1_x2
<= 165.56496412971393

a1_local_5: 
+0.64105595642665647 a1_x2
+1.5599262279289199 a1_x5
+0.76083161689006573 a1_x4
<= 163.84833182052031

a1_local_6: 
+1.2140382859411916 a1_x2
+1.4000314034686907 a1_x3
+0.71426969246719696 a1_x1
<= 180.40879876585032

a1_local_7: 
+0.69192169838644446 a1_x5
+1.4452502390544939 a1_x2
+0.69543377360441849 a1_x6
<= 155.4296500616843

a1_local_8: 
+0.74867955695314992 a1_x5
+1.3356849278343215 a1_x1
+0.97185828750832404 a1_x6
<= 187.78907445140598

a1_act_1: 
+0.099999999999999992 a1_x1
-9.9999999999999982 a1_z1
<= 0

a1_act_2: 
+0.10000000000000001 a1_x2
-10 a1_z2
<= 0

a2_local_1: 
+0.8184863766049435 a2_x6
+1.221767433867341 a2_x4
+1.2154331263151805 a2_x3
<= 204.8720751216826

a2_local_2: 
+0.6928557442246619 a2_x5
+0.96068947586547815 a2_x4
+1.4433018825860306 a2_x6
<= 140.50547961287529

a2_local_3: 
+1.0532959261414332 a2_x4
+0.71248261481990205 a2_x5
+1.4035430187342541 a2_x3
<= 98.180901444866592

a2_local_4: 
+0.59713733734977448 a2_x5
+0.58967684947922927 a2_x6
+1.6958440896622375 a2_x4
<= 107.69926469648065

a2_local_5: 
+0.685038454639052 a2_x4
+0.42656229613003216 a2_x2
+0.85461168340546245 a2_x3
<= 93.643979048792133

a2_local_6: 
+1.0636136801527973 a2_x5
+0.94019099101502834 a2_x4
+0.96862832615074557 a2_x3
<= 112.47033348010345

a2_local_7: 
+0.78957405229364686 a2_x1
+1.2665056521235512 a2_x6
+0.846166899810463 a2_x4
<= 202.65654554515501

a2_local_8: 
+1.2653284711531629 a2_x4
+1.1752342671408835 a2_x3
+0.79030862167247795 a2_x5
<= 123.81545050246362

a2_act_1: 
+0.099999999999999992 a2_x1
-10 a2_z1
<= 0

a2_act_2: 
+0.099999999999999992 a2_x2
-10 a2_z2
<= 0

a3_local_1: 
+0.80844359286331824 a3_x6
+1.2369446784261517 a3_x2
+1.0188631600672824 a3_x1
<= 204.64372175502464

a3_local_2: 
+1.3391728214548215 a3_x1
+0.90098794126553783 a3_x6
+0.74672961098003909 a3_x2
<= 204.88397048040221

a3_local_3: 
+1.1740260321315328 a3_x6
+2.8106228343885782 a3_x5
+1.3229288358936859 a3_x3
<= 281.43184220491878

a3_local_4: 
+1.4071386132875514 a3_x2
+0.64748981093283309 a3_x6
+1.5444258475037753 a3_x4
<= 152.6535657372597

a3_local_5: 
+0.91630918724395716 a3_x1
+1.2218658687268422 a3_x5
+0.81842043844139645 a3_x3
<= 146.56411160261013

a3_local_6: 
+0.92875587504695545 a3_x5
+1.099396123360727 a3_x2
+0.90959025482381695 a3_x3
<= 151.38065309516907

a3_local_7: 
+1.0138618376477766 a3_x2
+0.82907016165493708 a3_x3
+1.2061705344742646 a3_x1
<= 162.83873564298565

a3_local_8: 
+1.4666685794256693 a3_x6
+0.6818172926235242 a3_x1
+1.1942425993688566 a3_x2
<= 152.06286997383435

a3_act_1: 
+0.10000000000000001 a3_x1
-10 a3_z1
<= 0

a3_act_2: 
+0.10000000000000001 a3_x2
-10 a3_z2
<= 0

a4_local_1: 
+0.65971910537090339 a4_x1
+1.5157966350508918 a4_x6
+0.79997380034740884 a4_x5
<= 187.95088660008864

a4_local_2: 
+1.4504425956802327 a4_x2
+0.68944472740819984 a4_x5
+1.3521735840301223 a4_x4
<= 234.77362469678135

a4_local_3: 
+1.4773854475192854 a4_x6
+1.1491747582597778 a4_x2
+0.67687142964561142 a4_x5
<= 192.37832773104682

a4_local_4: 
+1.2527509216987598 a4_x6
+0.76093814043862729 a4_x3
+1.3141672717621573 a4_x4
<= 210.72092658622998

a4_local_5: 
+0.75743099510792988 a4_x5
+0.77052448154442177 a4_x2
+1.32025228233168 a4_x3
<= 114.11962287470971

a4_local_6: 
+1.0702570922715984 a4_x1
+0.9126966617635297 a4_x5
+1.0956542758333103 a4_x4
<= 169.76876378249821

a4_local_7: 
+0.72070036033487961 a4_x6
+1.3875391980314 a4_x3
+1.1487276495385796 a4_x2
<= 195.82711204348271

a4_local_8: 
+0.89093688456836284 a4_x3
+1.4117995056388479 a4_x6
+0.70831587346922453 a4_x4
<= 108.52129951996039

a4_act_1: 
+0.10000000000000001 a4_x1
-10 a4_z1
<= 0

a4_act_2: 
+0.10000000000000001 a4_x2
-10 a4_z2
<= 0

coupling_1: 
+0.0012310988192672191 a1_x1
+0.15396764871158072 a2_x1
+12.391816148098087 a3_x1
+812.28247834339152 a4_x1
+1.249972854901277 short_1
-1.249972854901277 surp_1
= 58409.25586172875

coupling_2: 
+0.0011897341524255338 a1_x2
+0.10576414277756442 a2_x2
+11.125284795959606 a3_x2
+840.52390860704543 a4_x2
+0.85162238799563517 short_2
-0.85162238799563517 surp_2
= 23851.257763499885

coupling_3: 
+0.0012349391554591644 a1_x3
+0.086929574137316473 a2_x3
+5.5736533983708796 a3_x3
+550.68533258950345 a4_x3
+1.0561545889259496 short_3
-1.0561545889259496 surp_3
= 12477.406560497097

bounds
  0 <= a1_x1 <= 100
  0 <= a1_x2 <= 100
  0 <= a1_x3 <= 100
  0 <= a1_x4 <= 100
  0 <= a1_x5 <= 100
  0 <= a1_x6 <= 100
  0 <= a2_x1 <= 100
  0 <= a2_x2 <= 100
  0 <= a2_x3 <= 100
  0 <= a2_x4 <= 100
  0 <= a2_x5 <= 100
  0 <= a2_x6 <= 100
  0 <= a3_x1 <= 100
  0 <= a3_x2 <= 100
  0 <= a3_x3 <= 100
  0 <= a3_x4 <= 100
  0 <= a3_x5 <= 100
  0 <= a3_x6 <= 100
  0 <= a4_x1 <= 100
  0 <= a4_x2 <= 100
  0 <= a4_x3 <= 100
  0 <= a4_x4 <= 100
  0 <= a4_x5 <= 100
  0 <= a4_x6 <= 100
  0 <= short_1 <= +inf
  0 <= surp_1 <= +inf
  0 <= short_2 <= +inf
  0 <= surp_2 <= +inf
  0 <= short_3 <= +inf
  0 <= surp_3 <= +inf
 0 <= a1_z1 <= 1
 0 <= a1_z2 <= 1
 0 <= a2_z1 <= 1
 0 <= a2_z2 <= 1
 0 <= a3_z1 <= 1
 0 <= a3_z2 <= 1
 0 <= a4_z1 <= 1
 0 <= a4_z2 <= 1

binary
  a1_z1
  a1_z2
  a2_z1
  a2_z2
  a3_z1
  a3_z2
  a4_z1
  a4_z2
end
