min
obj: 
  +1.5869078218103445 a1_x1
  +1.8591431952918778 a1_x2
  +3.3231109040519993 a1_x3
  +9.2087059181463786 a1_x4
  +9.6203246603591985 a1_x5
  +2.6522167369866532 a1_x6
  +45.971215901918207 a1_z1
  +15.231591264695247 a1_z2
  +7.3851642913844699 a2_x1
  +8.184615433312981 a2_x2
  +6.3286902635835114 a2_x3
  +1.720840343178456 a2_x4
  +2.5195780412124975 a2_x5
  +8.1969421632275719 a2_x6
  +32.909722818284479 a2_z1
  +29.006081337850453 a2_z2
  +9.6251817518945995 a3_x1
  +3.9009418953480735 a3_x2
  +1.3219510135661245 a3_x3
  +4.7485775019531236 a3_x4
  +3.5558983548633152 a3_x5
  +8.1243659823807501 a3_x6
  +20.822115549059351 a3_z1
  +25.222874624514855 a3_z2
  +3.9740281273618923 a4_x1
  +5.8725760658506196 a4_x2
  +8.5449306619724936 a4_x3
  +7.8945369096479574 a4_x4
  +2.7042977066829055 a4_x5
  +9.2622687133164359 a4_x6
  +13.310232891557296 a4_z1
  +27.542990425232677 a4_z2
  +1000000 short_1
  +1000000 surp_1
  +1000000 short_2
  +1000000 surp_2
  +1000000 short_3
  +1000000 surp_3

s.t.

a1_local_1: 
+4.9415753771742035e-06 a1_x4
+6.4046812528856687e-06 a1_x1
+4.5484815318282057e-06 a1_x3
<= 0.00070468566612602915

a1_local_2: 
+0.092429768641700299 a1_x2
+0.062828860628994884 a1_x4
+0.071668967494412567 a1_x3
<= 15.281183597940188

a1_local_3: 
+1.7514583968055795e-06 a1_x6
+3.5115185415354434e-06 a1_x4
+2.0974260403371259e-06 a1_x1
<= 0.00031786789135015422

a1_local_4: 
+2.2862101089172873e-05 a1_x6
+2.0318393823300544e-05 a1_x2
+1.8713366153100714e-05 a1_x1
<= 0.0024246964930533348

a1_local_5: 
+0.00011647055162815125 a1_x1
+0.00016969015783308832 a1_x2
+0.00019734320551971816 a1_x5
<= 0.025235460273031297

a1_local_6: 
+2.2335188253172264e-06 a1_x1
+3.533999418775162e-06 a1_x2
+3.146379433886353e-06 a1_x6
<= 0.00032326777798489929

a1_local_7: 
+1.520043497281267e-06 a1_x5
+3.2336470691119305e-06 a1_x2
+2.7855431030129817e-06 a1_x4
<= 0.00049942198330512374

a1_local_8: 
+1.5256550584030991e-05 a1_x1
+1.0749674283466432e-05 a1_x2
+1.5012168257176486e-05 a1_x3
<= 0.0025701343530888047

a1_act_1: 
+8.9514992083703593 a1_x1
-895.14992083703589 a1_z1
<= 0

a1_act_2: 
+21.19826434477331 a1_x2
-2119.8264344773311 a1_z2
<= 0

a2_local_1: 
+0.24792846551420999 a2_x1
+0.63101896579301975 a2_x5
+0.37804780958388268 a2_x3
<= 67.28692938756403

a2_local_2: 
+0.27663207421369351 a2_x4
+0.65373268083756764 a2_x2
+0.53352991591368026 a2_x5
<= 66.991548826047861

a2_local_3: 
+0.026257368460531602 a2_x2
+0.023360776184752869 a2_x1
+0.02133910739842847 a2_x5
<= 2.3583732122805774

a2_local_4: 
+0.0085347481701670471 a2_x6
+0.0058221301337590811 a2_x2
+0.0086009766785891169 a2_x4
<= 1.0725922018542773

a2_local_5: 
+0.0010780523281195158 a2_x1
+0.0019527613249714951 a2_x6
+0.0017011020651206963 a2_x2
<= 0.22431420005963079

a2_local_6: 
+0.59168379616070732 a2_x4
+0.619874212765261 a2_x6
+0.57007871762431406 a2_x5
<= 93.424163906640487

a2_local_7: 
+0.45177316437931558 a2_x4
+0.31177802693303136 a2_x6
+0.6052643612623726 a2_x3
<= 84.210297667911135

a2_local_8: 
+0.00020416230568974915 a2_x5
+0.00017798942856643904 a2_x1
+0.00013624347975161767 a2_x4
<= 0.033771565627589269

a2_act_1: 
+0.65264814334906707 a2_x1
-65.264814334906703 a2_z1
<= 0

a2_act_2: 
+20.898288642579875 a2_x2
-2089.8288642579873 a2_z2
<= 0

a3_local_1: 
+0.36554576178837733 a3_x3
+0.42386759466282453 a3_x5
+0.18825210633589823 a3_x4
<= 33.873065397564908

a3_local_2: 
+1254.3066977222695 a3_x3
+1394.5367027910077 a3_x5
+941.66295909170367 a3_x2
<= 182843.49189471622

a3_local_3: 
+215.22773690385532 a3_x5
+274.58666173474973 a3_x6
+306.20197469987124 a3_x2
<= 39933.11637394852

a3_local_4: 
+1.3154777720472985 a3_x4
+1.150785931492802 a3_x3
+0.55391563952994038 a3_x1
<= 131.88004542216606

a3_local_5: 
+0.15842291736363359 a3_x1
+0.1348180545114597 a3_x4
+0.073307974719456409 a3_x5
<= 21.029875509939671

a3_local_6: 
+0.023401928539301221 a3_x5
+0.042488922736473617 a3_x4
+0.033036466827652537 a3_x6
<= 4.0010370407976499

a3_local_7: 
+295.86199430452774 a3_x5
+227.07222008985568 a3_x4
+265.11141407259362 a3_x2
<= 47842.469786658236

a3_local_8: 
+452.78869368030826 a3_x6
+206.9040482608462 a3_x2
+343.04905734923449 a3_x3
<= 54712.351358504347

a3_act_1: 
+0.0055031354937043996 a3_x1
-0.55031354937043997 a3_z1
<= 0

a3_act_2: 
+357.96792309383454 a3_x2
-35796.792309383454 a3_z2
<= 0

a4_local_1: 
+3.2759595817054064 a4_x3
+2.7465605418401831 a4_x2
+4.4270675371125714 a4_x4
<= 618.50567096709233

a4_local_2: 
+1879.5722809870404 a4_x5
+951.38231826284414 a4_x4
+1993.2667367380061 a4_x1
<= 193567.29222606428

a4_local_3: 
+449.24375032635749 a4_x3
+543.91894330757839 a4_x2
+594.86377226680406 a4_x6
<= 91042.714528314435

a4_local_4: 
+174749.38574043466 a4_x1
+206836.27767453596 a4_x6
+199065.00559167986 a4_x5
<= 26824720.852648254

a4_local_5: 
+420.12257417325515 a4_x1
+465.36600570182657 a4_x2
+395.83492753809622 a4_x6
<= 50404.098810093674

a4_local_6: 
+1153.8416155273055 a4_x6
+3389.6645644098094 a4_x3
+1932.6325116276157 a4_x5
<= 265593.01635544165

a4_local_7: 
+123.26789977579537 a4_x1
+129.42295363307363 a4_x4
+179.88030293915597 a4_x5
<= 13928.781604235388

a4_local_8: 
+2.9222802585820138 a4_x5
+2.5746241706096145 a4_x1
+3.9557214141718355 a4_x6
<= 539.35018367545956

a4_act_1: 
+182.44207332917603 a4_x1
-18244.207332917602 a4_z1
<= 0

a4_act_2: 
+91.098046211945132 a4_x2
-9109.8046211945129 a4_z2
<= 0

coupling_1: 
+0.0014206713219505817 a1_x1
+0.096196861663616365 a2_x1
+6.9313776203654429 a3_x1
+1363.6815645053625 a4_x1
+0.9669061135007514 short_1
-0.9669061135007514 surp_1
= 81472.362854111794

coupling_2: 
+0.095063749748486262 a1_x2
+4.6299502657971718 a2_x2
+1152.4934005805062 a3_x2
+72504.752305950489 a4_x2
+84.080693403938184 short_2
-84.080693403938184 surp_2
= 5725759.0405747844

coupling_3: 
+1.1876709685365632e-06 a1_x3
+0.00010533723826393831 a2_x3
+0.021556232723087054 a3_x3
+1.5316870558218862 a4_x3
+0.0018022163461375836 short_3
-0.0018022163461375836 surp_3
= 79.189638004452291

bounds
  0 <= a1_x1 <= 100
  0 <= a1_x2 <= 100
  0 <= a1_x3 <= 100
  0 <= a1_x4 <= 100
  0 <= a1_x5 <= 100
  0 <= a1_x6 <= 100
  0 <= a2_x1 <= 100
  0 <= a2_x2 <= 100
  0 <= a2_x3 <= 100
  0 <= a2_x4 <= 100
  0 <= a2_x5 <= 100
  0 <= a2_x6 <= 100
  0 <= a3_x1 <= 100
  0 <= a3_x2 <= 100
  0 <= a3_x3 <= 100
  0 <= a3_x4 <= 100
  0 <= a3_x5 <= 100
  0 <= a3_x6 <= 100
  0 <= a4_x1 <= 100
  0 <= a4_x2 <= 100
  0 <= a4_x3 <= 100
  0 <= a4_x4 <= 100
  0 <= a4_x5 <= 100
  0 <= a4_x6 <= 100
  0 <= short_1 <= +inf
  0 <= surp_1 <= +inf
  0 <= short_2 <= +inf
  0 <= surp_2 <= +inf
  0 <= short_3 <= +inf
  0 <= surp_3 <= +inf
 0 <= a1_z1 <= 1
 0 <= a1_z2 <= 1
 0 <= a2_z1 <= 1
 0 <= a2_z2 <= 1
 0 <= a3_z1 <= 1
 0 <= a3_z2 <= 1
 0 <= a4_z1 <= 1
 0 <= a4_z2 <= 1

binary
  a1_z1
  a1_z2
  a2_z1
  a2_z2
  a3_z1
  a3_z2
  a4_z1
  a4_z2
end
