min
obj: 
  +4.0092711480649195 a1_x1
  +1.9679731558453351 a1_x2
  +5.1245063990813229 a1_x3
  +5.3289660462088069 a1_x4
  +7.7326436197250805 a1_x5
  +5.1395422066191525 a1_x6
  +7.4601303692563201 a1_z1
  +49.872667351617643 a1_z2
  +9.3684343534405965 a2_x1
  +1.0573707236444929 a2_x2
  +6.6071911877442115 a2_x3
  +2.1574642417771144 a2_x4
  +4.0288495580936399 a2_x5
  +6.5816021448275457 a2_x6
  +37.186317612242192 a2_z1
  +14.569927030673126 a2_z2
  +7.5771846442232071 a3_x1
  +6.3254671996139473 a3_x2
  +1.3182946718516668 a3_x3
  +2.4508427443497842 a3_x4
  +7.5821505201430535 a3_x5
  +8.0396019839617026 a3_x6
  +34.570982164584187 a3_z1
  +17.019236119633661 a3_z2
  +9.6576292080467585 a4_x1
  +1.0103892115093069 a4_x2
  +8.2624531172852755 a4_x3
  +1.8717492610420641 a4_x4
  +5.7231033614351237 a4_x5
  +2.0382344427317065 a4_x6
  +33.41705432517788 a4_z1
  +11.211459891146486 a4_z2
  +1000000 short_1
  +1000000 surp_1
  +1000000 short_2
  +1000000 surp_2
  +1000000 short_3
  +1000000 surp_3

s.t.

a1_local_1: 
+0.81484865006639706 a1_x3
+0.34618784076617559 a1_x6
+0.55081002916895927 a1_x4
<= 64.708723034614579

a1_local_2: 
+0.82850689794525345 a1_x4
+0.45899830670512554 a1_x6
+0.32077542689389565 a1_x2
<= 91.172631314095725

a1_local_3: 
+0.46417792727740476 a1_x6
+0.7849940732266838 a1_x4
+0.41027205221344576 a1_x1
<= 105.35088881600053

a1_local_4: 
+0.53665171784237475 a1_x2
+0.63353613472461745 a1_x5
+0.62227563456439949 a1_x3
<= 120.98501045269663

a1_local_5: 
+0.78788977519871017 a1_x1
+0.3573227263475382 a1_x4
+0.50154777576307563 a1_x2
<= 112.7125212207136

a1_local_6: 
+0.65598510136492894 a1_x1
+0.67245144267999746 a1_x3
+0.34277194171173625 a1_x6
<= 104.32958719544152

a1_local_7: 
+0.70076781639280994 a1_x2
+1.1302460369355531 a1_x5
+0.89271659226711952 a1_x4
<= 151.5182919171599

a1_local_8: 
+0.51093370724646558 a1_x4
+0.79654162038621512 a1_x5
+0.32321539844488512 a1_x6
<= 84.492687710359391

a1_act_1: 
+0.0099995000374968751 a1_x1
-0.99995000374968745 a1_z1
<= 0

a1_act_2: 
+0.019957419963247 a1_x2
-1.9957419963247001 a1_z2
<= 0

a2_local_1: 
+0.38210255802832649 a2_x4
+0.72087130775669539 a2_x2
+0.57822330703748126 a2_x6
<= 97.01455258836441

a2_local_2: 
+0.95011035691327472 a2_x1
+1.3109961337953542 a2_x4
+0.8376307991786297 a2_x5
<= 199.04132269337796

a2_local_3: 
+0.52461682870637993 a2_x4
+0.38778363135704452 a2_x5
+0.75789249784491519 a2_x3
<= 106.70841600536654

a2_local_4: 
+0.64829000143276161 a2_x2
+0.43879281768829254 a2_x1
+0.62223864970562448 a2_x5
<= 78.142518947871721

a2_local_5: 
+0.60093396416614819 a2_x2
+0.37891042526939894 a2_x3
+0.70377926961066539 a2_x6
<= 94.924375496616051

a2_local_6: 
+0.59465521118310694 a2_x6
+0.42678360136503857 a2_x5
+0.68135228583946394 a2_x2
<= 94.872889539348137

a2_local_7: 
+0.49411300730548158 a2_x2
+0.33720292569426186 a2_x5
+0.35645761095818285 a2_x6
<= 79.195778261146927

a2_local_8: 
+0.67651343220211591 a2_x2
+0.55603899934844991 a2_x4
+0.48285630083254316 a2_x5
<= 113.90943495750732

a2_act_1: 
+0.0099995000374968751 a2_x1
-0.99995000374968757 a2_z1
<= 0

a2_act_2: 
+0.0099995000374968734 a2_x2
-0.99995000374968734 a2_z2
<= 0

a3_local_1: 
+0.49468250114607065 a3_x1
+0.41145761448933232 a3_x2
+0.7655010480323432 a3_x6
<= 75.497628679798225

a3_local_2: 
+0.46662846550291309 a3_x2
+0.38557347806034403 a3_x1
+0.7959842763515157 a3_x6
<= 70.957978463933387

a3_local_3: 
+0.49835127935034829 a3_x1
+0.38496605246954752 a3_x5
+0.77681860225916632 a3_x2
<= 85.990269209633823

a3_local_4: 
+0.43162885350286867 a3_x4
+0.65674618696769393 a3_x6
+0.61836961336016005 a3_x5
<= 109.59483677186165

a3_local_5: 
+0.30927732583720291 a3_x4
+0.45424024095148546 a3_x1
+0.30164031307114336 a3_x5
<= 34.663743351171533

a3_local_6: 
+0.79391229039661282 a3_x5
+0.45027480819936783 a3_x6
+0.40860234000581419 a3_x1
<= 97.407676860916041

a3_local_7: 
+0.46854196695973072 a3_x6
+0.57841122714162541 a3_x1
+0.66776408821830635 a3_x4
<= 107.56668345962115

a3_local_8: 
+0.43026423891893589 a3_x3
+0.55207984558105172 a3_x1
+0.35316040245004049 a3_x6
<= 54.40103564886742

a3_act_1: 
+0.0099995000374968751 a3_x1
-0.99995000374968757 a3_z1
<= 0

a3_act_2: 
+0.011341287366947634 a3_x2
-1.1341287366947634 a3_z2
<= 0

a4_local_1: 
+0.51419106913609913 a4_x3
+0.49951346644504346 a4_x2
+0.69720430381684528 a4_x5
<= 101.95027777521909

a4_local_2: 
+0.31264890934173256 a4_x2
+0.61642671719781394 a4_x5
+0.72268164623999653 a4_x3
<= 114.27848648297955

a4_local_3: 
+0.83160858398989945 a4_x4
+0.38857517482686521 a4_x5
+0.39678268175738912 a4_x2
<= 54.81103429013362

a4_local_4: 
+0.60294574131329626 a4_x5
+0.61426306685376231 a4_x3
+0.50905531893063438 a4_x1
<= 57.122532333124894

a4_local_5: 
+0.50491806736059974 a4_x5
+0.77040214169723154 a4_x6
+0.38927918685842389 a4_x1
<= 89.357969154022541

a4_local_6: 
+0.80582327724305713 a4_x3
+0.36422630603993728 a4_x2
+0.46689189738285364 a4_x1
<= 80.286419394187391

a4_local_7: 
+0.42261030873506084 a4_x1
+0.37320564837512726 a4_x2
+0.82590439578183461 a4_x3
<= 99.069870058505714

a4_local_8: 
+0.60604053711379935 a4_x3
+0.43312868347014027 a4_x1
+0.66716895231286089 a4_x4
<= 98.074137744266281

a4_act_1: 
+0.0099995000374968751 a4_x1
-0.99995000374968745 a4_z1
<= 0

a4_act_2: 
+0.0099995000374968734 a4_x2
-0.99995000374968734 a4_z2
<= 0

coupling_1: 
+1.9031231010503721e-06 a1_x1
+0.00024426752562400081 a2_x1
+0.024708223847952578 a3_x1
+0.99969183177095211 a4_x1
+0.0016860448499005662 short_1
-0.0016860448499005662 surp_1
= 57.941761328362517

coupling_2: 
+8.6047382565832087e-07 a1_x2
+7.8772204881252044e-05 a2_x2
+0.0064460259625284209 a3_x2
+0.99997808738301552 a4_x2
+0.001064729377784598 short_2
-0.001064729377784598 surp_2
= 55.281482256782674

coupling_3: 
+9.2883421003352907e-07 a1_x3
+6.1862995638687854e-05 a2_x3
+0.0088552202415633444 a3_x3
+0.99995942969399121 a4_x3
+0.0011662359642184879 short_3
-0.0011662359642184879 surp_3
= 22.014834859487138

bounds
  0 <= a1_x1 <= 100
  0 <= a1_x2 <= 100
  0 <= a1_x3 <= 100
  0 <= a1_x4 <= 100
  0 <= a1_x5 <= 100
  0 <= a1_x6 <= 100
  0 <= a2_x1 <= 100
  0 <= a2_x2 <= 100
  0 <= a2_x3 <= 100
  0 <= a2_x4 <= 100
  0 <= a2_x5 <= 100
  0 <= a2_x6 <= 100
  0 <= a3_x1 <= 100
  0 <= a3_x2 <= 100
  0 <= a3_x3 <= 100
  0 <= a3_x4 <= 100
  0 <= a3_x5 <= 100
  0 <= a3_x6 <= 100
  0 <= a4_x1 <= 100
  0 <= a4_x2 <= 100
  0 <= a4_x3 <= 100
  0 <= a4_x4 <= 100
  0 <= a4_x5 <= 100
  0 <= a4_x6 <= 100
  0 <= short_1 <= +inf
  0 <= surp_1 <= +inf
  0 <= short_2 <= +inf
  0 <= surp_2 <= +inf
  0 <= short_3 <= +inf
  0 <= surp_3 <= +inf
 0 <= a1_z1 <= 1
 0 <= a1_z2 <= 1
 0 <= a2_z1 <= 1
 0 <= a2_z2 <= 1
 0 <= a3_z1 <= 1
 0 <= a3_z2 <= 1
 0 <= a4_z1 <= 1
 0 <= a4_z2 <= 1

binary
  a1_z1
  a1_z2
  a2_z1
  a2_z2
  a3_z1
  a3_z2
  a4_z1
  a4_z2
end
