min
obj: 
  +4.6820518769511636 a1_x1
  +5.7129162548306427 a1_x2
  +9.0056358908477314 a1_x3
  +9.0172471176233611 a1_x4
  +9.406385688684578 a1_x5
  +5.7753562095118767 a1_x6
  +36.440798325108226 a1_z1
  +20.355895911925103 a1_z2
  +9.8523773325997031 a2_x1
  +8.6665660995193221 a2_x2
  +1.318348960475541 a2_x3
  +8.2691943978607085 a2_x4
  +6.0635318483155114 a2_x5
  +3.2631581910354219 a2_x6
  +31.015799445658949 a2_z1
  +42.142738976131909 a2_z2
  +3.407000856972263 a3_x1
  +9.4188250932667614 a3_x2
  +9.7490010795163791 a3_x3
  +7.0450820339939781 a3_x4
  +9.9763761898407548 a3_x5
  +5.8473553548384958 a3_x6
  +49.073547744148975 a3_z1
  +13.999141819476126 a3_z2
  +1.9143138950663818 a4_x1
  +6.1042201720531999 a4_x2
  +2.2574896326389386 a4_x3
  +5.6594666769891386 a4_x4
  +4.3520497618016583 a4_x5
  +6.7823412192640848 a4_x6
  +29.956754589694771 a4_z1
  +32.972144993024642 a4_z2
  +1000000 short_1
  +1000000 surp_1
  +1000000 short_2
  +1000000 surp_2
  +1000000 short_3
  +1000000 surp_3

s.t.

a1_local_1: 
+1.3623945454214454 a1_x4
+1.1147100401026737 a1_x2
+0.7340017642911647 a1_x6
<= 140.8764437183722

a1_local_2: 
+1.4953012733070601 a1_x3
+0.66876155183655095 a1_x4
+1.3475799601647835 a1_x5
<= 147.51684959336774

a1_local_3: 
+0.75418227837105534 a1_x1
+1.3259394030842011 a1_x3
+0.99171137006251375 a1_x6
<= 159.95219275335526

a1_local_4: 
+0.81799788854876532 a1_x2
+0.71068903451150733 a1_x1
+1.407085168673456 a1_x5
<= 140.44026779512009

a1_local_5: 
+0.7739550951111096 a1_x2
+1.2601501418462635 a1_x3
+1.2920646253468222 a1_x5
<= 141.65390929996383

a1_local_6: 
+1.192309637658167 a1_x6
+0.83870830899607152 a1_x1
+1.059081320363066 a1_x3
<= 161.21504661483959

a1_local_7: 
+1.1578780300237648 a1_x4
+0.93740203579326931 a1_x2
+0.86364882489347827 a1_x5
<= 155.81105242290022

a1_local_8: 
+1.1196169416042347 a1_x6
+1.092880092976215 a1_x2
+0.89316261914289863 a1_x4
<= 194.26659353418265

a1_act_1: 
+0.099999999999999992 a1_x1
-10 a1_z1
<= 0

a1_act_2: 
+0.099999999999999992 a1_x2
-10 a1_z2
<= 0

a2_local_1: 
+0.83322734713048541 a2_x2
+1.1451309842908615 a2_x6
+1.2001526395453241 a2_x5
<= 105.38925684531954

a2_local_2: 
+0.82255223736599736 a2_x1
+0.96510171389543453 a2_x4
+1.215728259644921 a2_x5
<= 208.5547662591519

a2_local_3: 
+1.5243160512059695 a2_x2
+1.0585583187077072 a2_x5
+0.65603192934224208 a2_x1
<= 204.44163190663789

a2_local_4: 
+0.56446442010231734 a2_x6
+1.0833509088521569 a2_x4
+0.60046721498173028 a2_x5
<= 83.842629171080844

a2_local_5: 
+0.73462857105759261 a2_x5
+1.3612321102082525 a2_x3
+0.95584220545224474 a2_x6
<= 157.71482320689691

a2_local_6: 
+1.1959125218165829 a2_x6
+0.83618156157526213 a2_x4
+1.0923761067433322 a2_x1
<= 164.44811346548468

a2_local_7: 
+0.98123234262351178 a2_x3
+0.89617254994848883 a2_x6
+1.1158565390755151 a2_x1
<= 139.90898803581052

a2_local_8: 
+0.96150893426335293 a2_x5
+0.96362970282087101 a2_x3
+1.0400319376815117 a2_x6
<= 206.24669468009861

a2_act_1: 
+0.10000000000000001 a2_x1
-10 a2_z1
<= 0

a2_act_2: 
+0.10000000000000001 a2_x2
-10.000000000000002 a2_z2
<= 0

a3_local_1: 
+1.2161983589985277 a3_x5
+0.82223429476047372 a3_x2
+0.98414990542296277 a3_x3
<= 117.04475217204606

a3_local_2: 
+1.233505445120004 a3_x2
+0.81069767787098257 a3_x3
+1.1074753929427097 a3_x4
<= 159.772695275644

a3_local_3: 
+1.0509221237627611 a3_x6
+2.1361037208722755 a3_x4
+1.8336619698874215 a3_x1
<= 344.50300684347235

a3_local_4: 
+1.4006217636003984 a3_x4
+1.5761560028903205 a3_x2
+0.6344549639542163 a3_x1
<= 177.78916628304535

a3_local_5: 
+0.66190003401050879 a3_x3
+1.2945818856195492 a3_x5
+1.5108021583575313 a3_x2
<= 171.50535921488449

a3_local_6: 
+1.101343918333719 a3_x1
+0.99775808879054306 a3_x6
+0.89734935065531762 a3_x2
<= 135.98404354211269

a3_local_7: 
+0.9980114931231393 a3_x1
+1.3314632932684043 a3_x4
+0.75105337492650948 a3_x6
<= 105.14541317716474

a3_local_8: 
+1.4485876210779116 a3_x4
+0.69032758905939562 a3_x3
+1.1109080029988048 a3_x5
<= 206.57513550200176

a3_act_1: 
+0.099999999999999992 a3_x1
-10 a3_z1
<= 0

a3_act_2: 
+0.10000000000000001 a3_x2
-10 a3_z2
<= 0

a4_local_1: 
+1.1453778440132709 a4_x3
+0.87307433544909196 a4_x5
+0.99980797331340976 a4_x2
<= 192.84852746785492

a4_local_2: 
+1.4595656838598425 a4_x3
+0.68513531871719913 a4_x2
+1.0209467251561628 a4_x6
<= 108.76390805174915

a4_local_3: 
+0.73632386902872871 a4_x5
+1.1413321782322303 a4_x6
+1.3580980354732783 a4_x3
<= 189.50462695863703

a4_local_4: 
+0.98904665465250385 a4_x3
+0.93424173670005251 a4_x6
+1.0703867754102061 a4_x1
<= 203.48885401461629

a4_local_5: 
+1.5990408426952312 a4_x3
+1.6476029483083565 a4_x6
+0.60694234677519254 a4_x5
<= 199.14563821842032

a4_local_6: 
+0.84295729347153847 a4_x3
+0.87648915554291329 a4_x4
+1.1862997185559838 a4_x6
<= 170.3310961481362

a4_local_7: 
+0.91987683469109616 a4_x6
+0.82290019375446899 a4_x3
+1.2152141992305483 a4_x1
<= 200.1393735228699

a4_local_8: 
+0.66328798980764092 a4_x1
+1.5076407463521364 a4_x6
+1.1501790034602855 a4_x3
<= 175.86915981325944

a4_act_1: 
+0.10000000000000001 a4_x1
-10.000000000000002 a4_z1
<= 0

a4_act_2: 
+0.099999999999999978 a4_x2
-9.9999999999999982 a4_z2
<= 0

coupling_1: 
+7.504719224983952e-07 a1_x1
+4.9801287258995826e-05 a2_x1
+0.004794126597800148 a3_x1
+0.99998780688698441 a4_x1
+0.00083664412749298925 short_1
-0.00083664412749298925 surp_1
= 50.706682166825672

coupling_2: 
+8.7155652008255774e-07 a1_x2
+4.136692701373043e-05 a2_x2
+0.0042804558642086481 a3_x2
+0.99999031792298032 a4_x2
+0.00072112617108045774 short_2
-0.00072112617108045774 surp_2
= 23.899949821750404

coupling_3: 
+6.2168720433857164e-07 a1_x3
+0.00010411908532649474 a2_x3
+0.0051123034979611752 a3_x3
+0.99998627372785565 a4_x3
+0.00080804320820611851 short_3
-0.00080804320820611851 surp_3
= 60.44344437422442

bounds
  0 <= a1_x1 <= 100
  0 <= a1_x2 <= 100
  0 <= a1_x3 <= 100
  0 <= a1_x4 <= 100
  0 <= a1_x5 <= 100
  0 <= a1_x6 <= 100
  0 <= a2_x1 <= 100
  0 <= a2_x2 <= 100
  0 <= a2_x3 <= 100
  0 <= a2_x4 <= 100
  0 <= a2_x5 <= 100
  0 <= a2_x6 <= 100
  0 <= a3_x1 <= 100
  0 <= a3_x2 <= 100
  0 <= a3_x3 <= 100
  0 <= a3_x4 <= 100
  0 <= a3_x5 <= 100
  0 <= a3_x6 <= 100
  0 <= a4_x1 <= 100
  0 <= a4_x2 <= 100
  0 <= a4_x3 <= 100
  0 <= a4_x4 <= 100
  0 <= a4_x5 <= 100
  0 <= a4_x6 <= 100
  0 <= short_1 <= +inf
  0 <= surp_1 <= +inf
  0 <= short_2 <= +inf
  0 <= surp_2 <= +inf
  0 <= short_3 <= +inf
  0 <= surp_3 <= +inf
 0 <= a1_z1 <= 1
 0 <= a1_z2 <= 1
 0 <= a2_z1 <= 1
 0 <= a2_z2 <= 1
 0 <= a3_z1 <= 1
 0 <= a3_z2 <= 1
 0 <= a4_z1 <= 1
 0 <= a4_z2 <= 1

binary
  a1_z1
  a1_z2
  a2_z1
  a2_z2
  a3_z1
  a3_z2
  a4_z1
  a4_z2
end
