min
obj: 
  +7.7820756929973847 a1_x1
  +2.6204029212029933 a1_x2
  +1.0229393332967094 a1_x3
  +7.1910932224071349 a1_x4
  +4.2632745770435907 a1_x5
  +6.0246265469097295 a1_x6
  +42.771027111197313 a1_z1
  +28.114118371176183 a1_z2
  +5.7911212590182997 a2_x1
  +5.4348931719458209 a2_x2
  +9.4259627235885386 a2_x3
  +8.9213052519907556 a2_x4
  +6.1484548986939966 a2_x5
  +2.146409388681831 a2_x6
  +31.660946131309107 a2_z1
  +6.9899613369063101 a2_z2
  +2.8186252614454075 a3_x1
  +1.3641205917884647 a3_x2
  +2.33366974601915 a3_x3
  +2.4556775991065138 a3_x4
  +5.2278265061317715 a3_x5
  +6.6696189442115292 a3_x6
  +49.857919593613119 a3_z1
  +30.640944798186169 a3_z2
  +7.0994894146457632 a4_x1
  +9.5674915626052641 a4_x2
  +9.235478138695818 a4_x3
  +8.9478139676632793 a4_x4
  +7.4338997063934436 a4_x5
  +1.7960169742966061 a4_x6
  +7.4304140982629434 a4_z1
  +14.530204301669533 a4_z2
  +1000000 short_1
  +1000000 surp_1
  +1000000 short_2
  +1000000 surp_2
  +1000000 short_3
  +1000000 surp_3

s.t.

a1_local_1: 
+0.18315397585984924 a1_x4
+0.28141217277731051 a1_x6
+0.13075305890834499 a1_x3
<= 29.758044819477121

a1_local_2: 
+0.00030215162932061907 a1_x6
+0.00021182897369547861 a1_x5
+0.00030824958040659331 a1_x4
<= 0.043566917107184633

a1_local_3: 
+0.081859749366799975 a1_x4
+0.10800565829356826 a1_x2
+0.1149175388253431 a1_x3
<= 17.679672985553736

a1_local_4: 
+0.00015812442142170124 a1_x4
+0.00010528198933176084 a1_x5
+0.00016558879683768071 a1_x2
<= 0.021860543532557376

a1_local_5: 
+0.0083341270753576162 a1_x2
+0.020280013439404481 a1_x5
+0.0098912853309351817 a1_x4
<= 2.1301304586408731

a1_local_6: 
+0.088251366933261965 a1_x2
+0.10177165459804138 a1_x3
+0.051921984215153677 a1_x1
<= 13.114350084545281

a1_local_7: 
+0.25011437902441774 a1_x5
+0.52242597235925592 a1_x2
+0.25138391647970942 a1_x6
<= 56.184378229237986

a1_local_8: 
+0.017121502323958714 a1_x5
+0.030545688584125492 a1_x1
+0.022225361669884043 a1_x6
<= 4.29453568589292

a1_act_1: 
+2.742469301660408 a1_x1
-274.24693016604078 a1_z1
<= 0

a1_act_2: 
+365.62834758840654 a1_x2
-36562.834758840654 a1_z2
<= 0

a2_local_1: 
+0.00020495143739011345 a2_x6
+0.00030593422063566393 a2_x4
+0.00030434809107408059 a2_x3
<= 0.051300580531899037

a2_local_2: 
+0.20323437046853174 a2_x5
+0.28179765047882027 a2_x4
+0.4233616477145139 a2_x6
<= 41.21426853212688

a2_local_3: 
+0.017200813564614684 a2_x4
+0.011635173289278164 a2_x5
+0.022920511886535749 a2_x3
<= 1.6033398966476142

a2_local_4: 
+0.052327991675298502 a2_x5
+0.051674218543448801 a2_x6
+0.14860922246178357 a2_x4
<= 9.4378392941992413

a2_local_5: 
+0.685038454639052 a2_x4
+0.42656229613003216 a2_x2
+0.85461168340546245 a2_x3
<= 93.643979048792133

a2_local_6: 
+0.031894266507067996 a2_x5
+0.028193227103538044 a2_x4
+0.029045968998921597 a2_x3
<= 3.3726143778424378

a2_local_7: 
+60.723983830587507 a2_x1
+97.403490549732467 a2_x6
+65.07638516337596 a2_x4
<= 15585.761410343312

a2_local_8: 
+0.00067265000592505483 a2_x4
+0.00062475582805403686 a2_x3
+0.00042012893187026533 a2_x5
<= 0.065820429566556579

a2_act_1: 
+20.520882562507481 a2_x1
-2052.0882562507481 a2_z1
<= 0

a2_act_2: 
+0.018008567277550406 a2_x2
-1.8008567277550407 a2_z2
<= 0

a3_local_1: 
+611.03730660685289 a3_x6
+934.90671631184557 a3_x2
+770.07648600873313 a3_x1
<= 154673.68367941727

a3_local_2: 
+19.901550788690763 a3_x1
+13.389651421998304 a3_x6
+11.097206454798036 a3_x2
<= 3044.7965184020895

a3_local_3: 
+1.1740260321315328 a3_x6
+2.8106228343885782 a3_x5
+1.3229288358936859 a3_x3
<= 281.43184220491878

a3_local_4: 
+446.71755292683838 a3_x2
+205.55548767807758 a3_x6
+490.30147332959166 a3_x4
<= 48462.196039367402

a3_local_5: 
+0.022134894893485434 a3_x1
+0.029516098883122142 a3_x5
+0.019770237640057062 a3_x3
<= 3.5404874802560689

a3_local_6: 
+1354.1390541673554 a3_x5
+1602.9349225572173 a3_x2
+1326.195311857053 a3_x3
<= 220715.10922196318

a3_local_7: 
+6.0861518699466206 a3_x2
+4.9768585100114091 a3_x3
+7.240569455594164 a3_x1
<= 977.51117423713799

a3_local_8: 
+36.246104710970613 a3_x6
+16.849901422078712 a3_x1
+29.513581264538889 a3_x2
<= 3757.9633088482897

a3_act_1: 
+0.031040903281888039 a3_x1
-3.1040903281888039 a3_z1
<= 0

a3_act_2: 
+0.019736696890857077 a3_x2
-1.9736696890857077 a3_z2
<= 0

a4_local_1: 
+97407.935076016802 a4_x1
+223808.31328580479 a4_x6
+118116.62777743109 a4_x5
<= 27751064.976552811

a4_local_2: 
+91382.860808117213 a4_x2
+43437.38369741293 a4_x5
+85191.57585818661 a4_x4
<= 14791543.995590826

a4_local_3: 
+82053.432798387832 a4_x6
+63824.734404148359 a4_x2
+37593.184946306894 a4_x5
<= 10684620.058259796

a4_local_4: 
+17560.23927762168 a4_x6
+10666.330864439717 a4_x3
+18421.13331808184 a4_x4
<= 2953747.4908728409

a4_local_5: 
+3281.3702920559704 a4_x5
+3338.0943734437669 a4_x2
+5719.6452815413841 a4_x3
<= 494393.20896597789

a4_local_6: 
+66838.68598191558 a4_x1
+56998.870657214364 a4_x5
+68424.766923741801 a4_x4
<= 10602238.634001829

a4_local_7: 
+5.0107268925314035 a4_x6
+9.6469772413972663 a4_x3
+7.9866208517819999 a4_x2
<= 1361.5036575631782

a4_local_8: 
+11493.329899153863 a4_x3
+18212.600410668652 a4_x6
+9137.4688236565653 a4_x4
<= 1399954.4951739931

a4_act_1: 
+16.452275127318458 a4_x1
-1645.2275127318458 a4_z1
<= 0

a4_act_2: 
+0.91457746355283298 a4_x2
-91.457746355283291 a4_z2
<= 0

coupling_1: 
+0.05454446767003035 a1_x1
+6.8216160278491333 a2_x1
+549.02580092247331 a3_x1
+35988.593836281158 a4_x1
+55.380691546077642 short_1
-55.380691546077642 surp_1
= 2587852.1838538707

coupling_2: 
+8.3921667154561954e-05 a1_x2
+0.0074604088392107226 a2_x2
+0.78475720457614473 a3_x2
+59.289016415780289 a4_x2
+0.06007188281603628 short_2
-0.06007188281603628 surp_2
= 1682.424019824364

coupling_3: 
+0.0012349391554591644 a1_x3
+0.086929574137316473 a2_x3
+5.5736533983708796 a3_x3
+550.68533258950345 a4_x3
+1.0561545889259496 short_3
-1.0561545889259496 surp_3
= 12477.406560497097

bounds
  0 <= a1_x1 <= 100
  0 <= a1_x2 <= 100
  0 <= a1_x3 <= 100
  0 <= a1_x4 <= 100
  0 <= a1_x5 <= 100
  0 <= a1_x6 <= 100
  0 <= a2_x1 <= 100
  0 <= a2_x2 <= 100
  0 <= a2_x3 <= 100
  0 <= a2_x4 <= 100
  0 <= a2_x5 <= 100
  0 <= a2_x6 <= 100
  0 <= a3_x1 <= 100
  0 <= a3_x2 <= 100
  0 <= a3_x3 <= 100
  0 <= a3_x4 <= 100
  0 <= a3_x5 <= 100
  0 <= a3_x6 <= 100
  0 <= a4_x1 <= 100
  0 <= a4_x2 <= 100
  0 <= a4_x3 <= 100
  0 <= a4_x4 <= 100
  0 <= a4_x5 <= 100
  0 <= a4_x6 <= 100
  0 <= short_1 <= +inf
  0 <= surp_1 <= +inf
  0 <= short_2 <= +inf
  0 <= surp_2 <= +inf
  0 <= short_3 <= +inf
  0 <= surp_3 <= +inf
 0 <= a1_z1 <= 1
 0 <= a1_z2 <= 1
 0 <= a2_z1 <= 1
 0 <= a2_z2 <= 1
 0 <= a3_z1 <= 1
 0 <= a3_z2 <= 1
 0 <= a4_z1 <= 1
 0 <= a4_z2 <= 1

binary
  a1_z1
  a1_z2
  a2_z1
  a2_z2
  a3_z1
  a3_z2
  a4_z1
  a4_z2
end
