min
obj: 
  +4.6820518769511636 a1_x1
  +5.7129162548306427 a1_x2
  +9.0056358908477314 a1_x3
  +9.0172471176233611 a1_x4
  +9.406385688684578 a1_x5
  +5.7753562095118767 a1_x6
  +36.440798325108226 a1_z1
  +20.355895911925103 a1_z2
  +9.8523773325997031 a2_x1
  +8.6665660995193221 a2_x2
  +1.318348960475541 a2_x3
  +8.2691943978607085 a2_x4
  +6.0635318483155114 a2_x5
  +3.2631581910354219 a2_x6
  +31.015799445658949 a2_z1
  +42.142738976131909 a2_z2
  +3.407000856972263 a3_x1
  +9.4188250932667614 a3_x2
  +9.7490010795163791 a3_x3
  +7.0450820339939781 a3_x4
  +9.9763761898407548 a3_x5
  +5.8473553548384958 a3_x6
  +49.073547744148975 a3_z1
  +13.999141819476126 a3_z2
  +1.9143138950663818 a4_x1
  +6.1042201720531999 a4_x2
  +2.2574896326389386 a4_x3
  +5.6594666769891386 a4_x4
  +4.3520497618016583 a4_x5
  +6.7823412192640848 a4_x6
  +29.956754589694771 a4_z1
  +32.972144993024642 a4_z2
  +1000000 short_1
  +1000000 surp_1
  +1000000 short_2
  +1000000 surp_2
  +1000000 short_3
  +1000000 surp_3

s.t.

a1_local_1: 
+7.1554184952217634e-06 a1_x4
+5.8545572312847803e-06 a1_x2
+3.8550431792206821e-06 a1_x6
<= 0.00073989573307612049

a1_local_2: 
+0.00049729052074674711 a1_x3
+0.00022240921365142724 a1_x4
+0.00044816302380063102 a1_x5
<= 0.04905949875302567

a1_local_3: 
+0.019304074150227109 a1_x1
+0.033938788128421285 a1_x3
+0.02538387651412204 a1_x6
<= 4.0941415330937225

a1_local_4: 
+5.3322923264518972e-06 a1_x2
+4.6327768546474669e-06 a1_x1
+9.1723824139607777e-06 a1_x5
<= 0.00091548960305674952

a1_local_5: 
+0.039348222751484509 a1_x2
+0.064066596104730297 a1_x3
+0.065689142701698275 a1_x5
<= 7.2017480238351252

a1_local_6: 
+5.0550738568250365e-06 a1_x6
+3.5558988306387398e-06 a1_x1
+4.4902214372219831e-06 a1_x3
<= 0.00068350866396598819

a1_local_7: 
+0.045816015602561273 a1_x4
+0.037092012443569418 a1_x2
+0.034173675473954002 a1_x5
<= 6.1652794368268404

a1_local_8: 
+2.6590742654940436e-06 a1_x6
+2.5955746313912333e-06 a1_x2
+2.1212484799141742e-06 a1_x4
<= 0.00046138038852089379

a1_act_1: 
+0.004430372568374444 a1_x1
-0.44303725683744438 a1_z1
<= 0

a1_act_2: 
+0.26968627298348519 a1_x2
-26.968627298348519 a1_z2
<= 0

a2_local_1: 
+49.39321101065341 a2_x2
+67.882669161911281 a2_x6
+71.144319463594798 a2_x5
<= 6247.4111292000371

a2_local_2: 
+0.34395444023143756 a2_x1
+0.40356223555149418 a2_x4
+0.50836301212764079 a2_x5
<= 87.208246026989897

a2_local_3: 
+5.0722810105325342 a2_x2
+3.5224356879758627 a2_x5
+2.1829976105500215 a2_x1
<= 680.29553743917211

a2_local_4: 
+0.56446442010231734 a2_x6
+1.0833509088521569 a2_x4
+0.60046721498173028 a2_x5
<= 83.842629171080844

a2_local_5: 
+0.00028497825797205525 a2_x5
+0.00052805127753785758 a2_x3
+0.00037079179511600183 a2_x6
<= 0.061180979537955635

a2_local_6: 
+5.5958750603908349 a2_x6
+3.9126336258023704 a2_x4
+5.1114108271117926 a2_x1
<= 769.48027559072909

a2_local_7: 
+9.6132712813755887 a2_x3
+8.7799285279801236 a2_x6
+10.932203470331034 a2_x1
<= 1370.7080354637612

a2_local_8: 
+0.33990370110577212 a2_x5
+0.34065341549344075 a2_x3
+0.36766242339390326 a2_x6
<= 72.910414416800947

a2_act_1: 
+0.6030716546612398 a2_x1
-60.307165466123976 a2_z1
<= 0

a2_act_2: 
+0.0028925318809731046 a2_x2
-0.28925318809731049 a2_z2
<= 0

a3_local_1: 
+109.7917759674541 a3_x5
+74.226842040335981 a3_x2
+88.84370311399168 a3_x3
<= 10566.163910319026

a3_local_2: 
+35.93083792968239 a3_x2
+23.614850658983723 a3_x3
+32.259702632333763 a3_x4
<= 4654.0263297979964

a3_local_3: 
+1.0509221237627611 a3_x6
+2.1361037208722755 a3_x4
+1.8336619698874215 a3_x1
<= 344.50300684347235

a3_local_4: 
+0.071863189997663099 a3_x4
+0.080869511844869429 a3_x2
+0.032552655402412006 a3_x1
<= 9.1220177839316925

a3_local_5: 
+10.423194965477931 a3_x3
+20.386279950507419 a3_x5
+23.791183927595018 a3_x2
<= 2700.7609984390583

a3_local_6: 
+1.101343918333719 a3_x1
+0.99775808879054306 a3_x6
+0.89734935065531762 a3_x2
<= 135.98404354211269

a3_local_7: 
+932.70949541891241 a3_x1
+1244.342840729139 a3_x4
+701.91036795399225 a3_x6
<= 98265.526946177197

a3_local_8: 
+71.999247395810016 a3_x4
+34.31139832042458 a3_x3
+55.215534758179651 a3_x5
<= 10267.41777329578

a3_act_1: 
+0.022622437003430376 a3_x1
-2.2622437003430376 a3_z1
<= 0

a3_act_2: 
+1.8826454441105733 a3_x2
-188.26454441105733 a3_z2
<= 0

a4_local_1: 
+5328.5052511404792 a4_x3
+4061.6999930571101 a4_x5
+4651.28783813885 a4_x2
<= 897166.2902842632

a4_local_2: 
+436.99053938718305 a4_x3
+205.12790605468129 a4_x2
+305.66905281832555 a4_x6
<= 32563.658745183187

a4_local_3: 
+4.7794076805095793 a4_x5
+7.4082778083118468 a4_x6
+8.8152842175115005 a4_x3
<= 1230.0563755632843

a4_local_4: 
+2555.5010816343943 a4_x3
+2413.8960052231296 a4_x6
+2765.667877708956 a4_x1
<= 525774.98148214258

a4_local_5: 
+10.858978135054187 a4_x3
+11.188760107449765 a4_x6
+4.1217043973444394 a4_x5
<= 1352.3845503910011

a4_local_6: 
+1166.0192255430916 a4_x3
+1212.4021160480925 a4_x4
+1640.9470441806429 a4_x6
<= 235610.19562287169

a4_local_7: 
+23.86464195235634 a4_x6
+21.348747729982538 a4_x3
+31.526668208570733 a4_x1
<= 5192.2760847609679

a4_local_8: 
+4.5107858237145955 a4_x1
+10.252928758550192 a4_x6
+7.8219585206833919 a4_x3
<= 1196.0236354412407

a4_act_1: 
+0.019960517821429307 a4_x1
-1.9960517821429307 a4_z1
<= 0

a4_act_2: 
+0.048172364565800582 a4_x2
-4.8172364565800585 a4_z2
<= 0

coupling_1: 
+0.73292338207187502 a1_x1
+48.636766806521337 a2_x1
+4682.0239036296925 a3_x1
+976604.75159990136 a4_x1
+817.08059306382097 short_1
-817.08059306382097 surp_1
= 49520990.557022437

coupling_2: 
+0.00065055828534624108 a1_x2
+0.030877626967378297 a2_x2
+3.1950722223454457 a3_x2
+746.42547167129601 a4_x2
+0.53827215397569872 short_2
-0.53827215397569872 surp_2
= 17839.704044008915

coupling_3: 
+0.0096209078938342043 a1_x3
+1.6112928220586831 a2_x3
+79.115350510615741 a3_x3
+15475.267574261816 a4_x3
+12.504856503618129 short_3
-12.504856503618129 surp_3
= 935391.31423687364

bounds
  0 <= a1_x1 <= 100
  0 <= a1_x2 <= 100
  0 <= a1_x3 <= 100
  0 <= a1_x4 <= 100
  0 <= a1_x5 <= 100
  0 <= a1_x6 <= 100
  0 <= a2_x1 <= 100
  0 <= a2_x2 <= 100
  0 <= a2_x3 <= 100
  0 <= a2_x4 <= 100
  0 <= a2_x5 <= 100
  0 <= a2_x6 <= 100
  0 <= a3_x1 <= 100
  0 <= a3_x2 <= 100
  0 <= a3_x3 <= 100
  0 <= a3_x4 <= 100
  0 <= a3_x5 <= 100
  0 <= a3_x6 <= 100
  0 <= a4_x1 <= 100
  0 <= a4_x2 <= 100
  0 <= a4_x3 <= 100
  0 <= a4_x4 <= 100
  0 <= a4_x5 <= 100
  0 <= a4_x6 <= 100
  0 <= short_1 <= +inf
  0 <= surp_1 <= +inf
  0 <= short_2 <= +inf
  0 <= surp_2 <= +inf
  0 <= short_3 <= +inf
  0 <= surp_3 <= +inf
 0 <= a1_z1 <= 1
 0 <= a1_z2 <= 1
 0 <= a2_z1 <= 1
 0 <= a2_z2 <= 1
 0 <= a3_z1 <= 1
 0 <= a3_z2 <= 1
 0 <= a4_z1 <= 1
 0 <= a4_z2 <= 1

binary
  a1_z1
  a1_z2
  a2_z1
  a2_z2
  a3_z1
  a3_z2
  a4_z1
  a4_z2
end
