min
obj: 
  +1.5869078218103445 a1_x1
  +1.8591431952918778 a1_x2
  +3.3231109040519993 a1_x3
  +9.2087059181463786 a1_x4
  +9.6203246603591985 a1_x5
  +2.6522167369866532 a1_x6
  +45.971215901918207 a1_z1
  +15.231591264695247 a1_z2
  +7.3851642913844699 a2_x1
  +8.184615433312981 a2_x2
  +6.3286902635835114 a2_x3
  +1.720840343178456 a2_x4
  +2.5195780412124975 a2_x5
  +8.1969421632275719 a2_x6
  +32.909722818284479 a2_z1
  +29.006081337850453 a2_z2
  +9.6251817518945995 a3_x1
  +3.9009418953480735 a3_x2
  +1.3219510135661245 a3_x3
  +4.7485775019531236 a3_x4
  +3.5558983548633152 a3_x5
  +8.1243659823807501 a3_x6
  +20.822115549059351 a3_z1
  +25.222874624514855 a3_z2
  +3.9740281273618923 a4_x1
  +5.8725760658506196 a4_x2
  +8.5449306619724936 a4_x3
  +7.8945369096479574 a4_x4
  +2.7042977066829055 a4_x5
  +9.2622687133164359 a4_x6
  +13.310232891557296 a4_z1
  +27.542990425232677 a4_z2
  +1000000 short_1
  +1000000 surp_1
  +1000000 short_2
  +1000000 surp_2
  +1000000 short_3
  +1000000 surp_3

s.t.

a1_local_1: 
+0.91555290746555551 a1_x4
+1.1866305975125664 a1_x1
+0.8427222440549027 a1_x3
<= 130.56099750115044

a1_local_2: 
+1.2129037560419322 a1_x2
+0.82446772468023277 a1_x4
+0.94047146436761941 a1_x3
<= 200.52635914903732

a1_local_3: 
+0.70624019261684523 a1_x6
+1.4159488661990207 a1_x4
+0.84574465110272834 a1_x1
<= 128.17380145785043

a1_local_4: 
+1.1053049443244558 a1_x6
+0.98232533685459633 a1_x2
+0.90472769993007085 a1_x1
<= 117.22584078360316

a1_local_5: 
+0.76824010820558208 a1_x1
+1.1192767905085206 a1_x2
+1.3016763760691323 a1_x5
<= 166.45317172246797

a1_local_6: 
+0.79498982788772232 a1_x1
+1.257877729903774 a1_x2
+1.1199098105920444 a1_x6
<= 115.06265014146929

a1_local_7: 
+0.68561719186186942 a1_x5
+1.4585398555779927 a1_x2
+1.2564220981266883 a1_x4
<= 225.26480219821289

a1_local_8: 
+1.1913257363905447 a1_x1
+0.83940098786901085 a1_x2
+1.1722428543263963 a1_x3
<= 200.69197057039932

a1_act_1: 
+0.10000000000000001 a1_x1
-10 a1_z1
<= 0

a1_act_2: 
+0.099999999999999992 a1_x2
-10 a1_z2
<= 0

a2_local_1: 
+0.62681876580670437 a2_x1
+1.5953574694162485 a2_x5
+0.95578965056642751 a2_x3
<= 170.1164484931578

a2_local_2: 
+0.65050579285849541 a2_x4
+1.5372653264250482 a2_x2
+1.2546061477204331 a2_x5
<= 157.53195180918652

a2_local_3: 
+1.1092705285146258 a2_x2
+0.98690089922469182 a2_x1
+0.901493345666593 a2_x5
<= 99.631991056283013

a2_local_4: 
+1.2060793228487074 a2_x6
+0.82274844310066719 a2_x2
+1.215438337666529 a2_x4
<= 151.57228435011822

a2_local_5: 
+0.74301116243361165 a2_x1
+1.345874800487066 a2_x6
+1.1724271539103084 a2_x2
<= 154.6009875303518

a2_local_6: 
+0.59168379616070732 a2_x4
+0.619874212765261 a2_x6
+0.57007871762431406 a2_x5
<= 93.424163906640487

a2_local_7: 
+1.0399803328289989 a2_x4
+0.71771198863494956 a2_x6
+1.3933165612879719 a2_x3
<= 193.85182720320296

a2_local_8: 
+1.2241366966643881 a2_x5
+1.0672067519535393 a2_x1
+0.81690223218115154 a2_x4
<= 202.49091843312496

a2_act_1: 
+0.10000000000000001 a2_x1
-10 a2_z1
<= 0

a2_act_2: 
+0.10000000000000001 a2_x2
-10 a2_z2
<= 0

a3_local_1: 
+1.294066883200826 a3_x3
+1.5005317376178442 a3_x5
+0.66643042258309115 a3_x4
<= 119.91388423991923

a3_local_2: 
+1.0945636544864943 a3_x3
+1.2169345762837114 a3_x5
+0.82173686202080909 a3_x2
<= 159.55734036243359

a3_local_3: 
+0.83838813987461269 a3_x5
+1.0696121414360913 a3_x6
+1.1927649646255225 a3_x2
<= 155.55360864620712

a3_local_4: 
+1.3154777720472985 a3_x4
+1.150785931492802 a3_x3
+0.55391563952994038 a3_x1
<= 131.88004542216606

a3_local_5: 
+1.4700543535625183 a3_x1
+1.2510176638048409 a3_x4
+0.68024695656769962 a3_x5
<= 195.14260034300591

a3_local_6: 
+0.74214363035317843 a3_x5
+1.3474480667901314 a3_x4
+1.0476830310946887 a3_x6
<= 126.88459199627016

a3_local_7: 
+1.1414649673954569 a3_x5
+0.87606718433221387 a3_x4
+1.0228261738446121 a3_x2
<= 184.58100150212582

a3_local_8: 
+1.4793239649500829 a3_x6
+0.67598445215057634 a3_x2
+1.1207892307676857 a3_x3
<= 178.75290101777702

a3_act_1: 
+0.10000000000000001 a3_x1
-10 a3_z1
<= 0

a3_act_2: 
+0.099999999999999992 a3_x2
-10 a3_z2
<= 0

a4_local_1: 
+0.93947639559538909 a4_x3
+0.78765587113540048 a4_x2
+1.2695899778649613 a4_x4
<= 177.37443455055575

a4_local_2: 
+1.3648935583549873 a4_x5
+0.69086760369113132 a4_x4
+1.4474553368217764 a4_x1
<= 140.56322969863706

a4_local_3: 
+0.86902498258530059 a4_x3
+1.0521663348511827 a4_x2
+1.1507149046797895 a4_x6
<= 176.11462229582631

a4_local_4: 
+0.9191671022917155 a4_x1
+1.0879414608146305 a4_x6
+1.0470652219010963 a4_x5
<= 141.09578028810026

a4_local_5: 
+0.97886237065940362 a4_x1
+1.0842770647637965 a4_x2
+0.92227349678178794 a4_x6
<= 117.43876355440079

a4_local_6: 
+0.5834380347121112 a4_x6
+1.7139780756553433 a4_x3
+0.97723231614370887 a4_x5
<= 134.29665337981862

a4_local_7: 
+0.8278148124298581 a4_x1
+0.86914953755802138 a4_x4
+1.2079996455544595 a4_x5
<= 93.539775984328656

a4_local_8: 
+0.91569763806754612 a4_x5
+0.8067594697720103 a4_x1
+1.2395268199115148 a4_x6
<= 169.00558659030295

a4_act_1: 
+0.10000000000000001 a4_x1
-10 a4_z1
<= 0

a4_act_2: 
+0.099999999999999992 a4_x2
-10 a4_z2
<= 0

coupling_1: 
+1.0417771199878478e-06 a1_x1
+7.0541080084727493e-05 a2_x1
+0.0050827735474931442 a3_x1
+0.99998657740226882 a4_x1
+0.00070903146326514992 short_1
-0.00070903146326514992 surp_1
= 59.743617134628074

coupling_2: 
+1.3109708178243608e-06 a1_x2
+6.3849045535202919e-05 a2_x2
+0.015893389645302344 a3_x2
+0.9998723454331041 a4_x2
+0.0011595096520664583 short_2
-0.0011595096520664583 surp_2
= 78.960729320558684

coupling_3: 
+1.1876709685365632e-06 a1_x3
+0.00010533723826393831 a2_x3
+0.021556232723087054 a3_x3
+1.5316870558218862 a4_x3
+0.0018022163461375836 short_3
-0.0018022163461375836 surp_3
= 79.189638004452291

bounds
  0 <= a1_x1 <= 100
  0 <= a1_x2 <= 100
  0 <= a1_x3 <= 100
  0 <= a1_x4 <= 100
  0 <= a1_x5 <= 100
  0 <= a1_x6 <= 100
  0 <= a2_x1 <= 100
  0 <= a2_x2 <= 100
  0 <= a2_x3 <= 100
  0 <= a2_x4 <= 100
  0 <= a2_x5 <= 100
  0 <= a2_x6 <= 100
  0 <= a3_x1 <= 100
  0 <= a3_x2 <= 100
  0 <= a3_x3 <= 100
  0 <= a3_x4 <= 100
  0 <= a3_x5 <= 100
  0 <= a3_x6 <= 100
  0 <= a4_x1 <= 100
  0 <= a4_x2 <= 100
  0 <= a4_x3 <= 100
  0 <= a4_x4 <= 100
  0 <= a4_x5 <= 100
  0 <= a4_x6 <= 100
  0 <= short_1 <= +inf
  0 <= surp_1 <= +inf
  0 <= short_2 <= +inf
  0 <= surp_2 <= +inf
  0 <= short_3 <= +inf
  0 <= surp_3 <= +inf
 0 <= a1_z1 <= 1
 0 <= a1_z2 <= 1
 0 <= a2_z1 <= 1
 0 <= a2_z2 <= 1
 0 <= a3_z1 <= 1
 0 <= a3_z2 <= 1
 0 <= a4_z1 <= 1
 0 <= a4_z2 <= 1

binary
  a1_z1
  a1_z2
  a2_z1
  a2_z2
  a3_z1
  a3_z2
  a4_z1
  a4_z2
end
