min
obj: 
  +2.370294118728955 a1_x1
  +4.0871141162290519 a1_x2
  +7.6613663727576089 a1_x3
  +4.8999168943267346 a1_x4
  +9.1856075433138287 a1_x5
  +7.8055232956727103 a1_x6
  +17.430873114549655 a1_z1
  +23.402378726140935 a1_z2
  +7.7696749959897602 a2_x1
  +1.8033642153830525 a2_x2
  +9.5715816001394138 a2_x3
  +5.6582749389411147 a2_x4
  +2.4417372334426313 a2_x5
  +7.2729933705310286 a2_x6
  +31.321727314252385 a2_z1
  +17.358761230317288 a2_z2
  +2.3493759750782877 a3_x1
  +3.4440486133066264 a3_x2
  +8.9723629811002734 a3_x3
  +1.1828241076108115 a3_x4
  +8.9432908674835829 a3_x5
  +1.7190508218957756 a3_x6
  +16.001764697499688 a3_z1
  +34.61198408971174 a3_z2
  +6.5610669509273256 a4_x1
  +3.9905359855651432 a4_x2
  +4.1004087373899605 a4_x3
  +4.8874480478433391 a4_x4
  +2.9132673248674479 a4_x5
  +5.3684179760125765 a4_x6
  +43.700484803270278 a4_z1
  +7.0959851654145574 a4_z2
  +1000000 short_1
  +1000000 surp_1
  +1000000 short_2
  +1000000 surp_2
  +1000000 short_3
  +1000000 surp_3

s.t.

a1_local_1: 
+1.0372523503706268 a1_x3
+0.7454429063124044 a1_x2
+0.41440856740815485 a1_x1
<= 153.68415857053131

a1_local_2: 
+0.76791484251516662 a1_x6
+0.45663690431334675 a1_x3
+0.44920989778057008 a1_x2
<= 51.838027079838319

a1_local_3: 
+0.57353003939573333 a1_x4
+0.66341421880025575 a1_x3
+0.48056723588315414 a1_x6
<= 52.862756827297567

a1_local_4: 
+0.43063763239582575 a1_x5
+0.81322607193567853 a1_x3
+0.39142634746345883 a1_x6
<= 88.18897862939329

a1_local_5: 
+0.75938868227298362 a1_x3
+0.57498645125237891 a1_x5
+0.3044986208702713 a1_x4
<= 99.34225957511201

a1_local_6: 
+0.74094541606884645 a1_x3
+0.53463991929925536 a1_x1
+0.40639887684176718 a1_x6
<= 83.734928132956185

a1_local_7: 
+0.52339568222869326 a1_x6
+0.6142377409339782 a1_x1
+0.59056664097854683 a1_x4
<= 79.541278891571721

a1_local_8: 
+0.40881874508552435 a1_x3
+0.62272062132382811 a1_x2
+0.66714785575969793 a1_x4
<= 61.969700437706358

a1_act_1: 
+0.0099995000374968768 a1_x1
-0.99995000374968757 a1_z1
<= 0

a1_act_2: 
+0.0099995000374968751 a1_x2
-0.99995000374968757 a1_z2
<= 0

a2_local_1: 
+0.55050479235961181 a2_x3
+0.64377804921711546 a2_x2
+0.32022670502124734 a2_x1
<= 95.92115741547083

a2_local_2: 
+0.2471135532286021 a2_x6
+0.58431512168375754 a2_x2
+0.6456994592371772 a2_x1
<= 94.350026352719439

a2_local_3: 
+0.46614415501724027 a2_x2
+0.7710727912620603 a2_x3
+0.43376995898586418 a2_x1
<= 93.242355106820014

a2_local_4: 
+0.55747467419237706 a2_x1
+0.53453374855096447 a2_x4
+0.63521308180338765 a2_x5
<= 97.956718183504933

a2_local_5: 
+0.44364439308008552 a2_x1
+0.66757537771419018 a2_x6
+0.59793207604071463 a2_x3
<= 52.893458598666903

a2_local_6: 
+0.45672210821443548 a2_x1
+0.37229940364563718 a2_x6
+0.80795920064893401 a2_x2
<= 79.820062261628081

a2_local_7: 
+0.55712484542162355 a2_x3
+0.50111201771719904 a2_x2
+0.66219230765188586 a2_x4
<= 70.751625411195818

a2_local_8: 
+0.69928387547025295 a2_x4
+0.36018019333233509 a2_x3
+0.61747250128113873 a2_x1
<= 101.37005601191339

a2_act_1: 
+0.0099995000374968751 a2_x1
-0.99995000374968757 a2_z1
<= 0

a2_act_2: 
+0.0099995000374968751 a2_x2
-0.99995000374968757 a2_z2
<= 0

a3_local_1: 
+0.46731663203920337 a3_x5
+0.31402123127994841 a3_x4
+0.82644166867659874 a3_x2
<= 72.167649080712309

a3_local_2: 
+0.6236432264172822 a3_x4
+0.45102014007742136 a3_x5
+0.63847471319417626 a3_x3
<= 86.233261316244366

a3_local_3: 
+0.61873482797448964 a3_x4
+0.32757898195559443 a3_x3
+0.71404427259961634 a3_x6
<= 70.380977330587385

a3_local_4: 
+0.5156199130326562 a3_x4
+0.54327962890760961 a3_x5
+0.66255818619816775 a3_x2
<= 94.768203938537752

a3_local_5: 
+0.72715879570718145 a3_x4
+0.28550485592540154 a3_x6
+0.62428123715894035 a3_x5
<= 67.364338951685241

a3_local_6: 
+0.56936091402592692 a3_x1
+0.54563177164048937 a3_x5
+0.61490984652713265 a3_x3
<= 57.308230221214522

a3_local_7: 
+0.43793593683801402 a3_x6
+0.34299559613885788 a3_x4
+0.59915709157121722 a3_x1
<= 52.029891307184087

a3_local_8: 
+0.6867467670161036 a3_x4
+0.33557359090746153 a3_x2
+0.6448017083401697 a3_x1
<= 105.44400300835248

a3_act_1: 
+0.0099995000374968734 a3_x1
-0.99995000374968745 a3_z1
<= 0

a3_act_2: 
+0.0099995000374968751 a3_x2
-0.99995000374968757 a3_z2
<= 0

a4_local_1: 
+0.53699798738911919 a4_x5
+0.67419212866122313 a4_x2
+0.50704845448071756 a4_x1
<= 114.95931583434508

a4_local_2: 
+0.61966013127884112 a4_x4
+0.33982951438988573 a4_x2
+0.70748655312523356 a4_x6
<= 104.06051717473623

a4_local_3: 
+0.69341408287709849 a4_x1
+0.49508363420821422 a4_x3
+0.52351609794437026 a4_x6
<= 84.809917814029106

a4_local_4: 
+0.50648080789037353 a4_x3
+0.66772172345937819 a4_x4
+0.54555008134831418 a4_x1
<= 103.81404019922495

a4_local_5: 
+0.65010965356042638 a4_x6
+0.67162516863435406 a4_x3
+0.3553548525128335 a4_x4
<= 80.22277674996262

a4_local_6: 
+0.38576832624855306 a4_x5
+0.82625073302251484 a4_x4
+0.41047840947258923 a4_x2
<= 90.857914565919629

a4_local_7: 
+0.6848141405952678 a4_x6
+0.4966612462201786 a4_x2
+0.53325153477864828 a4_x4
<= 116.05198771488715

a4_local_8: 
+0.39801599426753953 a4_x6
+0.65454914870586733 a4_x2
+0.64276642743351686 a4_x1
<= 61.266852530882502

a4_act_1: 
+0.0099995000374968751 a4_x1
-0.99995000374968745 a4_z1
<= 0

a4_act_2: 
+0.0099995000374968751 a4_x2
-0.99995000374968757 a4_z2
<= 0

coupling_1: 
+6.3331216141818716e-07 a1_x1
+0.00010278879629612612 a2_x1
+0.0089819423354253643 a3_x1
+0.99995910533251131 a4_x1
+0.00074222926003811112 short_1
-0.00074222926003811112 surp_1
= 21.124178773391233

coupling_2: 
+7.4139835538591432e-07 a1_x2
+0.00010797476439062044 a2_x2
+0.0092608164875251017 a3_x2
+0.9999565151965204 a4_x2
+0.00077244252742802934 short_2
-0.00077244252742802934 surp_2
= 79.269592191755535

coupling_3: 
+5.1146539061478458e-07 a1_x3
+5.4897212012586313e-05 a2_x3
+0.011072253759569974 a3_x3
+0.99993798616698371 a4_x3
+0.00084439417205087641 short_3
-0.00084439417205087641 surp_3
= 56.205895336845394

bounds
  0 <= a1_x1 <= 100
  0 <= a1_x2 <= 100
  0 <= a1_x3 <= 100
  0 <= a1_x4 <= 100
  0 <= a1_x5 <= 100
  0 <= a1_x6 <= 100
  0 <= a2_x1 <= 100
  0 <= a2_x2 <= 100
  0 <= a2_x3 <= 100
  0 <= a2_x4 <= 100
  0 <= a2_x5 <= 100
  0 <= a2_x6 <= 100
  0 <= a3_x1 <= 100
  0 <= a3_x2 <= 100
  0 <= a3_x3 <= 100
  0 <= a3_x4 <= 100
  0 <= a3_x5 <= 100
  0 <= a3_x6 <= 100
  0 <= a4_x1 <= 100
  0 <= a4_x2 <= 100
  0 <= a4_x3 <= 100
  0 <= a4_x4 <= 100
  0 <= a4_x5 <= 100
  0 <= a4_x6 <= 100
  0 <= short_1 <= +inf
  0 <= surp_1 <= +inf
  0 <= short_2 <= +inf
  0 <= surp_2 <= +inf
  0 <= short_3 <= +inf
  0 <= surp_3 <= +inf
 0 <= a1_z1 <= 1
 0 <= a1_z2 <= 1
 0 <= a2_z1 <= 1
 0 <= a2_z2 <= 1
 0 <= a3_z1 <= 1
 0 <= a3_z2 <= 1
 0 <= a4_z1 <= 1
 0 <= a4_z2 <= 1

binary
  a1_z1
  a1_z2
  a2_z1
  a2_z2
  a3_z1
  a3_z2
  a4_z1
  a4_z2
end
