min
obj: 
  +1.5770974257819579 a1_x1
  +5.2436233239928463 a1_x2
  +8.0695966456126804 a1_x3
  +3.4781022885686368 a1_x4
  +9.412058306823841 a1_x5
  +8.3165688602967034 a1_x6
  +34.001400959855452 a1_z1
  +10.410503430419741 a1_z2
  +6.4773554290647395 a2_x1
  +9.5833935756226563 a2_x2
  +2.026827474230366 a2_x3
  +2.5146383338919818 a2_x4
  +5.9719159164755045 a2_x5
  +2.1752834405324757 a2_x6
  +46.820939487606068 a2_z1
  +31.119838842287344 a2_z2
  +4.2898026117145012 a3_x1
  +6.2971939246586208 a3_x2
  +7.0812452369118279 a3_x3
  +4.947199835085236 a3_x4
  +8.0650994710678727 a3_x5
  +5.8436848317688934 a3_x6
  +45.408472421232204 a3_z1
  +47.685437857449642 a3_z2
  +7.6745490131872192 a4_x1
  +9.5447276615633179 a4_x2
  +6.4685946234911675 a4_x3
  +6.1047180091187832 a4_x4
  +9.0091726197219533 a4_x5
  +9.2042443028710519 a4_x6
  +10.38795682780167 a4_z1
  +22.655186795949191 a4_z2
  +1000000 short_1
  +1000000 surp_1
  +1000000 short_2
  +1000000 surp_2
  +1000000 short_3
  +1000000 surp_3

s.t.

a1_local_1: 
+0.64098504467401418 a1_x1
+0.65529248652179228 a1_x6
+0.39966226943800787 a1_x5
<= 89.211705947332433

a1_local_2: 
+0.51791392364174604 a1_x5
+0.28563217064578794 a1_x4
+0.80633704540358753 a1_x1
<= 50.322073711188992

a1_local_3: 
+0.51223022241792837 a1_x2
+0.731439904087825 a1_x3
+0.45012872153382216 a1_x5
<= 66.633648216849238

a1_local_4: 
+0.75099222928415799 a1_x2
+0.60024298270744103 a1_x4
+0.27517091645972552 a1_x1
<= 81.776269246822181

a1_local_5: 
+0.63604717020937129 a1_x1
+0.40518322353876191 a1_x3
+0.72659357489064047 a1_x2
<= 68.631404142441909

a1_local_6: 
+0.68877257932184766 a1_x3
+0.55054256056530104 a1_x4
+0.47169399294514081 a1_x2
<= 71.828481455988126

a1_local_7: 
+0.68498350042745682 a1_x1
+0.4272375996920541 a1_x4
+0.590140354112071 a1_x3
<= 94.356666920411826

a1_local_8: 
+0.6741717186608206 a1_x3
+0.43427756292491182 a1_x2
+0.59740730837336986 a1_x5
<= 77.952730850940952

a1_act_1: 
+0.0099995000374968751 a1_x1
-0.99995000374968757 a1_z1
<= 0

a1_act_2: 
+0.0099995000374968751 a1_x2
-0.99995000374968757 a1_z2
<= 0

a2_local_1: 
+0.37970817769907894 a2_x3
+0.65412474007995336 a2_x6
+0.65417316071800002 a2_x4
<= 93.787528340673319

a2_local_2: 
+0.7006339560331758 a2_x6
+0.28979465704822427 a2_x4
+0.65202079445337002 a2_x2
<= 88.256257294672736

a2_local_3: 
+0.40755672572156987 a2_x4
+0.58260213990676457 a2_x5
+0.70318721681723717 a2_x2
<= 76.545453412864134

a2_local_4: 
+0.5832745751592584 a2_x6
+0.66254764057874038 a2_x5
+0.46991636908744822 a2_x1
<= 57.065110315807992

a2_local_5: 
+0.34565793341420803 a2_x6
+0.34956425578551625 a2_x5
+0.33073549801562846 a2_x2
<= 40.399081566368437

a2_local_6: 
+0.58187193742023713 a2_x1
+0.40253090843513067 a2_x6
+0.70667808526740661 a2_x3
<= 86.713491760519616

a2_local_7: 
+0.46567618922908599 a2_x2
+0.51535388704713037 a2_x4
+0.71941369036910185 a2_x5
<= 89.579951195159282

a2_local_8: 
+0.52642759393292116 a2_x4
+0.53709654009455499 a2_x3
+0.65909126451839251 a2_x2
<= 55.479085899036377

a2_act_1: 
+0.0099995000374968768 a2_x1
-0.99995000374968768 a2_z1
<= 0

a2_act_2: 
+0.0099995000374968751 a2_x2
-0.99995000374968757 a2_z2
<= 0

a3_local_1: 
+0.56881157551933192 a3_x3
+0.50127803366394641 a3_x4
+0.65205346753255045 a3_x2
<= 95.68272442571859

a3_local_2: 
+0.42426419607962768 a3_x3
+0.51108656922784357 a3_x4
+0.74752284960382298 a3_x6
<= 110.03949284654105

a3_local_3: 
+0.47237822426315723 a3_x2
+0.7534060534979925 a3_x3
+0.45742554781578015 a3_x5
<= 63.350653673085219

a3_local_4: 
+0.41632820917113472 a3_x2
+0.68221755016079444 a3_x5
+0.60104079437336011 a3_x3
<= 89.221680966901317

a3_local_5: 
+0.64737635948030325 a3_x2
+0.31855893998348123 a3_x5
+0.6924045428379495 a3_x3
<= 103.6217721198326

a3_local_6: 
+0.6123311649222285 a3_x5
+0.52548391379954917 a3_x6
+0.59069213707556234 a3_x1
<= 91.197085493310382

a3_local_7: 
+0.55063473608792679 a3_x3
+0.6363049089625642 a3_x5
+0.54029385545601227 a3_x2
<= 101.64888186630589

a3_local_8: 
+0.47824837657156016 a3_x5
+0.73030910514649927 a3_x3
+0.48777771704618372 a3_x2
<= 94.479189735362979

a3_act_1: 
+0.0099995000374968751 a3_x1
-0.99995000374968757 a3_z1
<= 0

a3_act_2: 
+0.0099995000374968734 a3_x2
-0.99995000374968745 a3_z2
<= 0

a4_local_1: 
+0.55640978656014128 a4_x6
+0.62055276295368045 a4_x1
+0.55255987712704135 a4_x3
<= 64.605374431390544

a4_local_2: 
+0.44669998527998572 a4_x2
+0.74503452376760726 a4_x4
+0.49536116273405545 a4_x6
<= 94.78128155706591

a4_local_3: 
+0.51349915663727086 a4_x3
+0.38979958032837603 a4_x2
+0.76444417932811382 a4_x1
<= 50.343646249942623

a4_local_4: 
+0.4197076256498754 a4_x3
+0.63316057931486325 a4_x5
+0.65034851408534078 a4_x2
<= 104.7402331077023

a4_local_5: 
+0.6068140382902889 a4_x3
+0.62586769129634812 a4_x2
+0.48996566810870612 a4_x1
<= 95.00777840874197

a4_local_6: 
+0.71250079101605179 a4_x5
+0.26011860558008487 a4_x1
+0.65167548199435332 a4_x6
<= 77.254308084356197

a4_local_7: 
+0.7064308417807228 a4_x6
+0.38107978459008401 a4_x3
+0.59643412340153268 a4_x2
<= 112.45344225473657

a4_local_8: 
+0.42816950302948481 a4_x2
+0.50767791381381544 a4_x6
+0.74761889522746539 a4_x5
<= 85.465063888660438

a4_act_1: 
+0.0099995000374968751 a4_x1
-0.99995000374968745 a4_z1
<= 0

a4_act_2: 
+0.0099995000374968768 a4_x2
-0.99995000374968757 a4_z2
<= 0

coupling_1: 
+7.1090750048589361e-07 a1_x1
+0.00010560724515441141 a2_x1
+0.009282465333383158 a3_x1
+0.9999564042038851 a4_x1
+0.00071217117854582618 short_1
-0.00071217117854582618 surp_1
= 74.440616096114184

coupling_2: 
+8.0848514685759405e-07 a1_x2
+6.7039536856690538e-05 a2_x2
+0.01084001589488578 a3_x2
+0.99994045029091128 a4_x2
+0.0008903461279631856 short_2
-0.0008903461279631856 surp_2
= 36.412981058638266

coupling_3: 
+1.4518702485909475e-06 a1_x3
+9.5988156904887971e-05 a2_x3
+0.0077080767091264974 a3_x3
+0.99996891995114356 a4_x3
+0.0011695018930090789 short_3
-0.0011695018930090789 surp_3
= 58.825679135461947

bounds
  0 <= a1_x1 <= 100
  0 <= a1_x2 <= 100
  0 <= a1_x3 <= 100
  0 <= a1_x4 <= 100
  0 <= a1_x5 <= 100
  0 <= a1_x6 <= 100
  0 <= a2_x1 <= 100
  0 <= a2_x2 <= 100
  0 <= a2_x3 <= 100
  0 <= a2_x4 <= 100
  0 <= a2_x5 <= 100
  0 <= a2_x6 <= 100
  0 <= a3_x1 <= 100
  0 <= a3_x2 <= 100
  0 <= a3_x3 <= 100
  0 <= a3_x4 <= 100
  0 <= a3_x5 <= 100
  0 <= a3_x6 <= 100
  0 <= a4_x1 <= 100
  0 <= a4_x2 <= 100
  0 <= a4_x3 <= 100
  0 <= a4_x4 <= 100
  0 <= a4_x5 <= 100
  0 <= a4_x6 <= 100
  0 <= short_1 <= +inf
  0 <= surp_1 <= +inf
  0 <= short_2 <= +inf
  0 <= surp_2 <= +inf
  0 <= short_3 <= +inf
  0 <= surp_3 <= +inf
 0 <= a1_z1 <= 1
 0 <= a1_z2 <= 1
 0 <= a2_z1 <= 1
 0 <= a2_z2 <= 1
 0 <= a3_z1 <= 1
 0 <= a3_z2 <= 1
 0 <= a4_z1 <= 1
 0 <= a4_z2 <= 1

binary
  a1_z1
  a1_z2
  a2_z1
  a2_z2
  a3_z1
  a3_z2
  a4_z1
  a4_z2
end
