min
obj: 
  +3.0571104005516858 a1_x1
  +8.0556013187453051 a1_x2
  +1.9742345173811016 a1_x3
  +4.4385591714508195 a1_x4
  +2.091774352732247 a1_x5
  +8.3606733491801819 a1_x6
  +15.666425601953888 a1_z1
  +12.324732571684713 a1_z2
  +3.9044727049854391 a2_x1
  +3.1906424171049248 a2_x2
  +7.2566205037606055 a2_x3
  +4.240342031508578 a2_x4
  +1.7216538193625648 a2_x5
  +9.8652119955060549 a2_x6
  +47.432933857706239 a2_z1
  +10.018499727455843 a2_z2
  +7.6634289009813905 a3_x1
  +6.6031951543936822 a3_x2
  +5.6627725428325562 a3_x3
  +4.150259343395577 a3_x4
  +2.0433644620272413 a3_x5
  +3.9564814242041457 a3_x6
  +26.646913444644401 a3_z1
  +25.192698563482555 a3_z2
  +2.4319173360803403 a4_x1
  +1.259802781834898 a4_x2
  +6.7186619976265831 a4_x3
  +9.2328283032404528 a4_x4
  +5.8537835915052003 a4_x5
  +9.834988999700645 a4_x6
  +10.083472599865093 a4_z1
  +40.29173016694412 a4_z2
  +1000000 short_1
  +1000000 surp_1
  +1000000 short_2
  +1000000 surp_2
  +1000000 short_3
  +1000000 surp_3

s.t.

a1_local_1: 
+0.00042275913865406141 a1_x5
+0.00069584490332132642 a1_x1
+0.00029291419282680348 a1_x6
<= 0.055220746349941598

a1_local_2: 
+0.00063266566323345159 a1_x6
+0.0012620616524536196 a1_x4
+0.0011005898610331197 a1_x2
<= 0.1281944818096413

a1_local_3: 
+0.15766412767227525 a1_x4
+0.070114536123867297 a1_x5
+0.12216514535871753 a1_x1
<= 23.132262293862468

a1_local_4: 
+0.37979983081268986 a1_x3
+0.13503761431485364 a1_x1
+0.16731445688047494 a1_x4
<= 30.07639033512212

a1_local_5: 
+0.020985032740236758 a1_x4
+0.024823442334625089 a1_x5
+0.02804357479688694 a1_x1
<= 2.281131851201502

a1_local_6: 
+0.0018196700814851364 a1_x2
+0.0023672097256138228 a1_x5
+0.0030425131815035849 a1_x6
<= 0.27420271615966851

a1_local_7: 
+3.1637503633936007e-06 a1_x1
+3.5370975518008007e-06 a1_x3
+2.8524821630558703e-06 a1_x5
<= 0.0005601286677735679

a1_local_8: 
+0.023766822025133669 a1_x3
+0.020865167544575524 a1_x4
+0.015311984970876817 a1_x1
<= 2.1279581222677471

a1_act_1: 
+0.0072714913446831472 a1_x1
-0.72714913446831475 a1_z1
<= 0

a1_act_2: 
+3.3591845631726094 a1_x2
-335.91845631726096 a1_z2
<= 0

a2_local_1: 
+3.8638644326721336 a2_x2
+2.2156279597576196 a2_x6
+5.6845936038547977 a2_x4
<= 800.50873808928463

a2_local_2: 
+0.0036776675184792989 a2_x2
+0.0039880517403066834 a2_x5
+0.0041452473270994451 a2_x3
<= 0.71663135073482975

a2_local_3: 
+0.067633030891488699 a2_x3
+0.05360167877751873 a2_x5
+0.056266518505496757 a2_x2
<= 8.1294874222530424

a2_local_4: 
+0.001751306204638761 a2_x1
+0.0037419330699007564 a2_x5
+0.0025359957825352181 a2_x6
<= 0.51534610599106123

a2_local_5: 
+1.7884994905382652 a2_x2
+2.1642627269203611 a2_x6
+1.2192877497657146 a2_x1
<= 309.67139157997343

a2_local_6: 
+0.00038127840826591465 a2_x1
+0.00048859966020954712 a2_x5
+0.0002852233089843504 a2_x4
<= 0.075668929064278689

a2_local_7: 
+0.31548587832217934 a2_x6
+0.21376626632492146 a2_x3
+0.3530617698609384 a2_x4
<= 28.022225661689312

a2_local_8: 
+0.025694838129000652 a2_x3
+0.028878193131535026 a2_x1
+0.017251784064557706 a2_x4
<= 3.8307205246837279

a2_act_1: 
+16.625451779619439 a2_x1
-1662.5451779619439 a2_z1
<= 0

a2_act_2: 
+0.23479626078916677 a2_x2
-23.479626078916677 a2_z2
<= 0

a3_local_1: 
+21.66293819588401 a3_x5
+19.968302591540439 a3_x6
+11.459387164192682 a3_x2
<= 2457.0070743408764

a3_local_2: 
+632.01405970430869 a3_x3
+477.38409301137341 a3_x1
+821.95871050109884 a3_x5
<= 124627.19550140564

a3_local_3: 
+7.3801965377304493 a3_x6
+13.806859966213901 a3_x2
+15.600443663850163 a3_x3
<= 1796.331683847711

a3_local_4: 
+266.1158695970193 a3_x5
+363.74955727167469 a3_x6
+328.95116602717076 a3_x3
<= 39732.952472607409

a3_local_5: 
+0.050833621422647704 a3_x5
+0.036057053393398694 a3_x6
+0.02924507045860603 a3_x4
<= 4.3924164555365852

a3_local_6: 
+0.37660339751817606 a3_x3
+0.30640292994962981 a3_x6
+0.40359271948011777 a3_x2
<= 34.929293153371738

a3_local_7: 
+2693.8924300406993 a3_x4
+2684.1571351275734 a3_x6
+2854.7388444185062 a3_x3
<= 286662.15217066172

a3_local_8: 
+16.397644071027404 a3_x6
+9.9166095667289405 a3_x3
+7.718658484783707 a3_x5
<= 1779.6750002324836

a3_act_1: 
+0.003623292301634468 a3_x1
-0.36232923016344681 a3_z1
<= 0

a3_act_2: 
+3.0042679612103265 a3_x2
-300.42679612103262 a3_z2
<= 0

a4_local_1: 
+25775.511358237745 a4_x4
+51318.200392998879 a4_x1
+20166.760576341047 a4_x6
<= 6252887.8802102664

a4_local_2: 
+10926.711149068027 a4_x2
+12035.322802228475 a4_x6
+5149.7122583344453 a4_x1
<= 1494169.2544270642

a4_local_3: 
+257123.83182937631 a4_x4
+373629.49473153241 a4_x3
+280380.80451638816 a4_x5
<= 37493677.814677723

a4_local_4: 
+798.5221491678534 a4_x1
+1520.4951788776229 a4_x6
+922.29710872604653 a4_x4
<= 223527.57312988289

a4_local_5: 
+285769.1956949067 a4_x3
+279982.27778635878 a4_x6
+302185.06523981708 a4_x4
<= 53733075.286635801

a4_local_6: 
+68.702006085384212 a4_x3
+40.940922661905766 a4_x1
+51.919474030799506 a4_x5
<= 6941.3749128838481

a4_local_7: 
+9365.2710638978697 a4_x5
+15824.067055588352 a4_x4
+9030.1892209375183 a4_x3
<= 1969567.8640093412

a4_local_8: 
+3.6363433392006459 a4_x1
+4.7440699838168978 a4_x4
+3.7313607211695259 a4_x6
<= 479.57558514897414

a4_act_1: 
+1.153672581131844 a4_x1
-115.36725811318441 a4_z1
<= 0

a4_act_2: 
+0.027320992065952263 a4_x2
-2.7320992065952265 a4_z2
<= 0

coupling_1: 
+2.3492407852229191e-05 a1_x1
+0.0013027455404509638 a2_x1
+0.16374026146181089 a3_x1
+16.831197112124482 a4_x1
+0.017812945326087647 short_1
-0.017812945326087647 surp_1
= 537.17316464732107

coupling_2: 
+0.0001221611176092452 a1_x2
+0.010273705083236582 a2_x2
+0.88124985162831937 a3_x2
+100.66690459173908 a4_x2
+0.091582529063381671 short_2
-0.091582529063381671 surp_2
= 4455.9589914357857

coupling_3: 
+6.199883546957393e-07 a1_x3
+9.4711905912872124e-05 a2_x3
+0.0099110402777481017 a3_x3
+1.6673043135869585 a4_x3
+0.0011260443590442998 short_3
-0.0011260443590442998 surp_3
= 115.30718088709466

bounds
  0 <= a1_x1 <= 100
  0 <= a1_x2 <= 100
  0 <= a1_x3 <= 100
  0 <= a1_x4 <= 100
  0 <= a1_x5 <= 100
  0 <= a1_x6 <= 100
  0 <= a2_x1 <= 100
  0 <= a2_x2 <= 100
  0 <= a2_x3 <= 100
  0 <= a2_x4 <= 100
  0 <= a2_x5 <= 100
  0 <= a2_x6 <= 100
  0 <= a3_x1 <= 100
  0 <= a3_x2 <= 100
  0 <= a3_x3 <= 100
  0 <= a3_x4 <= 100
  0 <= a3_x5 <= 100
  0 <= a3_x6 <= 100
  0 <= a4_x1 <= 100
  0 <= a4_x2 <= 100
  0 <= a4_x3 <= 100
  0 <= a4_x4 <= 100
  0 <= a4_x5 <= 100
  0 <= a4_x6 <= 100
  0 <= short_1 <= +inf
  0 <= surp_1 <= +inf
  0 <= short_2 <= +inf
  0 <= surp_2 <= +inf
  0 <= short_3 <= +inf
  0 <= surp_3 <= +inf
 0 <= a1_z1 <= 1
 0 <= a1_z2 <= 1
 0 <= a2_z1 <= 1
 0 <= a2_z2 <= 1
 0 <= a3_z1 <= 1
 0 <= a3_z2 <= 1
 0 <= a4_z1 <= 1
 0 <= a4_z2 <= 1

binary
  a1_z1
  a1_z2
  a2_z1
  a2_z2
  a3_z1
  a3_z2
  a4_z1
  a4_z2
end
