min
obj: 
  +3.043052453503527 a1_x1
  +8.5242104678500681 a1_x2
  +7.6930756521091874 a1_x3
  +6.9189962156082423 a1_x4
  +9.2097073421305335 a1_x5
  +1.6783613276554563 a1_x6
  +29.957301038510835 a1_z1
  +31.080729858907144 a1_z2
  +3.9982275243752419 a2_x1
  +4.0716566341487717 a2_x2
  +8.3479540678562252 a2_x3
  +4.8717105490747867 a2_x4
  +6.0061452108085005 a2_x5
  +2.7882654202354971 a2_x6
  +21.648290212377919 a2_z1
  +42.54057128991149 a2_z2
  +2.9928805955584821 a3_x1
  +5.5354110864277946 a3_x2
  +5.213896919227734 a3_x3
  +2.0650047465660801 a3_x4
  +6.4105355661416237 a3_x5
  +2.6598622040549174 a3_x6
  +31.217971703687525 a3_z1
  +44.913093336265895 a3_z2
  +1.3478391985630118 a4_x1
  +6.3176473690479504 a4_x2
  +9.9894359630934186 a4_x3
  +5.7054129264347031 a4_x4
  +4.4415295718065089 a4_x5
  +5.0613340194576661 a4_x6
  +15.238383211322466 a4_z1
  +39.666499040349478 a4_z2
  +1000000 short_1
  +1000000 surp_1
  +1000000 short_2
  +1000000 surp_2
  +1000000 short_3
  +1000000 surp_3

s.t.

a1_local_1: 
+0.61083524062177041 a1_x4
+0.75992141376050715 a1_x3
+1.637102664512444 a1_x1
<= 186.84874811651449

a1_local_2: 
+1.2816727312149632 a1_x5
+0.7802303783525526 a1_x2
+0.96459965814708049 a1_x1
<= 118.14080501464848

a1_local_3: 
+0.83814828794477125 a1_x1
+1.1866722829728054 a1_x5
+1.1931062968011379 a1_x4
<= 184.90245738792163

a1_local_4: 
+1.1540634290172078 a1_x4
+0.86650349959671891 a1_x1
+0.929122169830777 a1_x2
<= 124.03080180922767

a1_local_5: 
+0.67965905899050794 a1_x4
+1.3892055873059548 a1_x6
+0.56317673343729513 a1_x3
<= 180.4408656075085

a1_local_6: 
+0.77981160522968496 a1_x5
+1.3320970965516734 a1_x1
+0.75069602853173789 a1_x6
<= 154.87677919563512

a1_local_7: 
+1.166552677718109 a1_x1
+1.2224709658400099 a1_x2
+0.818015337740851 a1_x4
<= 182.71194594159221

a1_local_8: 
+1.5175426503233507 a1_x3
+1.611638658767014 a1_x6
+0.62048648098640879 a1_x5
<= 192.24584051903969

a1_act_1: 
+0.15953917916736107 a1_x1
-15.953917916736108 a1_z1
<= 0

a1_act_2: 
+0.14005234318508408 a1_x2
-14.005234318508409 a1_z2
<= 0

a2_local_1: 
+0.83121414050046549 a2_x5
+1.0130779955759122 a2_x3
+1.2030594178750498 a2_x6
<= 200.08494408220861

a2_local_2: 
+0.80080234873124034 a2_x4
+1.2487475861982178 a2_x3
+0.85059161206027134 a2_x6
<= 141.84245488227072

a2_local_3: 
+1.1275326115402597 a2_x3
+0.84431617156280259 a2_x1
+1.1843904377065662 a2_x2
<= 209.1570788209392

a2_local_4: 
+1.1738365543853597 a2_x4
+0.90978364752428631 a2_x5
+0.85190735989953614 a2_x1
<= 91.922379094820187

a2_local_5: 
+1.2218594129167173 a2_x1
+1.3712936057216347 a2_x6
+0.72923843284003087 a2_x2
<= 200.80296991925582

a2_local_6: 
+1.0657790371032199 a2_x1
+0.84355059122910936 a2_x5
+1.185465353705619 a2_x3
<= 169.19342062257235

a2_local_7: 
+0.74943303332591926 a2_x3
+1.4059169830871248 a2_x6
+0.71127955066322002 a2_x1
<= 132.19884138635334

a2_local_8: 
+0.72695623445771262 a2_x4
+1.2748383830115055 a2_x1
+1.3755986297386527 a2_x6
<= 121.40413491819473

a2_act_1: 
+0.090548181190998181 a2_x1
-9.0548181190998189 a2_z1
<= 0

a2_act_2: 
+0.10000000000000001 a2_x2
-10 a2_z2
<= 0

a3_local_1: 
+1.6069357663193367 a3_x4
+0.62230240994043307 a3_x2
+1.1489362166329997 a3_x5
<= 180.71658361201321

a3_local_2: 
+1.0413565192452914 a3_x1
+0.96028591699290078 a3_x6
+1.0014092714346958 a3_x3
<= 96.326670460255556

a3_local_3: 
+1.1439014425380363 a3_x2
+0.97424530062977988 a3_x6
+0.8742011879810605 a3_x5
<= 209.12867977639809

a3_local_4: 
+0.83646468463381485 a3_x1
+1.1955077343615257 a3_x5
+1.1212881366714094 a3_x4
<= 100.43263112113524

a3_local_5: 
+1.331871444017187 a3_x4
+0.75082321532760166 a3_x2
+1.15250238353819 a3_x6
<= 131.07917882021135

a3_local_6: 
+0.91886614957596924 a3_x5
+0.7945062754270612 a3_x2
+1.2586432995289838 a3_x1
<= 148.23468286587334

a3_local_7: 
+1.4269328797408114 a3_x2
+1.3457235300016739 a3_x4
+0.70080381088537291 a3_x5
<= 222.96661119032046

a3_local_8: 
+0.76680311613969065 a3_x3
+0.8327969754428447 a3_x5
+1.3041157227350486 a3_x6
<= 143.65188159243465

a3_act_1: 
+0.099999999999999992 a3_x1
-9.9999999999999982 a3_z1
<= 0

a3_act_2: 
+0.10000000000000002 a3_x2
-10 a3_z2
<= 0

a4_local_1: 
+0.7977388225289137 a4_x6
+1.2535431042830505 a4_x2
+0.97361602930101732 a4_x1
<= 93.364521298471416

a4_local_2: 
+0.9755219323215617 a4_x1
+1.1677949602310085 a4_x6
+0.85631470767966322 a4_x5
<= 99.126498019476827

a4_local_3: 
+1.1088163646805385 a4_x6
+0.89504944078909066 a4_x3
+1.1172567172584154 a4_x2
<= 134.03701841242651

a4_local_4: 
+0.83066174780787505 a4_x4
+1.2038594561974358 a4_x6
+1.1137007347118573 a4_x2
<= 122.18659249368859

a4_local_5: 
+1.5178039652775259 a4_x5
+0.65884661186608062 a4_x6
+0.95218348458280611 a4_x1
<= 114.38959660981773

a4_local_6: 
+1.2160102572228435 a4_x5
+1.0453147602173305 a4_x1
+0.82236148425575495 a4_x2
<= 200.88225268007599

a4_local_7: 
+1.3640820842263424 a4_x4
+1.1361642867030539 a4_x2
+0.73309371302766124 a4_x5
<= 154.88574268506832

a4_local_8: 
+1.4019604847134934 a4_x3
+0.71328686571673328 a4_x1
+1.1807311926564821 a4_x2
<= 210.71218896068643

a4_act_1: 
+0.10000000000000001 a4_x1
-10 a4_z1
<= 0

a4_act_2: 
+0.10000000000000001 a4_x2
-10 a4_z2
<= 0

coupling_1: 
+1.3235684726014971e-06 a1_x1
+0.00018260638167602686 a2_x1
+0.011164375598535961 a3_x1
+0.99993583815433462 a4_x1
+0.0013496194353798236 short_1
-0.0013496194353798236 surp_1
= 57.806439709207531

coupling_2: 
+7.9882255025954226e-07 a1_x2
+9.7835216485259773e-05 a2_x2
+0.0046525802310611458 a3_x2
+0.99998861481159163 a4_x2
+0.00074638194654977211 short_2
-0.00074638194654977211 surp_2
= 71.810578637137183

coupling_3: 
+1.0372454153006754e-06 a1_x3
+5.8457542498139835e-05 a2_x3
+0.011034046575296375 a3_x3
+0.99993839229816694 a4_x3
+0.00085381671657085276 short_3
-0.00085381671657085276 surp_3
= 24.849720799303292

bounds
  0 <= a1_x1 <= 100
  0 <= a1_x2 <= 100
  0 <= a1_x3 <= 100
  0 <= a1_x4 <= 100
  0 <= a1_x5 <= 100
  0 <= a1_x6 <= 100
  0 <= a2_x1 <= 100
  0 <= a2_x2 <= 100
  0 <= a2_x3 <= 100
  0 <= a2_x4 <= 100
  0 <= a2_x5 <= 100
  0 <= a2_x6 <= 100
  0 <= a3_x1 <= 100
  0 <= a3_x2 <= 100
  0 <= a3_x3 <= 100
  0 <= a3_x4 <= 100
  0 <= a3_x5 <= 100
  0 <= a3_x6 <= 100
  0 <= a4_x1 <= 100
  0 <= a4_x2 <= 100
  0 <= a4_x3 <= 100
  0 <= a4_x4 <= 100
  0 <= a4_x5 <= 100
  0 <= a4_x6 <= 100
  0 <= short_1 <= +inf
  0 <= surp_1 <= +inf
  0 <= short_2 <= +inf
  0 <= surp_2 <= +inf
  0 <= short_3 <= +inf
  0 <= surp_3 <= +inf
 0 <= a1_z1 <= 1
 0 <= a1_z2 <= 1
 0 <= a2_z1 <= 1
 0 <= a2_z2 <= 1
 0 <= a3_z1 <= 1
 0 <= a3_z2 <= 1
 0 <= a4_z1 <= 1
 0 <= a4_z2 <= 1

binary
  a1_z1
  a1_z2
  a2_z1
  a2_z2
  a3_z1
  a3_z2
  a4_z1
  a4_z2
end
