min
obj: 
  +2.8670230128866887 a1_x1
  +4.6121734767481746 a1_x2
  +8.3726653944305163 a1_x3
  +3.8874111784256438 a1_x4
  +3.5735214707131471 a1_x5
  +7.9063268225890937 a1_x6
  +32.521673256282952 a1_z1
  +46.9551209495583 a1_z2
  +1.341622492975389 a2_x1
  +5.0417707846324316 a2_x2
  +1.1098914253226899 a2_x3
  +7.5349912767704339 a2_x4
  +4.7451420176434915 a2_x5
  +4.9227196469025021 a2_x6
  +7.3717597202086891 a2_z1
  +32.23919956008293 a2_z2
  +7.1988333719011539 a3_x1
  +9.6965932883206509 a3_x2
  +2.6814504435085222 a3_x3
  +4.7418198986047297 a3_x4
  +5.4039251046059666 a3_x5
  +9.8502537099383343 a3_x6
  +17.992052798317559 a3_z1
  +28.73085531973274 a3_z2
  +5.3817190254650331 a4_x1
  +3.7297540390479749 a4_x2
  +6.6577904747627379 a4_x3
  +5.4304281417402382 a4_x4
  +9.7175944926778737 a4_x5
  +8.0479454867151716 a4_x6
  +7.8471654550187315 a4_z1
  +24.374477793367895 a4_z2
  +1000000 short_1
  +1000000 surp_1
  +1000000 short_2
  +1000000 surp_2
  +1000000 short_3
  +1000000 surp_3

s.t.

a1_local_1: 
+0.39177291867941222 a1_x3
+0.68779036958806894 a1_x1
+0.61111241821069429 a1_x2
<= 101.67816044536778

a1_local_2: 
+0.43041855446562399 a1_x4
+0.32327154256234436 a1_x6
+0.29735369272909662 a1_x2
<= 39.383114916812879

a1_local_3: 
+0.82400514536899061 a1_x3
+0.38774036231119746 a1_x4
+0.41312580631111628 a1_x1
<= 106.03853353966039

a1_local_4: 
+0.3564809489976894 a1_x3
+0.32432080677983677 a1_x6
+0.87620622417977745 a1_x1
<= 85.315956664383549

a1_local_5: 
+0.45020744170615423 a1_x5
+0.65088451194159846 a1_x1
+0.61127948726171655 a1_x3
<= 87.333349937401977

a1_local_6: 
+0.67266321542671093 a1_x6
+0.54251822390678717 a1_x3
+0.50318801192081619 a1_x1
<= 78.514808660530989

a1_local_7: 
+0.47534886136480359 a1_x4
+0.6494492745057493 a1_x3
+0.59351419514881065 a1_x6
<= 59.497140617943629

a1_local_8: 
+0.53750857770776106 a1_x6
+0.66337929965646747 a1_x3
+0.52058854547317357 a1_x2
<= 63.282209916442632

a1_act_1: 
+0.0099995000374968751 a1_x1
-0.99995000374968757 a1_z1
<= 0

a1_act_2: 
+0.0099995000374968751 a1_x2
-0.99995000374968745 a1_z2
<= 0

a2_local_1: 
+0.44305386190229851 a2_x3
+0.68979331370255892 a2_x1
+0.57261545545392178 a2_x4
<= 77.099357868251772

a2_local_2: 
+0.72215275482148866 a2_x3
+0.45193598290534326 a2_x4
+0.52368813816919357 a2_x1
<= 110.46492939535651

a2_local_3: 
+0.39597494269970185 a2_x2
+0.55180053242489535 a2_x5
+0.73397548812584312 a2_x6
<= 102.82432565912409

a2_local_4: 
+0.66674037331067437 a2_x3
+0.58707033230575223 a2_x4
+0.45913581816708232 a2_x2
<= 103.08133543225367

a2_local_5: 
+0.45347852699720409 a2_x3
+0.69434697064346951 a2_x5
+0.85108758233358484 a2_x6
<= 125.0712662753257

a2_local_6: 
+0.3543911654947528 a2_x2
+0.82522019450083395 a2_x5
+0.4397937384812074 a2_x1
<= 108.75982796448525

a2_local_7: 
+0.45962061792496889 a2_x6
+0.72883681314772064 a2_x2
+0.49324882994363073 a2_x5
<= 81.911532710638326

a2_local_8: 
+0.52248322477444342 a2_x2
+0.70087229114775906 a2_x4
+0.48558141575907682 a2_x6
<= 111.89103987345453

a2_act_1: 
+0.01261907309766582 a2_x1
-1.2619073097665821 a2_z1
<= 0

a2_act_2: 
+0.0099995000374968751 a2_x2
-0.99995000374968757 a2_z2
<= 0

a3_local_1: 
+0.50679695135329728 a3_x6
+0.69494598077449898 a3_x2
+0.51010482638804067 a3_x1
<= 87.681780942368206

a3_local_2: 
+0.68894482039042559 a3_x3
+0.47270409627566018 a3_x1
+0.54945961800792564 a3_x4
<= 98.645513246634295

a3_local_3: 
+0.57222014825871059 a3_x4
+0.46253952721860953 a3_x1
+0.67721583537832641 a3_x6
<= 99.771504824588064

a3_local_4: 
+0.63053091360848301 a3_x1
+0.63476985121754981 a3_x3
+0.44665199313257425 a3_x5
<= 62.796874624717269

a3_local_5: 
+0.2742750778299119 a3_x5
+0.58225944812390884 a3_x4
+0.76534117669954027 a3_x6
<= 69.977790111635514

a3_local_6: 
+0.38877618047460094 a3_x2
+0.6425610627484527 a3_x3
+0.66027900325177658 a3_x6
<= 90.443702507596441

a3_local_7: 
+0.60103170143918072 a3_x4
+0.34838572651871608 a3_x1
+0.71929707313678837 a3_x2
<= 89.617493274607696

a3_local_8: 
+0.752837361483777 a3_x2
+0.35442509053748988 a3_x1
+0.55463389938917085 a3_x5
<= 54.388548249577433

a3_act_1: 
+0.0099995000374968751 a3_x1
-0.99995000374968745 a3_z1
<= 0

a3_act_2: 
+0.005476320375614168 a3_x2
-0.54763203756141676 a3_z2
<= 0

a4_local_1: 
+0.40835286714628011 a4_x1
+0.72992350926589189 a4_x4
+0.54814195835967339 a4_x3
<= 67.58194210640238

a4_local_2: 
+0.69402579243393325 a4_x1
+0.50114580983945267 a4_x6
+0.51689561491350489 a4_x3
<= 80.323080175010887

a4_local_3: 
+0.55341762310459863 a4_x2
+0.34902494474436035 a4_x5
+0.75624765942345418 a4_x1
<= 94.531552599916665

a4_local_4: 
+0.47799834974959443 a4_x5
+0.49395149325235727 a4_x4
+0.72631226063617504 a4_x3
<= 73.408485874848125

a4_local_5: 
+0.33950806613546908 a4_x1
+0.61535113133073871 a4_x4
+0.71139107261683698 a4_x2
<= 67.47094178306773

a4_local_6: 
+0.59398797369782319 a4_x4
+0.70551761356461118 a4_x2
+0.38655295116251548 a4_x6
<= 85.923719023734122

a4_local_7: 
+0.51319099488252184 a4_x2
+0.54773087930478404 a4_x1
+0.66077672978661672 a4_x3
<= 82.883960259487836

a4_local_8: 
+0.61016323740756173 a4_x1
+0.38072125722768346 a4_x2
+0.69480367587635539 a4_x5
<= 109.84943550541016

a4_act_1: 
+0.0099995000374968751 a4_x1
-0.99995000374968745 a4_z1
<= 0

a4_act_2: 
+0.0099995000374968768 a4_x2
-0.99995000374968757 a4_z2
<= 0

coupling_1: 
+1.2082731608044399e-06 a1_x1
+0.00010056821644712222 a2_x1
+0.009878486350275684 a3_x1
+0.99995053080961416 a4_x1
+0.00081894003817274978 short_1
-0.00081894003817274978 surp_1
= 25.281738255969934

coupling_2: 
+8.8071006316056427e-07 a1_x2
+0.00010475926679339572 a2_x2
+0.014765060825841442 a3_x2
+0.9998892608453962 a4_x2
+0.0013130212444381079 short_2
-0.0013130212444381079 surp_2
= 23.026066738757478

coupling_3: 
+2.2598833037059857e-06 a1_x3
+0.00021907399341258084 a2_x3
+0.016439501212190157 a3_x3
+0.99986247307560461 a4_x3
+0.0015378128151450571 short_3
-0.0015378128151450571 surp_3
= 20.929892739708706

bounds
  0 <= a1_x1 <= 100
  0 <= a1_x2 <= 100
  0 <= a1_x3 <= 100
  0 <= a1_x4 <= 100
  0 <= a1_x5 <= 100
  0 <= a1_x6 <= 100
  0 <= a2_x1 <= 100
  0 <= a2_x2 <= 100
  0 <= a2_x3 <= 100
  0 <= a2_x4 <= 100
  0 <= a2_x5 <= 100
  0 <= a2_x6 <= 100
  0 <= a3_x1 <= 100
  0 <= a3_x2 <= 100
  0 <= a3_x3 <= 100
  0 <= a3_x4 <= 100
  0 <= a3_x5 <= 100
  0 <= a3_x6 <= 100
  0 <= a4_x1 <= 100
  0 <= a4_x2 <= 100
  0 <= a4_x3 <= 100
  0 <= a4_x4 <= 100
  0 <= a4_x5 <= 100
  0 <= a4_x6 <= 100
  0 <= short_1 <= +inf
  0 <= surp_1 <= +inf
  0 <= short_2 <= +inf
  0 <= surp_2 <= +inf
  0 <= short_3 <= +inf
  0 <= surp_3 <= +inf
 0 <= a1_z1 <= 1
 0 <= a1_z2 <= 1
 0 <= a2_z1 <= 1
 0 <= a2_z2 <= 1
 0 <= a3_z1 <= 1
 0 <= a3_z2 <= 1
 0 <= a4_z1 <= 1
 0 <= a4_z2 <= 1

binary
  a1_z1
  a1_z2
  a2_z1
  a2_z2
  a3_z1
  a3_z2
  a4_z1
  a4_z2
end
