min
obj: 
  +4.0092711480649195 a1_x1
  +1.9679731558453351 a1_x2
  +5.1245063990813229 a1_x3
  +5.3289660462088069 a1_x4
  +7.7326436197250805 a1_x5
  +5.1395422066191525 a1_x6
  +7.4601303692563201 a1_z1
  +49.872667351617643 a1_z2
  +9.3684343534405965 a2_x1
  +1.0573707236444929 a2_x2
  +6.6071911877442115 a2_x3
  +2.1574642417771144 a2_x4
  +4.0288495580936399 a2_x5
  +6.5816021448275457 a2_x6
  +37.186317612242192 a2_z1
  +14.569927030673126 a2_z2
  +7.5771846442232071 a3_x1
  +6.3254671996139473 a3_x2
  +1.3182946718516668 a3_x3
  +2.4508427443497842 a3_x4
  +7.5821505201430535 a3_x5
  +8.0396019839617026 a3_x6
  +34.570982164584187 a3_z1
  +17.019236119633661 a3_z2
  +9.6576292080467585 a4_x1
  +1.0103892115093069 a4_x2
  +8.2624531172852755 a4_x3
  +1.8717492610420641 a4_x4
  +5.7231033614351237 a4_x5
  +2.0382344427317065 a4_x6
  +33.41705432517788 a4_z1
  +11.211459891146486 a4_z2
  +1000000 short_1
  +1000000 surp_1
  +1000000 short_2
  +1000000 surp_2
  +1000000 short_3
  +1000000 surp_3

s.t.

a1_local_1: 
+0.81484865006639706 a1_x3
+0.34618784076617559 a1_x6
+0.55081002916895927 a1_x4
<= 64.708723034614579

a1_local_2: 
+1.6071170867054938 a1_x4
+0.89035350617375297 a1_x6
+0.62223219967746579 a1_x2
<= 176.85440397439609

a1_local_3: 
+0.81792847751954667 a1_x6
+1.3832389897170874 a1_x4
+0.72294087098031357 a1_x1
<= 185.6389264350031

a1_local_4: 
+0.53665171784237475 a1_x2
+0.63353613472461745 a1_x5
+0.62227563456439949 a1_x3
<= 120.98501045269663

a1_local_5: 
+1.4849177983047914 a1_x1
+0.67343795134088769 a1_x4
+0.94525559586420527 a1_x2
<= 212.42670500481211

a1_local_6: 
+1.3663465945252318 a1_x1
+1.4006442170372677 a1_x3
+0.71395718329902802 a1_x6
<= 217.30733804183308

a1_local_7: 
+0.70076781639280994 a1_x2
+1.1302460369355531 a1_x5
+0.89271659226711952 a1_x4
<= 151.5182919171599

a1_local_8: 
+1.0069648170297694 a1_x4
+1.5698502088488893 a1_x5
+0.63700345062428698 a1_x6
<= 166.52094511269701

a1_act_1: 
+0.10000000000000001 a1_x1
-10 a1_z1
<= 0

a1_act_2: 
+0.099999999999999992 a1_x2
-10 a1_z2
<= 0

a2_local_1: 
+0.7280498262531877 a2_x4
+1.3735323654238998 a2_x2
+1.1017339962245778 a2_x6
<= 184.84939886414818

a2_local_2: 
+0.95011035691327472 a2_x1
+1.3109961337953542 a2_x4
+0.8376307991786297 a2_x5
<= 199.04132269337796

a2_local_3: 
+0.96770654224011898 a2_x4
+0.71530445937690323 a2_x5
+1.398006103402589 a2_x3
<= 196.83400651691227

a2_local_4: 
+1.2154998417268215 a2_x2
+0.82270681218627895 a2_x1
+1.1666553217880249 a2_x5
<= 146.51193015989224

a2_local_5: 
+1.163697866834567 a2_x2
+0.733753257263832 a2_x3
+1.3628559602297414 a2_x6
<= 183.81935431007571

a2_local_6: 
+1.1027460442782875 a2_x6
+0.79144001316625079 a2_x5
+1.263519639346234 a2_x2
<= 175.93506570070593

a2_local_7: 
+1.2105074769402078 a2_x2
+0.82609981272292021 a2_x5
+0.87327108758008432 a2_x6
<= 194.01853484894809

a2_local_8: 
+1.1836662385825925 a2_x2
+0.97287734364951117 a2_x4
+0.84483274710738765 a2_x5
<= 199.30240257955285

a2_act_1: 
+0.10000000000000001 a2_x1
-10 a2_z1
<= 0

a2_act_2: 
+0.099999999999999992 a2_x2
-10 a2_z2
<= 0

a3_local_1: 
+0.88143664343025763 a3_x1
+0.73314462870439623 a3_x2
+1.3639873509912865 a3_x6
<= 134.52340896694741

a3_local_2: 
+0.84229729769049466 a3_x2
+0.69598732747975822 a3_x1
+1.4368077700798132 a3_x6
<= 128.08415672913611

a3_local_3: 
+0.91130667672903898 a3_x1
+0.70396555294661356 a3_x5
+1.4205240523691318 a3_x2
<= 157.2455208033611

a3_local_4: 
+1.0944969142954275 a3_x4
+1.665335088880131 a3_x6
+1.5680222214622026 a3_x5
<= 277.90359633294628

a3_local_5: 
+0.83552718991282382 a3_x4
+1.227151298725647 a3_x1
+0.81489544201963071 a3_x5
<= 93.645727166268031

a3_local_6: 
+1.3939135438177297 a3_x5
+0.79057115147503088 a3_x6
+0.71740460836698905 a3_x1
<= 171.02377893711852

a3_local_7: 
+0.83765024242845099 a3_x6
+1.0340723751649801 a3_x1
+1.1938156874411889 a3_x4
<= 192.30563072468618

a3_local_8: 
+0.97442474373049093 a3_x3
+1.2503020548506238 a3_x1
+0.79980673159772719 a3_x6
<= 123.20269830932487

a3_act_1: 
+0.10000000000000001 a3_x1
-10 a3_z1
<= 0

a3_act_2: 
+0.099999999999999992 a3_x2
-10 a3_z2
<= 0

a4_local_1: 
+0.87130639001612431 a4_x3
+0.84643491755682787 a4_x2
+1.1814257413746903 a4_x5
<= 172.75665374490433

a4_local_2: 
+0.65774104868531857 a4_x2
+1.2968193500530434 a4_x5
+1.5203551640859008 a4_x3
<= 240.41552455674221

a4_local_3: 
+1.4629246448779396 a4_x4
+0.68356220773315091 a4_x5
+0.69800044754070889 a4_x2
<= 96.420857622196209

a4_local_4: 
+1.0782476998348445 a4_x5
+1.0984864699200434 a4_x3
+0.91034348385992248 a4_x1
<= 102.15220852671972

a4_local_5: 
+0.92200139531732517 a4_x5
+1.4067863590490539 a4_x6
+0.71083998900584366 a4_x1
<= 163.17136891814118

a4_local_6: 
+1.4874221672957824 a4_x3
+0.67230408554288024 a4_x2
+0.86180851001723469 a4_x1
<= 148.19601680940303

a4_local_7: 
+0.85990313566602627 a4_x1
+0.75937737592490484 a4_x2
+1.6805027350584232 a4_x3
<= 201.58167028230662

a4_local_8: 
+1.1273928806136477 a4_x3
+0.80573190113536342 a4_x1
+1.2411076172991189 a4_x4
<= 182.44338108433513

a4_act_1: 
+0.10000000000000001 a4_x1
-10.000000000000002 a4_z1
<= 0

a4_act_2: 
+0.099999999999999992 a4_x2
-10 a4_z2
<= 0

coupling_1: 
+0.00091942160570959676 a1_x1
+0.11800857259731438 a2_x1
+11.936839415158477 a3_x1
+482.96311924032972 a4_x1
+0.81454849785512862 short_1
-0.81454849785512862 surp_1
= 27992.36014147634

coupling_2: 
+0.00092762744747277952 a1_x2
+0.084919793219618483 a2_x2
+6.9490906424594323 a3_x2
+1078.018985665411 a4_x2
+1.1478236356672109 short_2
-1.1478236356672109 surp_2
= 59595.793328330372

coupling_3: 
+0.00096378000324272035 a1_x3
+0.064190484688442656 a2_x3
+9.1883827069858306 a3_x3
+1037.5811872371437 a4_x3
+1.2101135910311673 short_3
-1.2101135910311673 surp_3
= 22843.10524210619

bounds
  0 <= a1_x1 <= 100
  0 <= a1_x2 <= 100
  0 <= a1_x3 <= 100
  0 <= a1_x4 <= 100
  0 <= a1_x5 <= 100
  0 <= a1_x6 <= 100
  0 <= a2_x1 <= 100
  0 <= a2_x2 <= 100
  0 <= a2_x3 <= 100
  0 <= a2_x4 <= 100
  0 <= a2_x5 <= 100
  0 <= a2_x6 <= 100
  0 <= a3_x1 <= 100
  0 <= a3_x2 <= 100
  0 <= a3_x3 <= 100
  0 <= a3_x4 <= 100
  0 <= a3_x5 <= 100
  0 <= a3_x6 <= 100
  0 <= a4_x1 <= 100
  0 <= a4_x2 <= 100
  0 <= a4_x3 <= 100
  0 <= a4_x4 <= 100
  0 <= a4_x5 <= 100
  0 <= a4_x6 <= 100
  0 <= short_1 <= +inf
  0 <= surp_1 <= +inf
  0 <= short_2 <= +inf
  0 <= surp_2 <= +inf
  0 <= short_3 <= +inf
  0 <= surp_3 <= +inf
 0 <= a1_z1 <= 1
 0 <= a1_z2 <= 1
 0 <= a2_z1 <= 1
 0 <= a2_z2 <= 1
 0 <= a3_z1 <= 1
 0 <= a3_z2 <= 1
 0 <= a4_z1 <= 1
 0 <= a4_z2 <= 1

binary
  a1_z1
  a1_z2
  a2_z1
  a2_z2
  a3_z1
  a3_z2
  a4_z1
  a4_z2
end
