min
obj: 
  +9.9278906915658744 a1_x1
  +4.1029321056614965 a1_x2
  +3.3290118192963942 a1_x3
  +9.1017647242801925 a1_x4
  +1.0276781995025082 a1_x5
  +7.5015228430107515 a1_x6
  +48.476105885704612 a1_z1
  +46.462393702811802 a1_z2
  +3.1850077691017789 a2_x1
  +1.0794293017939207 a2_x2
  +3.499564475939096 a2_x3
  +4.2123952542391079 a2_x4
  +5.825176560091875 a2_x5
  +3.8934254066749405 a2_x6
  +48.499085817086311 a2_z1
  +41.1366386984797 a2_z2
  +2.6719241979528361 a3_x1
  +3.8682188322270532 a3_x2
  +5.9140343670384405 a3_x3
  +8.8118059009872773 a3_x4
  +5.9790956134935263 a3_x5
  +2.6868556403382673 a3_x6
  +5.1863767770133045 a3_z1
  +6.8806666184499186 a3_z2
  +1.2856225251920637 a4_x1
  +5.2994894770405514 a4_x2
  +9.0295106348529277 a4_x3
  +3.0822666442565567 a4_x4
  +2.1929853575171814 a4_x5
  +7.0676293507155048 a4_x6
  +41.576942647234446 a4_z1
  +44.440960753164354 a4_z2
  +1000000 short_1
  +1000000 surp_1
  +1000000 short_2
  +1000000 surp_2
  +1000000 short_3
  +1000000 surp_3

s.t.

a1_local_1: 
+0.6448703090665312 a1_x4
+0.62715795005958963 a1_x6
+0.4368239807536779 a1_x1
<= 68.134168933867841

a1_local_2: 
+0.47749044367553245 a1_x6
+0.57407049842735403 a1_x5
+0.76261841892306748 a1_x4
<= 80.910693585893085

a1_local_3: 
+0.69187850913634241 a1_x3
+0.5596181476074521 a1_x1
+0.45621448624925998 a1_x6
<= 101.42087380321365

a1_local_4: 
+0.64076899997732262 a1_x5
+0.67641350257041122 a1_x2
+0.36315267066137696 a1_x4
<= 70.831046148713042

a1_local_5: 
+0.6898961202616003 a1_x4
+1.3570092637664048 a1_x2
+0.83665774675490345 a1_x5
<= 171.97831232026974

a1_local_6: 
+0.40417115018398819 a1_x3
+0.38134916990410539 a1_x4
+0.19876395896508675 a1_x1
<= 37.902126222012072

a1_local_7: 
+0.66021050181277285 a1_x1
+0.49253464439347366 a1_x2
+0.56703766838572622 a1_x5
<= 90.782935610441243

a1_local_8: 
+0.60048625924283972 a1_x5
+0.64977477468682576 a1_x2
+0.46605685773436034 a1_x4
<= 77.921614892845611

a1_act_1: 
+0.014616550732594802 a1_x1
-1.4616550732594802 a1_z1
<= 0

a1_act_2: 
+0.0099995000374968751 a1_x2
-0.99995000374968745 a1_z2
<= 0

a2_local_1: 
+0.53923796050476791 a2_x6
+0.32873021339790798 a2_x4
+0.77534435494818965 a2_x1
<= 108.91256355524723

a2_local_2: 
+0.61132284953184846 a2_x2
+0.59031462912152288 a2_x1
+0.52707970202368781 a2_x4
<= 96.282682778944121

a2_local_3: 
+0.65523060180262305 a2_x3
+0.67391663327311346 a2_x4
+0.34133448384129667 a2_x5
<= 116.08739757168594

a2_local_4: 
+0.69960515190139205 a2_x4
+1.1990351681012938 a2_x3
+1.2122993823975901 a2_x2
<= 115.16402552259734

a2_local_5: 
+0.76560967632259569 a2_x1
+0.50416216570169492 a2_x4
+0.81019833923564533 a2_x2
<= 90.282244456689696

a2_local_6: 
+0.3606370966657349 a2_x3
+0.74443169307690971 a2_x5
+0.56192734303569458 a2_x1
<= 105.77715627541777

a2_local_7: 
+0.44695403758900687 a2_x3
+0.57421353435983591 a2_x6
+0.68593797477677987 a2_x4
<= 112.35119026785895

a2_local_8: 
+0.21081017695932555 a2_x1
+0.38580676975577255 a2_x6
+0.36434006330295821 a2_x5
<= 56.428520836092176

a2_act_1: 
+0.0099995000374968751 a2_x1
-0.99995000374968745 a2_z1
<= 0

a2_act_2: 
+0.0099995000374968768 a2_x2
-0.99995000374968757 a2_z2
<= 0

a3_local_1: 
+0.71358288090222211 a3_x1
+0.63176022955442335 a3_x4
+0.30278455118553704 a3_x2
<= 63.46998796561401

a3_local_2: 
+0.38781087529701169 a3_x6
+0.70025373615686692 a3_x4
+0.59937253023450654 a3_x1
<= 65.660705588808838

a3_local_3: 
+0.78080195138319797 a3_x2
+0.4795159479683162 a3_x3
+0.40051562810986185 a3_x5
<= 86.885049796609493

a3_local_4: 
+0.52755043460227158 a3_x5
+0.95054779539014478 a3_x1
+0.7851956883939446 a3_x6
<= 101.23005789889081

a3_local_5: 
+0.56253379692003913 a3_x6
+0.39202186068769773 a3_x3
+0.7279248505619792 a3_x1
<= 64.080460403783221

a3_local_6: 
+0.52683728921957151 a3_x2
+0.64773196948122647 a3_x6
+0.55035058499082667 a3_x4
<= 71.162242291632239

a3_local_7: 
+0.36311171618923099 a3_x2
+0.17133647769049273 a3_x5
+0.38581120867114072 a3_x4
<= 48.834434227317331

a3_local_8: 
+0.61440012342858352 a3_x2
+0.66150209910170144 a3_x1
+0.43003193045980226 a3_x5
<= 105.99279894451459

a3_act_1: 
+0.0099995000374968734 a3_x1
-0.99995000374968745 a3_z1
<= 0

a3_act_2: 
+0.0091760250473212814 a3_x2
-0.91760250473212812 a3_z2
<= 0

a4_local_1: 
+0.68398731547087088 a4_x2
+0.30701050273891406 a4_x6
+0.6617445908225853 a4_x5
<= 108.65450007313822

a4_local_2: 
+0.29355431155367595 a4_x3
+0.74378320935682118 a4_x5
+0.60051011952099065 a4_x1
<= 94.295715234906439

a4_local_3: 
+0.46504008228414995 a4_x4
+0.66662887429837736 a4_x3
+0.58253211569906538 a4_x6
<= 105.22686396257046

a4_local_4: 
+0.73273612164256763 a4_x5
+0.47968518718265596 a4_x1
+0.48270062900077976 a4_x4
<= 81.744403272861248

a4_local_5: 
+0.44154259406591362 a4_x5
+0.79200384505297172 a4_x6
+0.42162785373697981 a4_x1
<= 101.92063285757359

a4_local_6: 
+0.60353779186966161 a4_x4
+0.60342364200718224 a4_x3
+0.52117371581065075 a4_x2
<= 72.145994422269723

a4_local_7: 
+0.49161390536252247 a4_x3
+0.78464791920210564 a4_x6
+0.37768162643424241 a4_x1
<= 100.56889343927341

a4_local_8: 
+0.54785981381314142 a4_x3
+0.56789266677678463 a4_x2
+0.61428620644597076 a4_x6
<= 65.765067917168679

a4_act_1: 
+0.0099995000374968751 a4_x1
-0.99995000374968757 a4_z1
<= 0

a4_act_2: 
+0.0099995000374968768 a4_x2
-0.99995000374968757 a4_z2
<= 0

coupling_1: 
+8.4634598211979067e-07 a1_x1
+0.00010875503192077823 a2_x1
+0.0096929288549723568 a3_x1
+0.99995225866138826 a4_x1
+0.00087054575618836076 short_1
-0.00087054575618836076 surp_1
= 29.479051108249944

coupling_2: 
+1.3011607799716273e-06 a1_x2
+9.9901590237409219e-05 a2_x2
+0.023220591585706059 a3_x2
+0.99972706995725114 a4_x2
+0.0018137997517153194 short_2
-0.0018137997517153194 surp_2
= 57.518459865119667

coupling_3: 
+5.3725723930604775e-07 a1_x3
+4.0032556720706189e-05 a2_x3
+0.0069391102616908323 a3_x3
+0.9999754433865109 a4_x3
+0.00069273726362575774 short_3
-0.00069273726362575774 surp_3
= 35.712391932500601

bounds
  0 <= a1_x1 <= 100
  0 <= a1_x2 <= 100
  0 <= a1_x3 <= 100
  0 <= a1_x4 <= 100
  0 <= a1_x5 <= 100
  0 <= a1_x6 <= 100
  0 <= a2_x1 <= 100
  0 <= a2_x2 <= 100
  0 <= a2_x3 <= 100
  0 <= a2_x4 <= 100
  0 <= a2_x5 <= 100
  0 <= a2_x6 <= 100
  0 <= a3_x1 <= 100
  0 <= a3_x2 <= 100
  0 <= a3_x3 <= 100
  0 <= a3_x4 <= 100
  0 <= a3_x5 <= 100
  0 <= a3_x6 <= 100
  0 <= a4_x1 <= 100
  0 <= a4_x2 <= 100
  0 <= a4_x3 <= 100
  0 <= a4_x4 <= 100
  0 <= a4_x5 <= 100
  0 <= a4_x6 <= 100
  0 <= short_1 <= +inf
  0 <= surp_1 <= +inf
  0 <= short_2 <= +inf
  0 <= surp_2 <= +inf
  0 <= short_3 <= +inf
  0 <= surp_3 <= +inf
 0 <= a1_z1 <= 1
 0 <= a1_z2 <= 1
 0 <= a2_z1 <= 1
 0 <= a2_z2 <= 1
 0 <= a3_z1 <= 1
 0 <= a3_z2 <= 1
 0 <= a4_z1 <= 1
 0 <= a4_z2 <= 1

binary
  a1_z1
  a1_z2
  a2_z1
  a2_z2
  a3_z1
  a3_z2
  a4_z1
  a4_z2
end
