min
obj: 
  +3.043052453503527 a1_x1
  +8.5242104678500681 a1_x2
  +7.6930756521091874 a1_x3
  +6.9189962156082423 a1_x4
  +9.2097073421305335 a1_x5
  +1.6783613276554563 a1_x6
  +29.957301038510835 a1_z1
  +31.080729858907144 a1_z2
  +3.9982275243752419 a2_x1
  +4.0716566341487717 a2_x2
  +8.3479540678562252 a2_x3
  +4.8717105490747867 a2_x4
  +6.0061452108085005 a2_x5
  +2.7882654202354971 a2_x6
  +21.648290212377919 a2_z1
  +42.54057128991149 a2_z2
  +2.9928805955584821 a3_x1
  +5.5354110864277946 a3_x2
  +5.213896919227734 a3_x3
  +2.0650047465660801 a3_x4
  +6.4105355661416237 a3_x5
  +2.6598622040549174 a3_x6
  +31.217971703687525 a3_z1
  +44.913093336265895 a3_z2
  +1.3478391985630118 a4_x1
  +6.3176473690479504 a4_x2
  +9.9894359630934186 a4_x3
  +5.7054129264347031 a4_x4
  +4.4415295718065089 a4_x5
  +5.0613340194576661 a4_x6
  +15.238383211322466 a4_z1
  +39.666499040349478 a4_z2
  +1000000 short_1
  +1000000 surp_1
  +1000000 short_2
  +1000000 surp_2
  +1000000 short_3
  +1000000 surp_3

s.t.

a1_local_1: 
+3.1313928544072796e-06 a1_x4
+3.8956699396362879e-06 a1_x3
+8.3924620661492946e-06 a1_x1
<= 0.00095786358709662499

a1_local_2: 
+1.2192505791251467e-06 a1_x5
+7.4223030379650784e-07 a1_x2
+9.1762012499467921e-07 a1_x1
<= 0.00011238691549275237

a1_local_3: 
+0.16338495189288835 a1_x1
+0.23132469117315857 a1_x5
+0.232578909615098 a1_x4
<= 36.04407422853685

a1_local_4: 
+0.041224393941978743 a1_x4
+0.030952442232658021 a1_x1
+0.033189248862992009 a1_x2
<= 4.4305143947567647

a1_local_5: 
+0.67965905899050794 a1_x4
+1.3892055873059548 a1_x6
+0.56317673343729513 a1_x3
<= 180.4408656075085

a1_local_6: 
+2.1330075114113806e-06 a1_x5
+3.6436661032213224e-06 a1_x1
+2.0533680916088203e-06 a1_x6
<= 0.00042363223521172094

a1_local_7: 
+0.0036025569093635938 a1_x1
+0.0037752441947996808 a1_x2
+0.0025262012279704442 a1_x4
<= 0.56425243012832738

a1_local_8: 
+0.00041239891066530181 a1_x3
+0.00043796991611404581 a1_x6
+0.00016861993881148456 a1_x5
<= 0.052243655354987414

a1_act_1: 
+0.15953917916736107 a1_x1
-15.953917916736108 a1_z1
<= 0

a1_act_2: 
+0.14005234318508408 a1_x2
-14.005234318508409 a1_z2
<= 0

a2_local_1: 
+3.5711530408107617 a2_x5
+4.3524964124180032 a2_x3
+5.1687153635689418 a2_x6
<= 859.62680573434056

a2_local_2: 
+24.155602592410741 a2_x4
+37.66753491448592 a2_x3
+25.657458400214573 a2_x6
<= 4278.5713307366805

a2_local_3: 
+0.00037985653526579575 a2_x3
+0.00028444322790860204 a2_x1
+0.00039901147289618007 a2_x2
<= 0.070463312966802

a2_local_4: 
+11.039709967467411 a2_x4
+8.5563425029575733 a2_x5
+8.0120270043611583 a2_x1
<= 864.51252598601241

a2_local_5: 
+18.93873614083844 a2_x1
+21.254955763189059 a2_x6
+11.303145122357243 a2_x2
<= 3112.4321042135443

a2_local_6: 
+0.060123666806320135 a2_x1
+0.047587119764696019 a2_x5
+0.066875516833542481 a2_x3
<= 9.5446884327749366

a2_local_7: 
+14.630502760012464 a2_x3
+27.446444694491138 a2_x6
+13.885666852628658 a2_x1
<= 2580.7983205516916

a2_local_8: 
+0.046110225106669199 a2_x4
+0.080861930923713854 a2_x1
+0.087253068984257637 a2_x6
<= 7.7005625987021284

a2_act_1: 
+0.090548181190998181 a2_x1
-9.0548181190998189 a2_z1
<= 0

a2_act_2: 
+56.381147970457484 a2_x2
-5638.1147970457487 a2_z2
<= 0

a3_local_1: 
+0.02697193115831209 a3_x4
+0.010445157866521436 a3_x2
+0.019284547142352018 a3_x5
<= 3.0332732362495292

a3_local_2: 
+138.30751103504772 a3_x1
+127.54013885422467 a3_x6
+133.00192710171055 a3_x3
<= 12793.603143049071

a3_local_3: 
+31.369030152014549 a3_x2
+26.716576336424932 a3_x6
+23.973082299695569 a3_x5
<= 5734.9030411233989

a3_local_4: 
+709.27442933497287 a3_x1
+1013.7224937667603 a3_x5
+950.78850054004795 a3_x4
<= 85161.153164807896

a3_local_5: 
+2170.7737252033899 a3_x4
+1223.7422128294031 a3_x2
+1878.4259574430055 a3_x6
<= 213641.66833242777

a3_local_6: 
+172.58476365659172 a3_x5
+149.2270422972216 a3_x2
+236.4029368993564 a3_x1
<= 27841.974285288918

a3_local_7: 
+0.035177902704831482 a3_x2
+0.033175864175615646 a3_x4
+0.017276781987796593 a3_x5
<= 5.4967531172901278

a3_local_8: 
+1.818325518548277 a3_x3
+1.9748172123255738 a3_x5
+3.0924586088369268 a3_x6
<= 340.64269770053306

a3_act_1: 
+0.017873706055158502 a3_x1
-1.7873706055158503 a3_z1
<= 0

a3_act_2: 
+25.217603223975495 a3_x2
-2521.7603223975493 a3_z2
<= 0

a4_local_1: 
+20025.648788640639 a4_x6
+31467.71003097928 a4_x2
+24440.696763339929 a4_x1
<= 2343730.8803847032

a4_local_2: 
+176087.4970488087 a4_x1
+210793.91943953562 a4_x6
+154569.88568422102 a4_x5
<= 17892921.060138389

a4_local_3: 
+1566.3714057005589 a4_x6
+1264.3931812318012 a4_x3
+1578.2946847512123 a4_x2
<= 189347.63197427508

a4_local_4: 
+1.9138993071600792 a4_x4
+2.7737713759118385 a4_x6
+2.566039751046409 a4_x2
<= 281.52594643374584

a4_local_5: 
+5.7687461060536016 a4_x5
+2.5040907216197126 a4_x6
+3.618981696316264 a4_x1
<= 434.76269341230136

a4_local_6: 
+28.27105410076226 a4_x5
+24.302550050787787 a4_x1
+19.119103538546085 a4_x2
<= 4670.3167178635676

a4_local_7: 
+4193.3322479556546 a4_x4
+3492.6888913064163 a4_x2
+2253.6074208143864 a4_x5
<= 476135.11463881162

a4_local_8: 
+3.3559031385143063 a4_x3
+1.7074101998024587 a4_x1
+2.8263417966358686 a4_x2
<= 504.38632469794408

a4_act_1: 
+1.2795591266645479 a4_x1
-127.95591266645478 a4_z1
<= 0

a4_act_2: 
+0.51068065813316343 a4_x2
-51.068065813316345 a4_z2
<= 0

coupling_1: 
+0.33821601537150853 a1_x1
+46.662038323173036 a2_x1
+2852.8713906474341 a3_x1
+255517.05242948394 a4_x1
+344.87290771207569 short_1
-344.87290771207569 surp_1
= 14771478.851285689

coupling_2: 
+0.0045798977957756115 a1_x2
+0.56091968383277191 a2_x2
+26.674687561064616 a3_x2
+5733.2453262471072 a4_x2
+4.2792395265999543 short_2
-4.2792395265999543 surp_2
= 411712.35176916211

coupling_3: 
+0.0054419839207751558 a1_x3
+0.30670177147101646 a2_x3
+57.890932230768811 a3_x3
+5246.2498964866154 a4_x3
+4.4796118395189151 short_3
-4.4796118395189151 surp_3
= 130375.87732924291

bounds
  0 <= a1_x1 <= 100
  0 <= a1_x2 <= 100
  0 <= a1_x3 <= 100
  0 <= a1_x4 <= 100
  0 <= a1_x5 <= 100
  0 <= a1_x6 <= 100
  0 <= a2_x1 <= 100
  0 <= a2_x2 <= 100
  0 <= a2_x3 <= 100
  0 <= a2_x4 <= 100
  0 <= a2_x5 <= 100
  0 <= a2_x6 <= 100
  0 <= a3_x1 <= 100
  0 <= a3_x2 <= 100
  0 <= a3_x3 <= 100
  0 <= a3_x4 <= 100
  0 <= a3_x5 <= 100
  0 <= a3_x6 <= 100
  0 <= a4_x1 <= 100
  0 <= a4_x2 <= 100
  0 <= a4_x3 <= 100
  0 <= a4_x4 <= 100
  0 <= a4_x5 <= 100
  0 <= a4_x6 <= 100
  0 <= short_1 <= +inf
  0 <= surp_1 <= +inf
  0 <= short_2 <= +inf
  0 <= surp_2 <= +inf
  0 <= short_3 <= +inf
  0 <= surp_3 <= +inf
 0 <= a1_z1 <= 1
 0 <= a1_z2 <= 1
 0 <= a2_z1 <= 1
 0 <= a2_z2 <= 1
 0 <= a3_z1 <= 1
 0 <= a3_z2 <= 1
 0 <= a4_z1 <= 1
 0 <= a4_z2 <= 1

binary
  a1_z1
  a1_z2
  a2_z1
  a2_z2
  a3_z1
  a3_z2
  a4_z1
  a4_z2
end
