min
obj: 
  +1.5869078218103445 a1_x1
  +1.8591431952918778 a1_x2
  +3.3231109040519993 a1_x3
  +9.2087059181463786 a1_x4
  +9.6203246603591985 a1_x5
  +2.6522167369866532 a1_x6
  +45.971215901918207 a1_z1
  +15.231591264695247 a1_z2
  +7.3851642913844699 a2_x1
  +8.184615433312981 a2_x2
  +6.3286902635835114 a2_x3
  +1.720840343178456 a2_x4
  +2.5195780412124975 a2_x5
  +8.1969421632275719 a2_x6
  +32.909722818284479 a2_z1
  +29.006081337850453 a2_z2
  +9.6251817518945995 a3_x1
  +3.9009418953480735 a3_x2
  +1.3219510135661245 a3_x3
  +4.7485775019531236 a3_x4
  +3.5558983548633152 a3_x5
  +8.1243659823807501 a3_x6
  +20.822115549059351 a3_z1
  +25.222874624514855 a3_z2
  +3.9740281273618923 a4_x1
  +5.8725760658506196 a4_x2
  +8.5449306619724936 a4_x3
  +7.8945369096479574 a4_x4
  +2.7042977066829055 a4_x5
  +9.2622687133164359 a4_x6
  +13.310232891557296 a4_z1
  +27.542990425232677 a4_z2
  +1000000 short_1
  +1000000 surp_1
  +1000000 short_2
  +1000000 surp_2
  +1000000 short_3
  +1000000 surp_3

s.t.

a1_local_1: 
+0.53246830785528043 a1_x4
+0.69012198110526712 a1_x1
+0.49011136726776255 a1_x3
<= 75.931814365354413

a1_local_2: 
+0.6961784645200112 a1_x2
+0.47322524293868901 a1_x4
+0.53980868368726553 a1_x3
<= 115.09745279685556

a1_local_3: 
+0.39363520896456561 a1_x6
+0.78920363589640452 a1_x4
+0.47139043621112853 a1_x1
<= 71.439889216297018

a1_local_4: 
+0.63759636823170907 a1_x6
+0.56665544691223801 a1_x2
+0.52189316502750516 a1_x1
<= 67.621854702021153

a1_local_5: 
+0.40846880477800945 a1_x1
+0.59511297047828349 a1_x2
+0.69209377102509617 a1_x5
<= 88.502184901274106

a1_local_6: 
+0.42686743713977271 a1_x1
+0.6754137272748264 a1_x2
+0.60133226099923198 a1_x6
<= 61.782549730103099

a1_local_7: 
+0.33550665993360718 a1_x5
+0.71373623814206655 a1_x2
+0.61482994681700875 a1_x4
<= 110.23329386021827

a1_local_8: 
+0.63697201480423715 a1_x1
+0.44880667154185588 a1_x2
+0.62676887601072795 a1_x3
<= 107.30496701647058

a1_act_1: 
+0.0099995000374968768 a1_x1
-0.99995000374968757 a1_z1
<= 0

a1_act_2: 
+0.0099995000374968768 a1_x2
-0.99995000374968768 a1_z2
<= 0

a2_local_1: 
+0.24792846551420999 a2_x1
+0.63101896579301975 a2_x5
+0.37804780958388268 a2_x3
<= 67.28692938756403

a2_local_2: 
+0.27663207421369351 a2_x4
+0.65373268083756764 a2_x2
+0.53352991591368026 a2_x5
<= 66.991548826047861

a2_local_3: 
+0.63861542181410968 a2_x2
+0.56816630194893958 a2_x1
+0.51899652826474008 a2_x5
<= 57.358889792003382

a2_local_4: 
+0.63488124547400782 a2_x6
+0.4330955239608868 a2_x2
+0.63980783933179308 a2_x4
<= 79.787787456841116

a2_local_5: 
+0.38430315262398557 a2_x1
+0.69611865206745294 a2_x6
+0.60640737885274598 a2_x2
<= 79.963330176758035

a2_local_6: 
+0.59168379616070732 a2_x4
+0.619874212765261 a2_x6
+0.57007871762431406 a2_x5
<= 93.424163906640487

a2_local_7: 
+0.45177316437931558 a2_x4
+0.31177802693303136 a2_x6
+0.6052643612623726 a2_x3
<= 84.210297667911135

a2_local_8: 
+0.67337856361790527 a2_x5
+0.58705384102281077 a2_x1
+0.44936521650017713 a2_x4
<= 111.38710584505168

a2_act_1: 
+0.0099995000374968768 a2_x1
-0.99995000374968757 a2_z1
<= 0

a2_act_2: 
+0.0099995000374968751 a2_x2
-0.99995000374968745 a2_z2
<= 0

a3_local_1: 
+0.36554576178837733 a3_x3
+0.42386759466282453 a3_x5
+0.18825210633589823 a3_x4
<= 33.873065397564908

a3_local_2: 
+0.5976449516254726 a3_x3
+0.6644609502547828 a3_x5
+0.44867823368545245 a3_x2
<= 87.120231492733453

a3_local_3: 
+0.46365429726410096 a3_x5
+0.59152824592302933 a3_x6
+0.65963552580478635 a3_x2
<= 86.025905751169972

a3_local_4: 
+1.3154777720472985 a3_x4
+1.150785931492802 a3_x3
+0.55391563952994038 a3_x1
<= 131.88004542216606

a3_local_5: 
+0.71826790167457422 a3_x1
+0.61124667272427946 a3_x4
+0.33236835966665346 a3_x5
<= 95.346587516316603

a3_local_6: 
+0.39874655304907541 a3_x5
+0.72397073837245551 a3_x4
+0.56290990079401049 a3_x6
<= 68.173856952020856

a3_local_7: 
+0.64657871153568125 a3_x5
+0.49624509506998427 a3_x4
+0.57937619506486504 a3_x2
<= 104.55524219681379

a3_local_8: 
+0.7489385994264951 a3_x6
+0.3422312223846265 a3_x2
+0.56742291521774502 a3_x3
<= 90.497382928690811

a3_act_1: 
+0.0055031354937043996 a3_x1
-0.55031354937043997 a3_z1
<= 0

a3_act_2: 
+0.0099995000374968768 a3_x2
-0.99995000374968757 a3_z2
<= 0

a4_local_1: 
+0.53231102975291911 a4_x3
+0.44628892202161397 a4_x2
+0.71935468698283511 a4_x4
<= 100.50105393825339

a4_local_2: 
+0.64808858862810526 a4_x5
+0.32804273085199476 a4_x4
+0.68729116684648028 a4_x1
<= 66.743244988416052

a4_local_3: 
+0.48683511536909579 a4_x3
+0.58943244357704672 a4_x2
+0.64464018250676147 a4_x6
<= 98.660894889931996

a4_local_4: 
+0.51997354613037339 a4_x1
+0.61544933228311516 a4_x6
+0.5923256120723398 a4_x5
<= 79.817992873673788

a4_local_5: 
+0.56662000448558147 a4_x1
+0.62763989475477278 a4_x2
+0.53386321565451356 a4_x6
<= 67.980090691553897

a4_local_6: 
+0.28357326232914637 a4_x6
+0.83305908349641022 a4_x3
+0.47497238687751725 a4_x5
<= 65.273324420121497

a4_local_7: 
+0.48611282887096741 a4_x1
+0.51038557666546014 a4_x4
+0.70936653483155754 a4_x5
<= 54.928813102811439

a4_local_8: 
+0.52642041201404344 a4_x5
+0.4637935436525451 a4_x1
+0.71258480104558741 a4_x6
<= 97.158698272168834

a4_act_1: 
+0.0099995000374968751 a4_x1
-0.99995000374968745 a4_z1
<= 0

a4_act_2: 
+0.0099995000374968751 a4_x2
-0.99995000374968757 a4_z2
<= 0

coupling_1: 
+1.0417771199878478e-06 a1_x1
+7.0541080084727493e-05 a2_x1
+0.0050827735474931442 a3_x1
+0.99998657740226882 a4_x1
+0.00070903146326514992 short_1
-0.00070903146326514992 surp_1
= 59.743617134628074

coupling_2: 
+1.3109708178243608e-06 a1_x2
+6.3849045535202919e-05 a2_x2
+0.015893389645302344 a3_x2
+0.9998723454331041 a4_x2
+0.0011595096520664583 short_2
-0.0011595096520664583 surp_2
= 78.960729320558684

coupling_3: 
+1.1876709685365632e-06 a1_x3
+0.00010533723826393831 a2_x3
+0.021556232723087054 a3_x3
+1.5316870558218862 a4_x3
+0.0018022163461375836 short_3
-0.0018022163461375836 surp_3
= 79.189638004452291

bounds
  0 <= a1_x1 <= 100
  0 <= a1_x2 <= 100
  0 <= a1_x3 <= 100
  0 <= a1_x4 <= 100
  0 <= a1_x5 <= 100
  0 <= a1_x6 <= 100
  0 <= a2_x1 <= 100
  0 <= a2_x2 <= 100
  0 <= a2_x3 <= 100
  0 <= a2_x4 <= 100
  0 <= a2_x5 <= 100
  0 <= a2_x6 <= 100
  0 <= a3_x1 <= 100
  0 <= a3_x2 <= 100
  0 <= a3_x3 <= 100
  0 <= a3_x4 <= 100
  0 <= a3_x5 <= 100
  0 <= a3_x6 <= 100
  0 <= a4_x1 <= 100
  0 <= a4_x2 <= 100
  0 <= a4_x3 <= 100
  0 <= a4_x4 <= 100
  0 <= a4_x5 <= 100
  0 <= a4_x6 <= 100
  0 <= short_1 <= +inf
  0 <= surp_1 <= +inf
  0 <= short_2 <= +inf
  0 <= surp_2 <= +inf
  0 <= short_3 <= +inf
  0 <= surp_3 <= +inf
 0 <= a1_z1 <= 1
 0 <= a1_z2 <= 1
 0 <= a2_z1 <= 1
 0 <= a2_z2 <= 1
 0 <= a3_z1 <= 1
 0 <= a3_z2 <= 1
 0 <= a4_z1 <= 1
 0 <= a4_z2 <= 1

binary
  a1_z1
  a1_z2
  a2_z1
  a2_z2
  a3_z1
  a3_z2
  a4_z1
  a4_z2
end
