min
obj: 
  +4.0092711480649195 a1_x1
  +1.9679731558453351 a1_x2
  +5.1245063990813229 a1_x3
  +5.3289660462088069 a1_x4
  +7.7326436197250805 a1_x5
  +5.1395422066191525 a1_x6
  +7.4601303692563201 a1_z1
  +49.872667351617643 a1_z2
  +9.3684343534405965 a2_x1
  +1.0573707236444929 a2_x2
  +6.6071911877442115 a2_x3
  +2.1574642417771144 a2_x4
  +4.0288495580936399 a2_x5
  +6.5816021448275457 a2_x6
  +37.186317612242192 a2_z1
  +14.569927030673126 a2_z2
  +7.5771846442232071 a3_x1
  +6.3254671996139473 a3_x2
  +1.3182946718516668 a3_x3
  +2.4508427443497842 a3_x4
  +7.5821505201430535 a3_x5
  +8.0396019839617026 a3_x6
  +34.570982164584187 a3_z1
  +17.019236119633661 a3_z2
  +9.6576292080467585 a4_x1
  +1.0103892115093069 a4_x2
  +8.2624531172852755 a4_x3
  +1.8717492610420641 a4_x4
  +5.7231033614351237 a4_x5
  +2.0382344427317065 a4_x6
  +33.41705432517788 a4_z1
  +11.211459891146486 a4_z2
  +1000000 short_1
  +1000000 surp_1
  +1000000 short_2
  +1000000 surp_2
  +1000000 short_3
  +1000000 surp_3

s.t.

a1_local_1: 
+0.81484865006639706 a1_x3
+0.34618784076617559 a1_x6
+0.55081002916895927 a1_x4
<= 64.708723034614579

a1_local_2: 
+0.00016390586869488379 a1_x4
+9.0804936418230724e-05 a1_x6
+6.3459912200381424e-05 a1_x2
<= 0.018036940155593834

a1_local_3: 
+0.0048859375753669398 a1_x6
+0.0082628488203111989 a1_x4
+0.0043185242516596495 a1_x1
<= 1.1089236174661554

a1_local_4: 
+0.53665171784237475 a1_x2
+0.63353613472461745 a1_x5
+0.62227563456439949 a1_x3
<= 120.98501045269663

a1_local_5: 
+0.086321235140881275 a1_x1
+0.039148292125567252 a1_x4
+0.054949594281904983 a1_x2
<= 12.348788312630354

a1_local_6: 
+8.2880355386342783e-05 a1_x1
+8.4960793215290489e-05 a1_x3
+4.3307477999765302e-05 a1_x6
<= 0.013181508613651145

a1_local_7: 
+0.70076781639280994 a1_x2
+1.1302460369355531 a1_x5
+0.89271659226711952 a1_x4
<= 151.5182919171599

a1_local_8: 
+0.00027205734071022623 a1_x4
+0.00042413524872954501 a1_x5
+0.00017210280028577999 a1_x6
<= 0.044989899084601846

a1_act_1: 
+31.827979240727029 a1_x1
-3182.7979240727027 a1_z1
<= 0

a1_act_2: 
+0.019957419963247 a1_x2
-1.9957419963247001 a1_z2
<= 0

a2_local_1: 
+0.0027193929375824797 a2_x4
+0.005130382673528393 a2_x2
+0.0041151684134675274 a2_x6
<= 0.69044470812457737

a2_local_2: 
+0.95011035691327472 a2_x1
+1.3109961337953542 a2_x4
+0.8376307991786297 a2_x5
<= 199.04132269337796

a2_local_3: 
+0.040034201921514141 a2_x4
+0.029592280213135921 a2_x5
+0.057835775814400726 a2_x3
<= 8.1430599235975745

a2_local_4: 
+0.0021675958511962498 a2_x2
+0.0014671296627339742 a2_x1
+0.002080491620378256 a2_x5
<= 0.2612741203768183

a2_local_5: 
+0.034945448442288529 a2_x2
+0.022034359047871075 a2_x3
+0.040926097786896244 a2_x6
<= 5.5200322625071152

a2_local_6: 
+16.995240733545629 a2_x6
+12.197471593492791 a2_x5
+19.473042368794836 a2_x2
<= 2711.4663530827384

a2_local_7: 
+0.49411300730548158 a2_x2
+0.33720292569426186 a2_x5
+0.35645761095818285 a2_x6
<= 79.195778261146927

a2_local_8: 
+61.655746539726131 a2_x2
+50.676007272223003 a2_x4
+44.006318695452975 a2_x5
<= 10381.421736686581

a2_act_1: 
+71.802502317585123 a2_x1
-7180.2502317585122 a2_z1
<= 0

a2_act_2: 
+822.12451377479601 a2_x2
-82212.451377479607 a2_z2
<= 0

a3_local_1: 
+96.202023257373753 a3_x1
+80.017091582623266 a3_x2
+148.86871772447458 a3_x6
<= 14682.194363664945

a3_local_2: 
+0.17199121481701771 a3_x2
+0.14211574259909204 a3_x1
+0.29338609361817269 a3_x6
<= 26.153888627044108

a3_local_3: 
+7.9420963005618486 a3_x1
+6.1351050711577857 a3_x5
+12.37995848079855 a3_x2
<= 1370.4048274230099

a3_local_4: 
+1.0944969142954275 a3_x4
+1.665335088880131 a3_x6
+1.5680222214622026 a3_x5
<= 277.90359633294628

a3_local_5: 
+0.30927732583720291 a3_x4
+0.45424024095148546 a3_x1
+0.30164031307114336 a3_x5
<= 34.663743351171533

a3_local_6: 
+3.7945098011755989 a3_x5
+2.1520918539772409 a3_x6
+1.9529179768218403 a3_x1
<= 465.56072884807486

a3_local_7: 
+2.02192212890085 a3_x6
+2.4960463357231397 a3_x1
+2.8816351192932399 a3_x4
<= 464.18778456652853

a3_local_8: 
+0.43026423891893589 a3_x3
+0.55207984558105172 a3_x1
+0.35316040245004049 a3_x6
<= 54.40103564886742

a3_act_1: 
+828.65138942756585 a3_x1
-82865.138942756588 a3_z1
<= 0

a3_act_2: 
+0.011341287366947634 a3_x2
-1.1341287366947634 a3_z2
<= 0

a4_local_1: 
+13400.991066241271 a4_x3
+13018.459290908911 a4_x2
+18170.73303605257 a4_x5
<= 2657056.5761905597

a4_local_2: 
+746.62739026327381 a4_x2
+1472.0699717743353 a4_x5
+1725.8141493580845 a4_x3
<= 272904.99207455514

a4_local_3: 
+372.24738896571893 a4_x4
+173.93530686301233 a4_x5
+177.60917830160091 a4_x2
<= 24534.69672369392

a4_local_4: 
+285383.66687471763 a4_x5
+290740.33438333654 a4_x3
+240943.85879908968 a4_x1
<= 27036989.601898875

a4_local_5: 
+457673.31347819895 a4_x5
+698316.26890360448 a4_x6
+352854.66461701103 a4_x1
<= 80996820.02307269

a4_local_6: 
+125.34317826465472 a4_x3
+56.654212028762643 a4_x2
+72.623509368208829 a4_x1
<= 12488.290252406166

a4_local_7: 
+0.85990313566602627 a4_x1
+0.75937737592490484 a4_x2
+1.6805027350584232 a4_x3
<= 201.58167028230662

a4_local_8: 
+85.284962493565217 a4_x3
+60.951968164634344 a4_x1
+93.887249433595628 a4_x4
<= 13801.468131063155

a4_act_1: 
+0.042945125292637998 a4_x1
-4.2945125292638 a4_z1
<= 0

a4_act_2: 
+267.49153779604319 a4_x2
-26749.153779604319 a4_z2
<= 0

coupling_1: 
+0.00091942160570959676 a1_x1
+0.11800857259731438 a2_x1
+11.936839415158477 a3_x1
+482.96311924032972 a4_x1
+0.81454849785512862 short_1
-0.81454849785512862 surp_1
= 27992.36014147634

coupling_2: 
+3.4163807279636547e-06 a1_x2
+0.00031275308397628727 a2_x2
+0.025592967750630975 a3_x2
+3.970261226141985 a4_x2
+0.0042273463971749334 short_2
-0.0042273463971749334 surp_2
= 219.48673505651885

coupling_3: 
+8.6944316549702855e-06 a1_x3
+0.00057907383442829972 a2_x3
+0.082890042537518874 a3_x3
+9.3602053254516022 a4_x3
+0.010916650974881717 short_3
-0.010916650974881717 surp_3
= 206.07173488405311

bounds
  0 <= a1_x1 <= 100
  0 <= a1_x2 <= 100
  0 <= a1_x3 <= 100
  0 <= a1_x4 <= 100
  0 <= a1_x5 <= 100
  0 <= a1_x6 <= 100
  0 <= a2_x1 <= 100
  0 <= a2_x2 <= 100
  0 <= a2_x3 <= 100
  0 <= a2_x4 <= 100
  0 <= a2_x5 <= 100
  0 <= a2_x6 <= 100
  0 <= a3_x1 <= 100
  0 <= a3_x2 <= 100
  0 <= a3_x3 <= 100
  0 <= a3_x4 <= 100
  0 <= a3_x5 <= 100
  0 <= a3_x6 <= 100
  0 <= a4_x1 <= 100
  0 <= a4_x2 <= 100
  0 <= a4_x3 <= 100
  0 <= a4_x4 <= 100
  0 <= a4_x5 <= 100
  0 <= a4_x6 <= 100
  0 <= short_1 <= +inf
  0 <= surp_1 <= +inf
  0 <= short_2 <= +inf
  0 <= surp_2 <= +inf
  0 <= short_3 <= +inf
  0 <= surp_3 <= +inf
 0 <= a1_z1 <= 1
 0 <= a1_z2 <= 1
 0 <= a2_z1 <= 1
 0 <= a2_z2 <= 1
 0 <= a3_z1 <= 1
 0 <= a3_z2 <= 1
 0 <= a4_z1 <= 1
 0 <= a4_z2 <= 1

binary
  a1_z1
  a1_z2
  a2_z1
  a2_z2
  a3_z1
  a3_z2
  a4_z1
  a4_z2
end
