min
obj: 
  +9.9278906915658744 a1_x1
  +4.1029321056614965 a1_x2
  +3.3290118192963942 a1_x3
  +9.1017647242801925 a1_x4
  +1.0276781995025082 a1_x5
  +7.5015228430107515 a1_x6
  +48.476105885704612 a1_z1
  +46.462393702811802 a1_z2
  +3.1850077691017789 a2_x1
  +1.0794293017939207 a2_x2
  +3.499564475939096 a2_x3
  +4.2123952542391079 a2_x4
  +5.825176560091875 a2_x5
  +3.8934254066749405 a2_x6
  +48.499085817086311 a2_z1
  +41.1366386984797 a2_z2
  +2.6719241979528361 a3_x1
  +3.8682188322270532 a3_x2
  +5.9140343670384405 a3_x3
  +8.8118059009872773 a3_x4
  +5.9790956134935263 a3_x5
  +2.6868556403382673 a3_x6
  +5.1863767770133045 a3_z1
  +6.8806666184499186 a3_z2
  +1.2856225251920637 a4_x1
  +5.2994894770405514 a4_x2
  +9.0295106348529277 a4_x3
  +3.0822666442565567 a4_x4
  +2.1929853575171814 a4_x5
  +7.0676293507155048 a4_x6
  +41.576942647234446 a4_z1
  +44.440960753164354 a4_z2
  +1000000 short_1
  +1000000 surp_1
  +1000000 short_2
  +1000000 surp_2
  +1000000 short_3
  +1000000 surp_3

s.t.

a1_local_1: 
+1.2150186794697522 a1_x4
+1.1816463149053791 a1_x6
+0.8230326141458264 a1_x1
<= 128.37354550348243

a1_local_2: 
+0.47749044367553245 a1_x6
+0.57407049842735403 a1_x5
+0.76261841892306748 a1_x4
<= 80.910693585893085

a1_local_3: 
+1.2314885684734131 a1_x3
+0.99607567280722864 a1_x1
+0.81202540210310448 a1_x6
<= 180.52106698494026

a1_local_4: 
+1.2928577326049484 a1_x5
+1.3647764284281898 a1_x2
+0.73272074397687093 a1_x4
<= 142.91338333331126

a1_local_5: 
+0.6898961202616003 a1_x4
+1.3570092637664048 a1_x2
+0.83665774675490345 a1_x5
<= 171.97831232026974

a1_local_6: 
+1.4259813184398664 a1_x3
+1.3454616734476368 a1_x4
+0.70127145921804723 a1_x1
<= 133.72484378742823

a1_local_7: 
+1.1577714136341215 a1_x1
+0.86372835624012034 a1_x2
+0.99437982447742601 a1_x5
<= 159.20056922293952

a1_local_8: 
+1.0911945770574754 a1_x5
+1.1807609242233659 a1_x2
+0.84691149536282317 a1_x4
<= 141.59798379707559

a1_act_1: 
+0.10000000000000001 a1_x1
-10 a1_z1
<= 0

a1_act_2: 
+0.099999999999999992 a1_x2
-9.9999999999999982 a1_z2
<= 0

a2_local_1: 
+1.0681034847569864 a2_x6
+0.65113718282470334 a2_x4
+1.5357746821674225 a2_x1
<= 215.73015475075724

a2_local_2: 
+1.0769540369010857 a2_x2
+1.0399443164295967 a2_x1
+0.92854473425577277 a2_x4
<= 169.61908749502484

a2_local_3: 
+1.3661582270586314 a2_x3
+1.4051186717543707 a2_x4
+0.7116836606771747 a2_x5
<= 242.04265309659422

a2_local_4: 
+0.69960515190139205 a2_x4
+1.1990351681012938 a2_x3
+1.2122993823975901 a2_x2
<= 115.16402552259734

a2_local_5: 
+0.76560967632259569 a2_x1
+0.50416216570169492 a2_x4
+0.81019833923564533 a2_x2
<= 90.282244456689696

a2_local_6: 
+0.69602168714649226 a2_x3
+1.4367368409161783 a2_x5
+1.084507447984373 a2_x1
<= 204.14759172879505

a2_local_7: 
+0.80721460123616018 a2_x3
+1.0370496967943301 a2_x6
+1.2388279380335914 a2_x4
<= 202.91017335852419

a2_local_8: 
+0.73919813831602588 a2_x1
+1.3528172599001793 a2_x6
+1.2775450426164823 a2_x5
<= 197.86453458560703

a2_act_1: 
+0.10000000000000001 a2_x1
-10 a2_z1
<= 0

a2_act_2: 
+0.10000000000000001 a2_x2
-10 a2_z2
<= 0

a3_local_1: 
+1.53516604128286 a3_x1
+1.3591369364393544 a3_x4
+0.65139533647080361 a3_x2
<= 136.54611506689665

a3_local_2: 
+0.74418733476839072 a3_x6
+1.3437476738450871 a3_x4
+1.15016229358445 a3_x1
<= 125.99921405949327

a3_local_3: 
+1.3962420443705421 a3_x2
+0.85747778462066959 a3_x3
+0.71620819902384669 a3_x5
<= 155.36918079975092

a3_local_4: 
+0.52755043460227158 a3_x5
+0.95054779539014478 a3_x1
+0.7851956883939446 a3_x6
<= 101.23005789889081

a3_local_5: 
+1.0530529378288007 a3_x6
+0.73385772437237728 a3_x3
+1.3626619531125568 a3_x1
<= 119.95744514390121

a3_local_6: 
+0.90186303545680035 a3_x2
+1.1088158186830359 a3_x6
+0.94211412005498973 a3_x4
<= 121.81862817287377

a3_local_7: 
+1.4123031394288179 a3_x2
+0.66640384915273365 a3_x5
+1.5005915726198169 a3_x4
<= 189.93885819847264

a3_local_8: 
+1.1519545091647601 a3_x2
+1.2402672083296455 a3_x1
+0.80627786761110121 a3_x5
<= 198.72861027724042

a3_act_1: 
+0.099999999999999992 a3_x1
-10 a3_z1
<= 0

a3_act_2: 
+0.10000000000000001 a3_x2
-10.000000000000002 a3_z2
<= 0

a4_local_1: 
+1.4926136450452161 a4_x2
+0.66996573649151303 a4_x6
+1.4440750339305362 a4_x5
<= 237.10847516680201

a4_local_2: 
+0.62823343579449831 a4_x3
+1.5917650080743404 a4_x5
+1.2851473160769955 a4_x1
<= 201.80157071851758

a4_local_3: 
+0.83522432276703862 a4_x4
+1.1972831402790947 a4_x3
+1.0462431312050047 a4_x6
<= 188.9902387733014

a4_local_4: 
+1.2359350453004121 a4_x5
+0.80910400898692481 a4_x1
+0.81419027416480227 a4_x4
<= 137.88152348163101

a4_local_5: 
+0.76408964291946702 a4_x5
+1.3705629837085009 a4_x6
+0.72962717648639297 a4_x1
<= 176.37369760672303

a4_local_6: 
+1.0761206922296818 a4_x4
+1.0759171606021949 a4_x3
+0.92926379654315294 a4_x2
<= 128.63783926236405

a4_local_7: 
+0.903074992008286 a4_x3
+1.441366701863797 a4_x6
+0.69378597320648794 a4_x1
<= 184.74101657474728

a4_local_8: 
+0.94438556672081331 a4_x3
+0.97891764358082112 a4_x2
+1.0588895417708428 a4_x6
<= 113.36400182943726

a4_act_1: 
+0.099999999999999992 a4_x1
-10 a4_z1
<= 0

a4_act_2: 
+0.10000000000000001 a4_x2
-10 a4_z2
<= 0

coupling_1: 
+0.00091999260308929629 a1_x1
+0.11821858557803702 a2_x1
+10.536379964267628 a3_x1
+1086.9652610706239 a4_x1
+0.94629817269069538 short_1
-0.94629817269069538 surp_1
= 32044.234318634328

coupling_2: 
+0.0011408400425957652 a1_x2
+0.087592353086692207 a2_x2
+20.359498304516542 a3_x2
+876.54707291364855 a4_x2
+1.590314907933372 short_2
-1.590314907933372 surp_2
= 50431.401877942248

coupling_3: 
+0.00073298733471213978 a1_x3
+0.054616959820447557 a2_x3
+9.4671221974787212 a3_x3
+1364.2800532054514 a4_x3
+0.94511083959833997 short_3
-0.94511083959833997 surp_3
= 48722.900435199917

bounds
  0 <= a1_x1 <= 100
  0 <= a1_x2 <= 100
  0 <= a1_x3 <= 100
  0 <= a1_x4 <= 100
  0 <= a1_x5 <= 100
  0 <= a1_x6 <= 100
  0 <= a2_x1 <= 100
  0 <= a2_x2 <= 100
  0 <= a2_x3 <= 100
  0 <= a2_x4 <= 100
  0 <= a2_x5 <= 100
  0 <= a2_x6 <= 100
  0 <= a3_x1 <= 100
  0 <= a3_x2 <= 100
  0 <= a3_x3 <= 100
  0 <= a3_x4 <= 100
  0 <= a3_x5 <= 100
  0 <= a3_x6 <= 100
  0 <= a4_x1 <= 100
  0 <= a4_x2 <= 100
  0 <= a4_x3 <= 100
  0 <= a4_x4 <= 100
  0 <= a4_x5 <= 100
  0 <= a4_x6 <= 100
  0 <= short_1 <= +inf
  0 <= surp_1 <= +inf
  0 <= short_2 <= +inf
  0 <= surp_2 <= +inf
  0 <= short_3 <= +inf
  0 <= surp_3 <= +inf
 0 <= a1_z1 <= 1
 0 <= a1_z2 <= 1
 0 <= a2_z1 <= 1
 0 <= a2_z2 <= 1
 0 <= a3_z1 <= 1
 0 <= a3_z2 <= 1
 0 <= a4_z1 <= 1
 0 <= a4_z2 <= 1

binary
  a1_z1
  a1_z2
  a2_z1
  a2_z2
  a3_z1
  a3_z2
  a4_z1
  a4_z2
end
