min
obj: 
  +2.370294118728955 a1_x1
  +4.0871141162290519 a1_x2
  +7.6613663727576089 a1_x3
  +4.8999168943267346 a1_x4
  +9.1856075433138287 a1_x5
  +7.8055232956727103 a1_x6
  +17.430873114549655 a1_z1
  +23.402378726140935 a1_z2
  +7.7696749959897602 a2_x1
  +1.8033642153830525 a2_x2
  +9.5715816001394138 a2_x3
  +5.6582749389411147 a2_x4
  +2.4417372334426313 a2_x5
  +7.2729933705310286 a2_x6
  +31.321727314252385 a2_z1
  +17.358761230317288 a2_z2
  +2.3493759750782877 a3_x1
  +3.4440486133066264 a3_x2
  +8.9723629811002734 a3_x3
  +1.1828241076108115 a3_x4
  +8.9432908674835829 a3_x5
  +1.7190508218957756 a3_x6
  +16.001764697499688 a3_z1
  +34.61198408971174 a3_z2
  +6.5610669509273256 a4_x1
  +3.9905359855651432 a4_x2
  +4.1004087373899605 a4_x3
  +4.8874480478433391 a4_x4
  +2.9132673248674479 a4_x5
  +5.3684179760125765 a4_x6
  +43.700484803270278 a4_z1
  +7.0959851654145574 a4_z2
  +1000000 short_1
  +1000000 surp_1
  +1000000 short_2
  +1000000 surp_2
  +1000000 short_3
  +1000000 surp_3

s.t.

a1_local_1: 
+1.0372523503706268 a1_x3
+0.7454429063124044 a1_x2
+0.41440856740815485 a1_x1
<= 153.68415857053131

a1_local_2: 
+5.0520538762428082e-06 a1_x6
+3.004179779773167e-06 a1_x3
+2.9553180635184069e-06 a1_x2
<= 0.00034103847346889175

a1_local_3: 
+0.24218771161057853 a1_x4
+0.28014360271422756 a1_x3
+0.20293179282498808 a1_x6
<= 22.322649601612007

a1_local_4: 
+0.021909009371186065 a1_x5
+0.041373480370974464 a1_x3
+0.019914106129079626 a1_x6
<= 4.4866797833654299

a1_local_5: 
+0.028190231970192006 a1_x3
+0.021344802495614858 a1_x5
+0.011303680127603979 a1_x4
<= 3.6878102179283254

a1_local_6: 
+0.0017740123501992805 a1_x3
+0.001280064359907313 a1_x1
+0.00097302258842427625 a1_x6
<= 0.20048277974245665

a1_local_7: 
+0.0034749955519298072 a1_x6
+0.0040781257661203774 a1_x1
+0.00392096557193584 a1_x4
<= 0.52810063156433706

a1_local_8: 
+0.0051533765988775581 a1_x3
+0.0078497229301395331 a1_x2
+0.0084097517278571201 a1_x4
<= 0.78116086386479178

a1_act_1: 
+10.812379224557572 a1_x1
-1081.2379224557571 a1_z1
<= 0

a1_act_2: 
+170.48682286075174 a1_x2
-17048.682286075174 a1_z2
<= 0

a2_local_1: 
+0.55050479235961181 a2_x3
+0.64377804921711546 a2_x2
+0.32022670502124734 a2_x1
<= 95.92115741547083

a2_local_2: 
+0.2471135532286021 a2_x6
+0.58431512168375754 a2_x2
+0.6456994592371772 a2_x1
<= 94.350026352719439

a2_local_3: 
+0.015452062148855708 a2_x2
+0.025560043097467001 a2_x3
+0.014378900373229541 a2_x1
<= 3.0908607359089788

a2_local_4: 
+0.087047876788643258 a2_x1
+0.083465725058532572 a2_x4
+0.099186479026084781 a2_x5
<= 15.295626384123523

a2_local_5: 
+0.18079093197437057 a2_x1
+0.27204575687786042 a2_x6
+0.24366519440099618 a2_x3
<= 21.554780866292948

a2_local_6: 
+3.9748397046536712 a2_x1
+3.2401112733845756 a2_x6
+7.0316462740003614 a2_x2
<= 694.67176429411018

a2_local_7: 
+0.00058068537436686222 a2_x3
+0.00052230379240694215 a2_x2
+0.00069019608662523174 a2_x4
<= 0.073743675993972538

a2_local_8: 
+0.16089190144518592 a2_x4
+0.082870602627815385 a2_x3
+0.1420686623932651 a2_x1
<= 23.32331923196983

a2_act_1: 
+0.08103809945015665 a2_x1
-8.1038099450156658 a2_z1
<= 0

a2_act_2: 
+182.88117749700692 a2_x2
-18288.11774970069 a2_z2
<= 0

a3_local_1: 
+91.162764669472438 a3_x5
+61.258345296793081 a3_x4
+161.21982867558313 a3_x2
<= 14078.254354409819

a3_local_2: 
+7443.3092871254657 a3_x4
+5383.0174931983656 a3_x5
+7620.3261111556667 a3_x3
<= 1029211.5870506502

a3_local_3: 
+0.24025701093121368 a3_x4
+0.12720012433466252 a3_x3
+0.27726601906173887 a3_x6
<= 27.329192531831445

a3_local_4: 
+525.46845325813274 a3_x4
+553.65648042893497 a3_x5
+675.21330440357769 a3_x2
<= 96578.31337185156

a3_local_5: 
+0.028807909205416406 a3_x4
+0.011310869119317496 a3_x6
+0.024732200593447579 a3_x5
<= 2.6687785001840396

a3_local_6: 
+13.216755760307311 a3_x1
+12.665923640321635 a3_x5
+14.274097599518541 a3_x3
<= 1330.3141526409095

a3_local_7: 
+0.43793593683801402 a3_x6
+0.34299559613885788 a3_x4
+0.59915709157121722 a3_x1
<= 52.029891307184087

a3_local_8: 
+18.458848159530092 a3_x4
+9.0197759325801812 a3_x2
+17.331420254036235 a3_x1
<= 2834.1958555133206

a3_act_1: 
+61.655601583946897 a3_x1
-6165.56015839469 a3_z1
<= 0

a3_act_2: 
+0.088720732042829403 a3_x2
-8.8720732042829411 a3_z2
<= 0

a4_local_1: 
+7391.5926097776119 a4_x5
+9280.0227799950735 a4_x2
+6979.347589664304 a4_x1
<= 1582375.4451625212

a4_local_2: 
+5.6531192863894688 a4_x4
+3.1002426732168695 a4_x2
+6.4543540506299353 a4_x6
<= 949.33736559444662

a4_local_3: 
+4068.0209394969866 a4_x1
+2904.4846946355538 a4_x3
+3071.2881396424123 a4_x6
<= 497550.49697431456

a4_local_4: 
+10078.874785800614 a4_x3
+13287.539305858007 a4_x4
+10856.346131249933 a4_x1
<= 2065880.2779404323

a4_local_5: 
+83.781821072257699 a4_x6
+86.554597978936457 a4_x3
+45.795776923687029 a4_x4
<= 10338.579485438022

a4_local_6: 
+189.91593543757284 a4_x5
+406.76792310535041 a4_x4
+202.08084958661439 a4_x2
<= 44729.86676872988

a4_local_7: 
+266842.00365515245 a4_x6
+193527.08161670994 a4_x2
+207784.71056224417 a4_x4
<= 45220364.321165152

a4_local_8: 
+1164.5819342492002 a4_x6
+1915.1896522747711 a4_x2
+1880.7137906820096 a4_x1
<= 179264.83019125916

a4_act_1: 
+0.0047583988237079105 a4_x1
-0.47583988237079106 a4_z1
<= 0

a4_act_2: 
+626.4391985946537 a4_x2
-62643.919859465372 a4_z2
<= 0

coupling_1: 
+1.9791081258341971e-05 a1_x1
+0.003212162254058638 a2_x1
+0.28068677888654286 a3_x1
+31.24884237867462 a4_x1
+0.023194753697511176 short_1
-0.023194753697511176 surp_1
= 660.1331287934471

coupling_2: 
+0.0031550376595250299 a1_x2
+0.45948907959665791 a2_x2
+39.409616387513118 a3_x2
+4255.3378226611239 a4_x2
+3.2871468437309543 short_2
-3.2871468437309543 surp_2
= 337333.56272418238

coupling_3: 
+6.9017895194492531e-06 a1_x3
+0.0007407910866853081 a2_x3
+0.14941062749647105 a3_x3
+13.493310866510441 a4_x3
+0.011394379666510142 short_3
-0.011394379666510142 surp_3
= 758.45065274273486

bounds
  0 <= a1_x1 <= 100
  0 <= a1_x2 <= 100
  0 <= a1_x3 <= 100
  0 <= a1_x4 <= 100
  0 <= a1_x5 <= 100
  0 <= a1_x6 <= 100
  0 <= a2_x1 <= 100
  0 <= a2_x2 <= 100
  0 <= a2_x3 <= 100
  0 <= a2_x4 <= 100
  0 <= a2_x5 <= 100
  0 <= a2_x6 <= 100
  0 <= a3_x1 <= 100
  0 <= a3_x2 <= 100
  0 <= a3_x3 <= 100
  0 <= a3_x4 <= 100
  0 <= a3_x5 <= 100
  0 <= a3_x6 <= 100
  0 <= a4_x1 <= 100
  0 <= a4_x2 <= 100
  0 <= a4_x3 <= 100
  0 <= a4_x4 <= 100
  0 <= a4_x5 <= 100
  0 <= a4_x6 <= 100
  0 <= short_1 <= +inf
  0 <= surp_1 <= +inf
  0 <= short_2 <= +inf
  0 <= surp_2 <= +inf
  0 <= short_3 <= +inf
  0 <= surp_3 <= +inf
 0 <= a1_z1 <= 1
 0 <= a1_z2 <= 1
 0 <= a2_z1 <= 1
 0 <= a2_z2 <= 1
 0 <= a3_z1 <= 1
 0 <= a3_z2 <= 1
 0 <= a4_z1 <= 1
 0 <= a4_z2 <= 1

binary
  a1_z1
  a1_z2
  a2_z1
  a2_z2
  a3_z1
  a3_z2
  a4_z1
  a4_z2
end
