min
obj: 
  +9.9278906915658744 a1_x1
  +4.1029321056614965 a1_x2
  +3.3290118192963942 a1_x3
  +9.1017647242801925 a1_x4
  +1.0276781995025082 a1_x5
  +7.5015228430107515 a1_x6
  +48.476105885704612 a1_z1
  +46.462393702811802 a1_z2
  +3.1850077691017789 a2_x1
  +1.0794293017939207 a2_x2
  +3.499564475939096 a2_x3
  +4.2123952542391079 a2_x4
  +5.825176560091875 a2_x5
  +3.8934254066749405 a2_x6
  +48.499085817086311 a2_z1
  +41.1366386984797 a2_z2
  +2.6719241979528361 a3_x1
  +3.8682188322270532 a3_x2
  +5.9140343670384405 a3_x3
  +8.8118059009872773 a3_x4
  +5.9790956134935263 a3_x5
  +2.6868556403382673 a3_x6
  +5.1863767770133045 a3_z1
  +6.8806666184499186 a3_z2
  +1.2856225251920637 a4_x1
  +5.2994894770405514 a4_x2
  +9.0295106348529277 a4_x3
  +3.0822666442565567 a4_x4
  +2.1929853575171814 a4_x5
  +7.0676293507155048 a4_x6
  +41.576942647234446 a4_z1
  +44.440960753164354 a4_z2
  +1000000 short_1
  +1000000 surp_1
  +1000000 short_2
  +1000000 surp_2
  +1000000 short_3
  +1000000 surp_3

s.t.

a1_local_1: 
+0.00021185123557558127 a1_x4
+0.00020603241419735635 a1_x6
+0.00014350435855182639 a1_x1
<= 0.022383272528780824

a1_local_2: 
+0.47749044367553245 a1_x6
+0.57407049842735403 a1_x5
+0.76261841892306748 a1_x4
<= 80.910693585893085

a1_local_3: 
+0.0070888383895069866 a1_x3
+0.0057337271729634605 a1_x1
+0.0046742754996248331 a1_x6
<= 1.0391364585250993

a1_local_4: 
+0.00040640340670915822 a1_x5
+0.00042901069152599127 a1_x2
+0.00023032712649571967 a1_x4
<= 0.044924112209906136

a1_local_5: 
+0.6898961202616003 a1_x4
+1.3570092637664048 a1_x2
+0.83665774675490345 a1_x5
<= 171.97831232026974

a1_local_6: 
+0.40417115018398819 a1_x3
+0.38134916990410539 a1_x4
+0.19876395896508675 a1_x1
<= 37.902126222012072

a1_local_7: 
+0.00028162620719915154 a1_x1
+0.0002101006624915115 a1_x2
+0.00024188144152213 a1_x5
<= 0.038725306192756971

a1_local_8: 
+0.17772514307991741 a1_x5
+0.19231300137749857 a1_x2
+0.13793824662808649 a1_x4
<= 23.062359783737787

a1_act_1: 
+0.014616550732594802 a1_x1
-1.4616550732594802 a1_z1
<= 0

a1_act_2: 
+0.0031090511783047211 a1_x2
-0.31090511783047209 a1_z2
<= 0

a2_local_1: 
+0.14873722863163749 a2_x6
+0.09067318046845721 a2_x4
+0.2138621147558448 a2_x1
<= 30.041195266020821

a2_local_2: 
+0.015953180279257573 a2_x2
+0.015404946350476801 a2_x1
+0.013754757431953616 a2_x4
<= 2.5126085133564788

a2_local_3: 
+0.052872538091350695 a2_x3
+0.054380370460567928 a2_x4
+0.027543311391653991 a2_x5
<= 9.3674430546265217

a2_local_4: 
+0.69960515190139205 a2_x4
+1.1990351681012938 a2_x3
+1.2122993823975901 a2_x2
<= 115.16402552259734

a2_local_5: 
+0.76560967632259569 a2_x1
+0.50416216570169492 a2_x4
+0.81019833923564533 a2_x2
<= 90.282244456689696

a2_local_6: 
+8.1753885975366966e-05 a2_x3
+0.000168757413796143 a2_x5
+0.00012738496497924459 a2_x1
<= 0.023978935203536195

a2_local_7: 
+0.00012475094704507276 a2_x3
+0.00016027080234893898 a2_x6
+0.00019145461226657281 a2_x4
<= 0.031358744320025125

a2_local_8: 
+0.21081017695932555 a2_x1
+0.38580676975577255 a2_x6
+0.36434006330295821 a2_x5
<= 56.428520836092176

a2_act_1: 
+0.030559116714418619 a2_x1
-3.0559116714418617 a2_z1
<= 0

a2_act_2: 
+140.83022265586752 a2_x2
-14083.022265586751 a2_z2
<= 0

a3_local_1: 
+2265.4046580800741 a3_x1
+2005.6430796276836 a3_x4
+961.24718096255583 a3_x2
<= 201497.55583232697

a3_local_2: 
+103.31842369237404 a3_x6
+186.55771875663169 a3_x4
+159.68150707715904 a3_x1
<= 17492.961214069022

a3_local_3: 
+8000.0493452474921 a3_x2
+4913.0912631351403 a3_x3
+4103.6587866430355 a3_x5
<= 890218.94029057247

a3_local_4: 
+0.52755043460227158 a3_x5
+0.95054779539014478 a3_x1
+0.7851956883939446 a3_x6
<= 101.23005789889081

a3_local_5: 
+6047.7857829051873 a3_x6
+4214.6165237287969 a3_x3
+7825.9005705178752 a3_x1
<= 688927.31337012665

a3_local_6: 
+0.018300979042068132 a3_x2
+0.022500550816958141 a3_x6
+0.019117770757318846 a3_x4
<= 2.4719941648301904

a3_local_7: 
+0.36311171618923099 a3_x2
+0.17133647769049273 a3_x5
+0.38581120867114072 a3_x4
<= 48.834434227317331

a3_local_8: 
+41.0352904075637 a3_x2
+44.181193503628208 a3_x1
+28.721486988754506 a3_x5
<= 7079.1738476990022

a3_act_1: 
+28.740228751541256 a3_x1
-2874.0228751541258 a3_z1
<= 0

a3_act_2: 
+0.0091760250473212814 a3_x2
-0.91760250473212812 a3_z2
<= 0

a4_local_1: 
+25891.800013379299 a4_x2
+11621.640283563898 a4_x6
+25049.819226133841 a4_x5
<= 4113030.3483927846

a4_local_2: 
+97414.269108838096 a4_x3
+246820.07677367172 a4_x5
+199275.74586109255 a4_x1
<= 31291477.652250186

a4_local_3: 
+736.34512829901439 a4_x4
+1055.541108547143 a4_x3
+922.38218126460276 a4_x6
<= 166616.36619459794

a4_local_4: 
+262.52527818737906 a4_x5
+171.86198890426857 a4_x1
+172.94236378791183 a4_x4
<= 29287.449568287397

a4_local_5: 
+8393.4297299862537 a4_x5
+15055.463977137115 a4_x6
+8014.8638208570501 a4_x1
<= 1937443.1400791837

a4_local_6: 
+14970.168452834096 a4_x4
+14967.3370764179 a4_x3
+12927.207581658513 a4_x2
<= 1789511.2853709233

a4_local_7: 
+43.253235109329502 a4_x3
+69.034989769600031 a4_x6
+33.229231326538454 a4_x1
<= 8848.2647564785693

a4_local_8: 
+898620.27847955236 a4_x3
+931478.91759680095 a4_x2
+1007575.3468037721 a4_x6
<= 107870338.64489518

a4_act_1: 
+0.39517173651570631 a4_x1
-39.51717365157063 a4_z1
<= 0

a4_act_2: 
+881.82468353754609 a4_x2
-88182.468353754608 a4_z2
<= 0

coupling_1: 
+4.2819225305529675e-06 a1_x1
+0.00055022488595766225 a2_x1
+0.049039484239293808 a3_x1
+5.0590635464652074 a4_x1
+0.0044043565705409252 short_1
-0.0044043565705409252 surp_1
= 149.14351315709544

coupling_2: 
+0.2782206972531322 a1_x2
+21.361457031585889 a2_x2
+4965.1428793805399 a3_x2
+213766.6357207619 a4_x2
+387.8357228157447 short_2
-387.8357228157447 surp_2
= 12298884.39224924

coupling_3: 
+0.0029601225665352874 a1_x3
+0.22056710617455672 a2_x3
+38.232368732414017 a3_x3
+5509.5579163770981 a4_x3
+3.8167698017195 short_3
-3.8167698017195 surp_3
= 196764.32354991217

bounds
  0 <= a1_x1 <= 100
  0 <= a1_x2 <= 100
  0 <= a1_x3 <= 100
  0 <= a1_x4 <= 100
  0 <= a1_x5 <= 100
  0 <= a1_x6 <= 100
  0 <= a2_x1 <= 100
  0 <= a2_x2 <= 100
  0 <= a2_x3 <= 100
  0 <= a2_x4 <= 100
  0 <= a2_x5 <= 100
  0 <= a2_x6 <= 100
  0 <= a3_x1 <= 100
  0 <= a3_x2 <= 100
  0 <= a3_x3 <= 100
  0 <= a3_x4 <= 100
  0 <= a3_x5 <= 100
  0 <= a3_x6 <= 100
  0 <= a4_x1 <= 100
  0 <= a4_x2 <= 100
  0 <= a4_x3 <= 100
  0 <= a4_x4 <= 100
  0 <= a4_x5 <= 100
  0 <= a4_x6 <= 100
  0 <= short_1 <= +inf
  0 <= surp_1 <= +inf
  0 <= short_2 <= +inf
  0 <= surp_2 <= +inf
  0 <= short_3 <= +inf
  0 <= surp_3 <= +inf
 0 <= a1_z1 <= 1
 0 <= a1_z2 <= 1
 0 <= a2_z1 <= 1
 0 <= a2_z2 <= 1
 0 <= a3_z1 <= 1
 0 <= a3_z2 <= 1
 0 <= a4_z1 <= 1
 0 <= a4_z2 <= 1

binary
  a1_z1
  a1_z2
  a2_z1
  a2_z2
  a3_z1
  a3_z2
  a4_z1
  a4_z2
end
