min
obj: 
  +1.5770974257819579 a1_x1
  +5.2436233239928463 a1_x2
  +8.0695966456126804 a1_x3
  +3.4781022885686368 a1_x4
  +9.412058306823841 a1_x5
  +8.3165688602967034 a1_x6
  +34.001400959855452 a1_z1
  +10.410503430419741 a1_z2
  +6.4773554290647395 a2_x1
  +9.5833935756226563 a2_x2
  +2.026827474230366 a2_x3
  +2.5146383338919818 a2_x4
  +5.9719159164755045 a2_x5
  +2.1752834405324757 a2_x6
  +46.820939487606068 a2_z1
  +31.119838842287344 a2_z2
  +4.2898026117145012 a3_x1
  +6.2971939246586208 a3_x2
  +7.0812452369118279 a3_x3
  +4.947199835085236 a3_x4
  +8.0650994710678727 a3_x5
  +5.8436848317688934 a3_x6
  +45.408472421232204 a3_z1
  +47.685437857449642 a3_z2
  +7.6745490131872192 a4_x1
  +9.5447276615633179 a4_x2
  +6.4685946234911675 a4_x3
  +6.1047180091187832 a4_x4
  +9.0091726197219533 a4_x5
  +9.2042443028710519 a4_x6
  +10.38795682780167 a4_z1
  +22.655186795949191 a4_z2
  +1000000 short_1
  +1000000 surp_1
  +1000000 short_2
  +1000000 surp_2
  +1000000 short_3
  +1000000 surp_3

s.t.

a1_local_1: 
+1.2525172836979446 a1_x1
+1.2804747506447109 a1_x6
+0.78096034263581249 a1_x5
<= 174.32419763247333

a1_local_2: 
+1.0791845523965877 a1_x5
+0.59517578531382453 a1_x4
+1.6801758819417012 a1_x1
<= 104.85681522484603

a1_local_3: 
+0.89270406332237739 a1_x2
+1.2747380882235062 a1_x3
+0.7844748731040232 a1_x5
<= 116.1277213132538

a1_local_4: 
+1.6520243963786576 a1_x2
+1.3204078717738381 a1_x4
+0.60531793730895478 a1_x1
<= 179.89053224872006

a1_local_5: 
+0.63604717020937129 a1_x1
+0.40518322353876191 a1_x3
+0.72659357489064047 a1_x2
<= 68.631404142441909

a1_local_6: 
+1.2083917506497222 a1_x3
+0.96587917193756168 a1_x4
+0.82754619887327507 a1_x2
<= 126.01684076705143

a1_local_7: 
+1.2662087841130116 a1_x1
+0.78975917127324879 a1_x4
+1.0908889042874166 a1_x3
<= 174.42061074419135

a1_local_8: 
+1.2459527386243718 a1_x3
+0.80259866124944468 a1_x2
+1.1040826118019005 a1_x5
<= 144.06629023227057

a1_act_1: 
+0.099999999999999992 a1_x1
-10 a1_z1
<= 0

a1_act_2: 
+0.099999999999999992 a1_x2
-10 a1_z2
<= 0

a2_local_1: 
+0.76186603796907815 a2_x3
+1.3124695577592136 a2_x6
+1.3125667114204491 a2_x4
<= 188.18012575027751

a2_local_2: 
+1.5548926250266668 a2_x6
+0.64313122585094873 a2_x4
+1.4470071225202901 a2_x2
<= 195.86404912045776

a2_local_3: 
+1.319360257783931 a2_x4
+1.8860248426325441 a2_x5
+2.2763880684530036 a2_x2
<= 247.79625208780939

a2_local_4: 
+1.0453318990184333 a2_x6
+1.1874033479468107 a2_x5
+0.84217380869705494 a2_x1
<= 102.27083894036092

a2_local_5: 
+1.0165824662721565 a2_x6
+1.0280709884393013 a2_x5
+0.97269547652354682 a2_x2
<= 118.81398921822266

a2_local_6: 
+1.090980489507771 a2_x1
+0.75472511954018351 a2_x6
+1.3249857121613366 a2_x3
<= 162.5834167346967

a2_local_7: 
+1.4999568632354943 a2_x2
+1.6599702062309158 a2_x4
+2.3172529052024582 a2_x5
<= 288.53968854606688

a2_local_8: 
+0.89370985112736967 a2_x4
+0.91182239385060426 a2_x3
+1.1189313833103112 a2_x2
<= 94.18618281211954

a2_act_1: 
+0.099999999999999992 a2_x1
-10 a2_z1
<= 0

a2_act_2: 
+0.099999999999999992 a2_x2
-10 a2_z2
<= 0

a3_local_1: 
+0.99491844976276522 a3_x3
+0.87679432982304117 a3_x4
+1.140518324521812 a3_x2
<= 167.36035613867077

a3_local_2: 
+0.75336589426491984 a3_x3
+0.90753637434175372 a3_x4
+1.3273762558308111 a3_x6
<= 195.39711740661147

a3_local_3: 
+0.80466499375644918 a3_x2
+1.2833772731155852 a3_x3
+0.77919410055653726 a3_x5
<= 107.9136393762339

a3_local_4: 
+1.5228502824663717 a3_x2
+2.4954234809941216 a3_x5
+2.1984941767639028 a3_x3
<= 326.35612737622421

a3_local_5: 
+1.3784213239651573 a3_x2
+0.67828926617813468 a3_x5
+1.4742972502492417 a3_x3
<= 220.63589166539725

a3_local_6: 
+1.0794771875715234 a3_x5
+0.92637437040210047 a3_x6
+1.041329795670169 a3_x1
<= 160.77113007230633

a3_local_7: 
+0.93910889416367205 a3_x3
+1.0852195843150183 a3_x5
+0.92147249685987931 a3_x2
<= 173.3624175631322

a3_local_8: 
+0.80923264578732934 a3_x5
+1.2357385792648872 a3_x3
+0.82535701501189285 a3_x2
<= 159.86597848900556

a3_act_1: 
+0.10000000000000001 a3_x1
-10.000000000000002 a3_z1
<= 0

a3_act_2: 
+0.10000000000000001 a3_x2
-10.000000000000002 a3_z2
<= 0

a4_local_1: 
+1.6879406184972414 a4_x6
+1.8825265834841491 a4_x1
+1.6762614232950148 a4_x3
<= 195.98870887972816

a4_local_2: 
+0.77431874008728174 a4_x2
+1.2914578302564124 a4_x4
+0.85866900393110546 a4_x6
<= 164.29578002588187

a4_local_3: 
+0.94068920870850536 a4_x3
+0.71408152094206001 a4_x2
+1.4004003333971435 a4_x1
<= 92.225516132273455

a4_local_4: 
+0.80334177925406447 a4_x3
+1.2119016078222344 a4_x5
+1.244800190684145 a4_x2
<= 200.47814259734074

a4_local_5: 
+1.0958005848874759 a4_x3
+1.1302081674264521 a4_x2
+0.88479275660965762 a4_x1
<= 171.56751917356763

a4_local_6: 
+1.6550341780681221 a4_x5
+0.60421712932072114 a4_x1
+1.5137459625436032 a4_x6
<= 179.45035555719608

a4_local_7: 
+1.3615289192489257 a4_x6
+0.73446842432964266 a4_x3
+1.1495283889235044 a4_x2
<= 216.73546035018401

a4_local_8: 
+0.75677666254288756 a4_x2
+0.89730537682946121 a4_x6
+1.3213938133872205 a4_x5
<= 151.05691871104892

a4_act_1: 
+0.099999999999999992 a4_x1
-10 a4_z1
<= 0

a4_act_2: 
+0.061864422839029161 a4_x2
-6.1864422839029158 a4_z2
<= 0

coupling_1: 
+7.1090750048589361e-07 a1_x1
+0.00010560724515441141 a2_x1
+0.009282465333383158 a3_x1
+0.9999564042038851 a4_x1
+0.00071217117854582618 short_1
-0.00071217117854582618 surp_1
= 74.440616096114184

coupling_2: 
+8.0848514685759405e-07 a1_x2
+6.7039536856690538e-05 a2_x2
+0.01084001589488578 a3_x2
+0.99994045029091128 a4_x2
+0.0008903461279631856 short_2
-0.0008903461279631856 surp_2
= 36.412981058638266

coupling_3: 
+1.4518702485909475e-06 a1_x3
+9.5988156904887971e-05 a2_x3
+0.0077080767091264974 a3_x3
+0.99996891995114356 a4_x3
+0.0011695018930090789 short_3
-0.0011695018930090789 surp_3
= 58.825679135461947

bounds
  0 <= a1_x1 <= 100
  0 <= a1_x2 <= 100
  0 <= a1_x3 <= 100
  0 <= a1_x4 <= 100
  0 <= a1_x5 <= 100
  0 <= a1_x6 <= 100
  0 <= a2_x1 <= 100
  0 <= a2_x2 <= 100
  0 <= a2_x3 <= 100
  0 <= a2_x4 <= 100
  0 <= a2_x5 <= 100
  0 <= a2_x6 <= 100
  0 <= a3_x1 <= 100
  0 <= a3_x2 <= 100
  0 <= a3_x3 <= 100
  0 <= a3_x4 <= 100
  0 <= a3_x5 <= 100
  0 <= a3_x6 <= 100
  0 <= a4_x1 <= 100
  0 <= a4_x2 <= 100
  0 <= a4_x3 <= 100
  0 <= a4_x4 <= 100
  0 <= a4_x5 <= 100
  0 <= a4_x6 <= 100
  0 <= short_1 <= +inf
  0 <= surp_1 <= +inf
  0 <= short_2 <= +inf
  0 <= surp_2 <= +inf
  0 <= short_3 <= +inf
  0 <= surp_3 <= +inf
 0 <= a1_z1 <= 1
 0 <= a1_z2 <= 1
 0 <= a2_z1 <= 1
 0 <= a2_z2 <= 1
 0 <= a3_z1 <= 1
 0 <= a3_z2 <= 1
 0 <= a4_z1 <= 1
 0 <= a4_z2 <= 1

binary
  a1_z1
  a1_z2
  a2_z1
  a2_z2
  a3_z1
  a3_z2
  a4_z1
  a4_z2
end
