min
obj: 
  +2.8670230128866887 a1_x1
  +4.6121734767481746 a1_x2
  +8.3726653944305163 a1_x3
  +3.8874111784256438 a1_x4
  +3.5735214707131471 a1_x5
  +7.9063268225890937 a1_x6
  +32.521673256282952 a1_z1
  +46.9551209495583 a1_z2
  +1.341622492975389 a2_x1
  +5.0417707846324316 a2_x2
  +1.1098914253226899 a2_x3
  +7.5349912767704339 a2_x4
  +4.7451420176434915 a2_x5
  +4.9227196469025021 a2_x6
  +7.3717597202086891 a2_z1
  +32.23919956008293 a2_z2
  +7.1988333719011539 a3_x1
  +9.6965932883206509 a3_x2
  +2.6814504435085222 a3_x3
  +4.7418198986047297 a3_x4
  +5.4039251046059666 a3_x5
  +9.8502537099383343 a3_x6
  +17.992052798317559 a3_z1
  +28.73085531973274 a3_z2
  +5.3817190254650331 a4_x1
  +3.7297540390479749 a4_x2
  +6.6577904747627379 a4_x3
  +5.4304281417402382 a4_x4
  +9.7175944926778737 a4_x5
  +8.0479454867151716 a4_x6
  +7.8471654550187315 a4_z1
  +24.374477793367895 a4_z2
  +1000000 short_1
  +1000000 surp_1
  +1000000 short_2
  +1000000 surp_2
  +1000000 short_3
  +1000000 surp_3

s.t.

a1_local_1: 
+0.031370816797662709 a1_x3
+0.05507411219814335 a1_x1
+0.048934203464308455 a1_x2
<= 8.1417749710901823

a1_local_2: 
+0.43041855446562399 a1_x4
+0.32327154256234436 a1_x6
+0.29735369272909662 a1_x2
<= 39.383114916812879

a1_local_3: 
+0.057794778380968845 a1_x3
+0.027195665506551267 a1_x4
+0.028976171512276286 a1_x1
<= 7.4374214532644274

a1_local_4: 
+0.071429763416320846 a1_x3
+0.064985684548949624 a1_x6
+0.17556955981250755 a1_x1
<= 17.095159270947459

a1_local_5: 
+1.2738701088960953e-05 a1_x5
+1.8416895130911642e-05 a1_x1
+1.7296263785712266e-05 a1_x3
<= 0.0024711129512521844

a1_local_6: 
+4.0202549260403347e-05 a1_x6
+3.2424272832346498e-05 a1_x3
+3.0073654055333292e-05 a1_x1
<= 0.0046925346747908377

a1_local_7: 
+0.071609576170327011 a1_x4
+0.097837169858689774 a1_x3
+0.089410753701294171 a1_x6
<= 8.9630277240267677

a1_local_8: 
+0.0024114937725460239 a1_x6
+0.0029762037599096259 a1_x3
+0.0023355832586357326 a1_x2
<= 0.28391110664176511

a1_act_1: 
+0.25200442742436469 a1_x1
-25.200442742436469 a1_z1
<= 0

a1_act_2: 
+0.0023956323094759925 a1_x2
-0.23956323094759926 a1_z2
<= 0

a2_local_1: 
+3.0799984664260354 a2_x3
+4.7952687721370539 a2_x1
+3.9806779182049947 a2_x4
<= 535.97524909739559

a2_local_2: 
+6.3062942243356686 a2_x3
+3.9465906066784178 a2_x4
+4.5731757706939007 a2_x1
<= 964.649572526778

a2_local_3: 
+0.003241618932793954 a2_x2
+0.0045172733426994995 a2_x5
+0.0060086348451593788 a2_x6
<= 0.84176356851238388

a2_local_4: 
+0.28659468026142648 a2_x3
+0.25234895157569542 a2_x4
+0.19735700472251083 a2_x2
<= 44.308944758264907

a2_local_5: 
+0.45347852699720409 a2_x3
+0.69434697064346951 a2_x5
+0.85108758233358484 a2_x6
<= 125.0712662753257

a2_local_6: 
+0.018478317239896711 a2_x2
+0.043027823578693163 a2_x5
+0.022931294600503367 a2_x1
<= 5.6708484853979924

a2_local_7: 
+0.45962061792496889 a2_x6
+0.72883681314772064 a2_x2
+0.49324882994363073 a2_x5
<= 81.911532710638326

a2_local_8: 
+0.0001751365439249658 a2_x2
+0.00023493261598471704 a2_x4
+0.00016276704574955456 a2_x6
<= 0.037505912324873346

a2_act_1: 
+0.01261907309766582 a2_x1
-1.2619073097665821 a2_z1
<= 0

a2_act_2: 
+11.896907803758472 a2_x2
-1189.6907803758472 a2_z2
<= 0

a3_local_1: 
+1.8717773658891572 a3_x6
+2.5666771551325862 a3_x2
+1.8839944986139874 a3_x1
<= 323.83930592030049

a3_local_2: 
+0.059863802805827093 a3_x3
+0.041074210832902996 a3_x1
+0.047743652682592494 a3_x4
<= 8.5715072933266043

a3_local_3: 
+39.242253667854087 a3_x4
+31.720472468081557 a3_x1
+46.442747045301125 a3_x6
<= 6842.2244708864337

a3_local_4: 
+41.782013396267757 a3_x1
+42.062905806370814 a3_x3
+29.597311024345366 a3_x5
<= 4161.2231853914673

a3_local_5: 
+13.165499891664927 a3_x5
+27.949082220113372 a3_x4
+36.737202879122201 a3_x6
<= 3359.0094857434183

a3_local_6: 
+31.824498262119196 a3_x2
+52.598858808119701 a3_x3
+54.04921661056536 a3_x6
<= 7403.5540185586851

a3_local_7: 
+2136.977646303671 a3_x4
+1238.6909177653363 a3_x1
+2557.4720312827244 a3_x2
<= 318636.40368225315

a3_local_8: 
+72.927247873265856 a3_x2
+34.333107989207051 a3_x1
+53.727306758462035 a3_x5
<= 5268.6109146423996

a3_act_1: 
+2.3440032900611438 a3_x1
-234.40032900611439 a3_z1
<= 0

a3_act_2: 
+0.005476320375614168 a3_x2
-0.54763203756141676 a3_z2
<= 0

a4_local_1: 
+10530.773240933127 a4_x1
+18823.570440492938 a4_x4
+14135.712350120357 a4_x3
<= 1742831.1755907238

a4_local_2: 
+2448.9170086750632 a4_x1
+1768.3269280786885 a4_x6
+1823.9011818739245 a4_x3
<= 283425.42795119528

a4_local_3: 
+52.048023159280383 a4_x2
+32.82522574057522 a4_x5
+71.123856647376897 a4_x1
<= 8890.5380558747711

a4_local_4: 
+3.184977498533073 a4_x5
+3.2912757799262753 a4_x4
+4.8395317855108742 a4_x3
<= 489.13218180618333

a4_local_5: 
+144128.51371892399 a4_x1
+261229.85819891893 a4_x4
+302000.88951130857 a4_x2
<= 28642873.405338701

a4_local_6: 
+3140.4589519904257 a4_x4
+3730.1245200514145 a4_x2
+2043.734435125464 a4_x6
<= 454285.14472528751

a4_local_7: 
+3788.1864533931798 a4_x2
+4043.1471280249166 a4_x1
+4877.609859596465 a4_x3
<= 611818.79376204929

a4_local_8: 
+822.4166451216397 a4_x1
+513.16021664304196 a4_x2
+936.50038727379695 a4_x5
<= 148062.02451774545

a4_act_1: 
+0.35260508522758999 a4_x1
-35.260508522758997 a4_z1
<= 0

a4_act_2: 
+0.020833612785398137 a4_x2
-2.0833612785398135 a4_z2
<= 0

coupling_1: 
+0.57570270500129594 a1_x1
+47.917471085112368 a2_x1
+4706.7761642456508 a3_x1
+476443.77457768423 a4_x1
+390.19818572815569 short_1
-390.19818572815569 surp_1
= 12045922.704603001

coupling_2: 
+0.00095799392791436294 a1_x2
+0.11395207762323162 a2_x2
+16.060721011499957 a3_x2
+1087.6313108529059 a4_x2
+1.4282411794867198 short_2
-1.4282411794867198 surp_2
= 25046.644795131568

coupling_3: 
+0.0064167929036325292 a1_x3
+0.62204647646849409 a2_x3
+46.678903527739159 a3_x3
+2839.0450123325172 a4_x3
+4.3665203168480877 short_3
-4.3665203168480877 surp_3
= 59429.080690011513

bounds
  0 <= a1_x1 <= 100
  0 <= a1_x2 <= 100
  0 <= a1_x3 <= 100
  0 <= a1_x4 <= 100
  0 <= a1_x5 <= 100
  0 <= a1_x6 <= 100
  0 <= a2_x1 <= 100
  0 <= a2_x2 <= 100
  0 <= a2_x3 <= 100
  0 <= a2_x4 <= 100
  0 <= a2_x5 <= 100
  0 <= a2_x6 <= 100
  0 <= a3_x1 <= 100
  0 <= a3_x2 <= 100
  0 <= a3_x3 <= 100
  0 <= a3_x4 <= 100
  0 <= a3_x5 <= 100
  0 <= a3_x6 <= 100
  0 <= a4_x1 <= 100
  0 <= a4_x2 <= 100
  0 <= a4_x3 <= 100
  0 <= a4_x4 <= 100
  0 <= a4_x5 <= 100
  0 <= a4_x6 <= 100
  0 <= short_1 <= +inf
  0 <= surp_1 <= +inf
  0 <= short_2 <= +inf
  0 <= surp_2 <= +inf
  0 <= short_3 <= +inf
  0 <= surp_3 <= +inf
 0 <= a1_z1 <= 1
 0 <= a1_z2 <= 1
 0 <= a2_z1 <= 1
 0 <= a2_z2 <= 1
 0 <= a3_z1 <= 1
 0 <= a3_z2 <= 1
 0 <= a4_z1 <= 1
 0 <= a4_z2 <= 1

binary
  a1_z1
  a1_z2
  a2_z1
  a2_z2
  a3_z1
  a3_z2
  a4_z1
  a4_z2
end
