min
obj: 
  +2.8670230128866887 a1_x1
  +4.6121734767481746 a1_x2
  +8.3726653944305163 a1_x3
  +3.8874111784256438 a1_x4
  +3.5735214707131471 a1_x5
  +7.9063268225890937 a1_x6
  +32.521673256282952 a1_z1
  +46.9551209495583 a1_z2
  +1.341622492975389 a2_x1
  +5.0417707846324316 a2_x2
  +1.1098914253226899 a2_x3
  +7.5349912767704339 a2_x4
  +4.7451420176434915 a2_x5
  +4.9227196469025021 a2_x6
  +7.3717597202086891 a2_z1
  +32.23919956008293 a2_z2
  +7.1988333719011539 a3_x1
  +9.6965932883206509 a3_x2
  +2.6814504435085222 a3_x3
  +4.7418198986047297 a3_x4
  +5.4039251046059666 a3_x5
  +9.8502537099383343 a3_x6
  +17.992052798317559 a3_z1
  +28.73085531973274 a3_z2
  +5.3817190254650331 a4_x1
  +3.7297540390479749 a4_x2
  +6.6577904747627379 a4_x3
  +5.4304281417402382 a4_x4
  +9.7175944926778737 a4_x5
  +8.0479454867151716 a4_x6
  +7.8471654550187315 a4_z1
  +24.374477793367895 a4_z2
  +1000000 short_1
  +1000000 surp_1
  +1000000 short_2
  +1000000 surp_2
  +1000000 short_3
  +1000000 surp_3

s.t.

a1_local_1: 
+0.75472573801036946 a1_x3
+1.3249846263839233 a1_x1
+1.1772694049299155 a1_x2
<= 195.87654231011965

a1_local_2: 
+1.2031196616718665 a1_x4
+0.9036189190278342 a1_x6
+0.8311725191244822 a1_x2
<= 110.08493802765287

a1_local_3: 
+1.4577882851730783 a1_x3
+0.68597066540514362 a1_x4
+0.73088131078761542 a1_x1
<= 187.59801785197294

a1_local_4: 
+0.66872221773875962 a1_x3
+0.60839304254108095 a1_x6
+1.6436742863187435 a1_x1
<= 160.0441086950772

a1_local_5: 
+0.83167637709024866 a1_x5
+1.2023907706729129 a1_x1
+1.1292276898595293 a1_x3
<= 161.33248219939517

a1_local_6: 
+1.1562019475051259 a1_x6
+0.93250323884611397 a1_x3
+0.86490080920363321 a1_x1
<= 134.9545695370181

a1_local_7: 
+0.85552678483154143 a1_x4
+1.1688704757465962 a1_x3
+1.0681992372289686 a1_x6
<= 107.08219069546787

a1_local_8: 
+0.91465463065916663 a1_x6
+1.1288432845142702 a1_x3
+0.88586255835351868 a1_x2
<= 107.68454446858949

a1_act_1: 
+0.10000000000000001 a1_x1
-10 a1_z1
<= 0

a1_act_2: 
+0.10000000000000001 a1_x2
-10.000000000000002 a1_z2
<= 0

a2_local_1: 
+0.80143586396699196 a2_x3
+1.2477604821053851 a2_x1
+1.0357985828002227 a2_x4
<= 139.4642859428873

a2_local_2: 
+1.2640844113347434 a2_x3
+0.79108641087038067 a2_x4
+0.91668418827015519 a2_x1
<= 193.36213054034607

a2_local_3: 
+0.73450215460200563 a2_x2
+1.0235462810180607 a2_x5
+1.3614663942570133 a2_x6
<= 190.73097966050111

a2_local_4: 
+1.2050575548294173 a2_x3
+1.0610629976529382 a2_x4
+0.82983588293552968 a2_x2
<= 186.30781485113624

a2_local_5: 
+0.45347852699720409 a2_x3
+0.69434697064346951 a2_x5
+0.85108758233358484 a2_x6
<= 125.0712662753257

a2_local_6: 
+0.6553246735198236 a2_x2
+1.5259611615550595 a2_x5
+0.81324738353424664 a2_x1
<= 201.1139263401129

a2_local_7: 
+0.45962061792496889 a2_x6
+0.72883681314772064 a2_x2
+0.49324882994363073 a2_x5
<= 81.911532710638326

a2_local_8: 
+0.8956160698762865 a2_x2
+1.2014021831111008 a2_x4
+0.8323607315332503 a2_x6
<= 191.79833654773429

a2_act_1: 
+0.099999999999999992 a2_x1
-10 a2_z1
<= 0

a2_act_2: 
+0.10000000000000001 a2_x2
-10.000000000000002 a2_z2
<= 0

a3_local_1: 
+0.85396775625603771 a3_x6
+1.1710043999602471 a3_x2
+0.85954162289799774 a3_x1
<= 147.74637758957078

a3_local_2: 
+1.2072508971605418 a3_x3
+0.82832823098496233 a3_x1
+0.96282836761533974 a3_x4
<= 172.85837826659767

a3_local_3: 
+1.0224101848897671 a3_x4
+0.82643913357730203 a3_x1
+1.2100104646199743 a3_x6
<= 178.26601003975497

a3_local_4: 
+1.1841687612627603 a3_x1
+1.1921296992425838 a3_x3
+0.83883490247357073 a3_x5
<= 117.93568821226447

a3_local_5: 
+0.59863986406980207 a3_x5
+1.270854499928032 a3_x4
+1.6704534061624052 a3_x6
<= 152.73533086485199

a3_local_6: 
+0.76733689581740516 a3_x2
+1.2682382204090372 a3_x3
+1.3032085456216083 a3_x6
<= 178.51091042586629

a3_local_7: 
+1.200640685994802 a3_x4
+0.69594678063841819 a3_x1
+1.4368914805276665 a3_x2
<= 179.02285078260152

a3_local_8: 
+1.4574321732654951 a3_x2
+0.68613827685676709 a3_x1
+1.0737263195337501 a3_x5
<= 105.29182547463809

a3_act_1: 
+0.10000000000000001 a3_x1
-10 a3_z1
<= 0

a3_act_2: 
+0.099999999999999992 a3_x2
-9.9999999999999982 a3_z2
<= 0

a4_local_1: 
+0.74796130182463094 a4_x1
+1.3369675644455505 a4_x4
+1.0040065975893779 a4_x3
<= 123.78675764172858

a4_local_2: 
+1.1768083834065992 a4_x1
+0.8497560130437054 a4_x6
+0.87646179667627655 a4_x3
<= 136.19792688034917

a4_local_3: 
+1.0771910329680101 a4_x2
+0.67935411715235661 a4_x5
+1.4719863687463794 a4_x1
<= 183.99945455645155

a4_local_4: 
+0.81124402459131406 a4_x5
+0.8383192066433941 a4_x4
+1.2326747189340186 a4_x3
<= 124.58661322045067

a4_local_5: 
+0.69082944963965465 a4_x1
+1.2521136485244224 a4_x4
+1.4475352788182558 a4_x2
<= 137.28956165673947

a4_local_6: 
+1.1374157169987704 a4_x4
+1.3509815986545359 a4_x2
+0.74020253199297148 a4_x6
<= 164.5336148342621

a4_local_7: 
+0.88127640658120243 a4_x2
+0.94058996728456079 a4_x1
+1.1347177713282603 a4_x3
<= 142.33234680476338

a4_local_8: 
+1.1863461384952076 a4_x1
+0.74023993197972604 a4_x2
+1.3509133414696524 a4_x5
<= 213.5812937230011

a4_act_1: 
+0.099999999999999992 a4_x1
-10 a4_z1
<= 0

a4_act_2: 
+0.10000000000000001 a4_x2
-10 a4_z2
<= 0

coupling_1: 
+1.2082731608044399e-06 a1_x1
+0.00010056821644712222 a2_x1
+0.009878486350275684 a3_x1
+0.99995053080961416 a4_x1
+0.00081894003817274978 short_1
-0.00081894003817274978 surp_1
= 25.281738255969934

coupling_2: 
+8.8071006316056427e-07 a1_x2
+0.00010475926679339572 a2_x2
+0.014765060825841442 a3_x2
+0.9998892608453962 a4_x2
+0.0013130212444381079 short_2
-0.0013130212444381079 surp_2
= 23.026066738757478

coupling_3: 
+2.2598833037059857e-06 a1_x3
+0.00021907399341258084 a2_x3
+0.016439501212190157 a3_x3
+0.99986247307560461 a4_x3
+0.0015378128151450571 short_3
-0.0015378128151450571 surp_3
= 20.929892739708706

bounds
  0 <= a1_x1 <= 100
  0 <= a1_x2 <= 100
  0 <= a1_x3 <= 100
  0 <= a1_x4 <= 100
  0 <= a1_x5 <= 100
  0 <= a1_x6 <= 100
  0 <= a2_x1 <= 100
  0 <= a2_x2 <= 100
  0 <= a2_x3 <= 100
  0 <= a2_x4 <= 100
  0 <= a2_x5 <= 100
  0 <= a2_x6 <= 100
  0 <= a3_x1 <= 100
  0 <= a3_x2 <= 100
  0 <= a3_x3 <= 100
  0 <= a3_x4 <= 100
  0 <= a3_x5 <= 100
  0 <= a3_x6 <= 100
  0 <= a4_x1 <= 100
  0 <= a4_x2 <= 100
  0 <= a4_x3 <= 100
  0 <= a4_x4 <= 100
  0 <= a4_x5 <= 100
  0 <= a4_x6 <= 100
  0 <= short_1 <= +inf
  0 <= surp_1 <= +inf
  0 <= short_2 <= +inf
  0 <= surp_2 <= +inf
  0 <= short_3 <= +inf
  0 <= surp_3 <= +inf
 0 <= a1_z1 <= 1
 0 <= a1_z2 <= 1
 0 <= a2_z1 <= 1
 0 <= a2_z2 <= 1
 0 <= a3_z1 <= 1
 0 <= a3_z2 <= 1
 0 <= a4_z1 <= 1
 0 <= a4_z2 <= 1

binary
  a1_z1
  a1_z2
  a2_z1
  a2_z2
  a3_z1
  a3_z2
  a4_z1
  a4_z2
end
