min
obj: 
  +1.5770974257819579 a1_x1
  +5.2436233239928463 a1_x2
  +8.0695966456126804 a1_x3
  +3.4781022885686368 a1_x4
  +9.412058306823841 a1_x5
  +8.3165688602967034 a1_x6
  +34.001400959855452 a1_z1
  +10.410503430419741 a1_z2
  +6.4773554290647395 a2_x1
  +9.5833935756226563 a2_x2
  +2.026827474230366 a2_x3
  +2.5146383338919818 a2_x4
  +5.9719159164755045 a2_x5
  +2.1752834405324757 a2_x6
  +46.820939487606068 a2_z1
  +31.119838842287344 a2_z2
  +4.2898026117145012 a3_x1
  +6.2971939246586208 a3_x2
  +7.0812452369118279 a3_x3
  +4.947199835085236 a3_x4
  +8.0650994710678727 a3_x5
  +5.8436848317688934 a3_x6
  +45.408472421232204 a3_z1
  +47.685437857449642 a3_z2
  +7.6745490131872192 a4_x1
  +9.5447276615633179 a4_x2
  +6.4685946234911675 a4_x3
  +6.1047180091187832 a4_x4
  +9.0091726197219533 a4_x5
  +9.2042443028710519 a4_x6
  +10.38795682780167 a4_z1
  +22.655186795949191 a4_z2
  +1000000 short_1
  +1000000 surp_1
  +1000000 short_2
  +1000000 surp_2
  +1000000 short_3
  +1000000 surp_3

s.t.

a1_local_1: 
+0.29855907340797011 a1_x1
+0.30522321731648122 a1_x6
+0.18615535234557951 a1_x5
<= 41.553175828502546

a1_local_2: 
+9.2162568380511503e-06 a1_x5
+5.0828126561481935e-06 a1_x4
+1.4348734353809852e-05 a1_x1
<= 0.00089547921918096279

a1_local_3: 
+7.7491337424903428e-05 a1_x2
+0.00011065386994573557 a1_x3
+6.8096483023522879e-05 a1_x5
<= 0.010080487819422839

a1_local_4: 
+0.21485246084692172 a1_x2
+0.17172438929723349 a1_x4
+0.078724048331670127 a1_x1
<= 23.395491992384084

a1_local_5: 
+0.63604717020937129 a1_x1
+0.40518322353876191 a1_x3
+0.72659357489064047 a1_x2
<= 68.631404142441909

a1_local_6: 
+0.0092294774680391645 a1_x3
+0.0073772102875188572 a1_x4
+0.0063206480780390005 a1_x2
<= 0.96249382025955321

a1_local_7: 
+0.091867646843279485 a1_x1
+0.057299647220972347 a1_x4
+0.07914760808939697 a1_x3
<= 12.654793799476874

a1_local_8: 
+2.3680042710837288e-05 a1_x3
+1.5253845502222898e-05 a1_x2
+2.0983720002596232e-05 a1_x5
<= 0.0027380620469269188

a1_act_1: 
+6.3007669899451679 a1_x1
-630.07669899451685 a1_z1
<= 0

a1_act_2: 
+3.0471840436015678 a1_x2
-304.7184043601568 a1_z2
<= 0

a2_local_1: 
+0.10364699238206654 a2_x3
+0.17855307294887537 a2_x6
+0.17856629008191993 a2_x4
<= 25.600700238703855

a2_local_2: 
+134.65379719468052 a2_x6
+55.695203811140793 a2_x4
+125.31090602591529 a2_x2
<= 16961.838729888339

a2_local_3: 
+1.319360257783931 a2_x4
+1.8860248426325441 a2_x5
+2.2763880684530036 a2_x2
<= 247.79625208780939

a2_local_4: 
+0.00047884953959373145 a2_x6
+0.00054393015941663059 a2_x5
+0.00038578612298271857 a2_x1
<= 0.04684860778327106

a2_local_5: 
+0.34565793341420803 a2_x6
+0.34956425578551625 a2_x5
+0.33073549801562846 a2_x2
<= 40.399081566368437

a2_local_6: 
+0.14303341954950238 a2_x1
+0.09894852905797126 a2_x6
+0.17371276488195964 a2_x3
<= 21.315561809998631

a2_local_7: 
+1.4999568632354943 a2_x2
+1.6599702062309158 a2_x4
+2.3172529052024582 a2_x5
<= 288.53968854606688

a2_local_8: 
+0.00011601211492976499 a2_x4
+0.00011836329678753184 a2_x3
+0.00014524803108678788 a2_x2
<= 0.012226270362144876

a2_act_1: 
+73.554552429711464 a2_x1
-7355.4552429711466 a2_z1
<= 0

a2_act_2: 
+4.6193210606044612 a2_x2
-461.93210606044613 a2_z2
<= 0

a3_local_1: 
+0.037655407608023522 a3_x3
+0.03318467748362993 a3_x4
+0.043166032758292269 a3_x2
<= 6.3342100343282652

a3_local_2: 
+8.4553235685830455 a3_x3
+10.185639877957971 a3_x4
+14.8976690154719 a3_x6
<= 2193.0191751689999

a3_local_3: 
+3056.8763536934102 a3_x2
+4875.4769618348637 a3_x3
+2960.1138851699848 a3_x5
<= 409957.75261729985

a3_local_4: 
+1.5228502824663717 a3_x2
+2.4954234809941216 a3_x5
+2.1984941767639028 a3_x3
<= 326.35612737622421

a3_local_5: 
+2589.3497336692599 a3_x2
+1274.1591414712227 a3_x5
+2769.4516371096793 a3_x3
<= 414462.16580447875

a3_local_6: 
+1106.6344817640606 a3_x5
+949.67993127831801 a3_x6
+1067.5273845938309 a3_x1
<= 164815.78143438156

a3_local_7: 
+47.523018243063149 a3_x3
+54.916858336285401 a3_x5
+46.630539387821919 a3_x2
<= 8772.8967148706233

a3_local_8: 
+54.704255069366575 a3_x5
+83.536123747692614 a3_x3
+55.79426498367863 a3_x2
<= 10806.965474888608

a3_act_1: 
+1.3341654239270746 a3_x1
-133.41654239270747 a3_z1
<= 0

a3_act_2: 
+418.75174341166411 a3_x2
-41875.174341166414 a3_z2
<= 0

a4_local_1: 
+1.6879406184972414 a4_x6
+1.8825265834841491 a4_x1
+1.6762614232950148 a4_x3
<= 195.98870887972816

a4_local_2: 
+118772.98568964195 a4_x2
+198097.10710931604 a4_x4
+131711.49816747595 a4_x6
<= 25201379.379870113

a4_local_3: 
+2641.4875323950819 a4_x3
+2005.1653800428194 a4_x2
+3932.3721233170181 a4_x1
<= 258972.4095661343

a4_local_4: 
+8211.8807977878187 a4_x3
+12388.240969272654 a4_x5
+12724.535243832866 a4_x2
<= 2049317.8023181236

a4_local_5: 
+2837.2901260289473 a4_x3
+2926.3795968183686 a4_x2
+2290.9403284980917 a4_x1
<= 444229.3924751209

a4_local_6: 
+93997.167123276289 a4_x5
+34316.329678339949 a4_x1
+85972.745523288613 a4_x6
<= 10191828.836628908

a4_local_7: 
+20236.234381039401 a4_x6
+10916.312514615049 a4_x3
+17085.296960674899 a4_x2
<= 3221312.0943095651

a4_local_8: 
+4.8751508369058341 a4_x2
+5.7804359929800873 a4_x6
+8.512411222580246 a4_x5
<= 973.10778744165168

a4_act_1: 
+160.28468589001915 a4_x1
-16028.468589001915 a4_z1
<= 0

a4_act_2: 
+0.061864422839029161 a4_x2
-6.1864422839029158 a4_z2
<= 0

coupling_1: 
+0.0055628339391204755 a1_x1
+0.82637413047470487 a2_x1
+72.635065968441992 a3_x1
+7824.634596124396 a4_x1
+5.5727221892727243 short_1
-5.5727221892727243 surp_1
= 582496.01443995291

coupling_2: 
+4.1918384480700055e-06 a1_x2
+0.0003475869769889292 a2_x2
+0.056203376874004458 a3_x2
+5.1844970085123645 a4_x2
+0.0046162717346045724 short_2
-0.0046162717346045724 surp_2
= 188.79423401124046

coupling_3: 
+1.0315445273171684e-05 a1_x3
+0.00068198971663338917 a2_x3
+0.054765392108262423 a3_x3
+7.1047152310198074 a4_x3
+0.0083092361634340191 short_3
-0.0083092361634340191 surp_3
= 417.95268851877944

bounds
  0 <= a1_x1 <= 100
  0 <= a1_x2 <= 100
  0 <= a1_x3 <= 100
  0 <= a1_x4 <= 100
  0 <= a1_x5 <= 100
  0 <= a1_x6 <= 100
  0 <= a2_x1 <= 100
  0 <= a2_x2 <= 100
  0 <= a2_x3 <= 100
  0 <= a2_x4 <= 100
  0 <= a2_x5 <= 100
  0 <= a2_x6 <= 100
  0 <= a3_x1 <= 100
  0 <= a3_x2 <= 100
  0 <= a3_x3 <= 100
  0 <= a3_x4 <= 100
  0 <= a3_x5 <= 100
  0 <= a3_x6 <= 100
  0 <= a4_x1 <= 100
  0 <= a4_x2 <= 100
  0 <= a4_x3 <= 100
  0 <= a4_x4 <= 100
  0 <= a4_x5 <= 100
  0 <= a4_x6 <= 100
  0 <= short_1 <= +inf
  0 <= surp_1 <= +inf
  0 <= short_2 <= +inf
  0 <= surp_2 <= +inf
  0 <= short_3 <= +inf
  0 <= surp_3 <= +inf
 0 <= a1_z1 <= 1
 0 <= a1_z2 <= 1
 0 <= a2_z1 <= 1
 0 <= a2_z2 <= 1
 0 <= a3_z1 <= 1
 0 <= a3_z2 <= 1
 0 <= a4_z1 <= 1
 0 <= a4_z2 <= 1

binary
  a1_z1
  a1_z2
  a2_z1
  a2_z2
  a3_z1
  a3_z2
  a4_z1
  a4_z2
end
