min
obj: 
  +4.00927114806491947 a1_x1
  +1.96797315584533505 a1_x2
  +5.12450639908132288 a1_x3
  +5.32896604620880687 a1_x4
  +7.73264361972508052 a1_x5
  +5.13954220661915251 a1_x6
  +7.46013036925632012 a1_z1
  +49.87266735161764331 a1_z2
  +4.20073886186967549 a2_x1
  +7.53413172178710777 a2_x2
  +3.45719216892709458 a2_x3
  +4.76571137466424233 a2_x4
  +9.38617884989886875 a2_x5
  +1.72886855476886026 a2_x6
  +29.54080410777594423 a2_z1
  +23.53717041290824596 a2_z2
  +8.21626166621846110 a3_x1
  +4.90875225577424779 a3_x2
  +9.92442060145863181 a3_x3
  +6.78612387718403109 a3_x4
  +8.67367115140907785 a3_x5
  +9.64439582433125331 a3_x6
  +44.88444155829282778 a3_z1
  +12.68276888992290807 a3_z2
  +8.69787784647402162 a4_x1
  +4.12769081519996917 a4_x2
  +7.02237149328651711 a4_x3
  +1.06108582988083655 a4_x4
  +7.09274128796206593 a4_x5
  +7.93550517031278613 a4_x6
  +37.98565391640966737 a4_z1
  +17.37310151636162914 a4_z2
  +1000000.00000000000000000 short_1
  +1000000.00000000000000000 surp_1
  +1000000.00000000000000000 short_2
  +1000000.00000000000000000 surp_2
  +1000000.00000000000000000 short_3
  +1000000.00000000000000000 surp_3

s.t.

a1_local_1: 
+1.53420209060712587 a1_x3
+0.65180461304434323 a1_x6
+1.03706853807701704 a1_x4
<= 121.833985

a1_local_2: 
+1.11278645865922532 a1_x2
+1.34351500936427226 a1_x5
+0.74431621011303961 a1_x3
<= 99.996033

a1_local_3: 
+1.28506240351558843 a1_x4
+0.77817232631214361 a1_x2
+1.04862613499602197 a1_x5
<= 174.395666

a1_local_4: 
+1.44533567610778446 a1_x3
+0.69188079733349495 a1_x6
+0.86628748776881193 a1_x5
<= 175.244988

a1_local_5: 
+0.65595763508653182 a1_x1
+1.52448869638979523 a1_x6
+1.46361988256318987 a1_x3
<= 253.376587

a1_local_6: 
+1.45724892645752413 a1_x1
+1.45059324068879869 a1_x3
+0.68622455768825563 a1_x2
<= 250.187115

a1_local_7: 
+0.66069759356104596 a1_x1
+1.51355175158149491 a1_x5
+0.91044694277086713 a1_x4
<= 120.702954

a1_local_8: 
+1.25505464286247026 a1_x3
+0.79677805718422456 a1_x1
+0.97229321217293230 a1_x6
<= 108.767790

a1_act_1: 
+0.10000000000000001 a1_x1
-10.00000000000000000 a1_z1
<= 0.000000

a1_act_2: 
+0.10000000000000001 a1_x2
-10.00000000000000000 a1_z2
<= 0.000000

a2_local_1: 
+0.95237966640450911 a2_x6
+1.05000141779094314 a2_x5
+1.04812771265743487 a2_x3
<= 169.095026

a2_local_2: 
+1.20368052218403210 a2_x4
+1.30584116282742868 a2_x5
+0.76578992029534709 a2_x3
<= 101.154598

a2_local_3: 
+1.11841002885347041 a2_x1
+0.89709597059702373 a2_x5
+0.89412646006504648 a2_x6
<= 117.092105

a2_local_4: 
+0.90666536941904252 a2_x1
+1.25104919160774797 a2_x4
+0.79932908050952045 a2_x5
<= 189.939909

a2_local_5: 
+0.98905561698035471 a2_x5
+1.16312495130759763 a2_x1
+0.85975285705614779 a2_x3
<= 199.797520

a2_local_6: 
+0.81941375927154747 a2_x6
+0.93798102820212947 a2_x2
+1.22038468195724747 a2_x4
<= 136.349256

a2_local_7: 
+1.05610620967316304 a2_x6
+0.94687446285300580 a2_x4
+0.94897629678036388 a2_x3
<= 162.897173

a2_local_8: 
+1.32222880648579033 a2_x3
+1.06598415727492024 a2_x5
+0.75629875487117282 a2_x4
<= 122.297307

a2_act_1: 
+0.10000000000000001 a2_x1
-10.00000000000000000 a2_z1
<= 0.000000

a2_act_2: 
+0.10000000000000001 a2_x2
-10.00000000000000000 a2_z2
<= 0.000000

a3_local_1: 
+1.21710564005470778 a3_x1
+0.93316711007291298 a3_x2
+0.82162136719295042 a3_x5
<= 109.279431

a3_local_2: 
+0.81824039485710354 a3_x6
+1.19419945222680379 a3_x2
+1.22213472505795617 a3_x3
<= 201.754208

a3_local_3: 
+1.60014068721211911 a3_x1
+0.62494504888959013 a3_x6
+1.24081505402063752 a3_x3
<= 124.985024

a3_local_4: 
+1.08820028150352166 a3_x1
+0.72139684909229052 a3_x2
+1.38619956721223070 a3_x3
<= 105.361956

a3_local_5: 
+1.23821431365595447 a3_x6
+0.80761463421255220 a3_x5
+1.07841510549424924 a3_x3
<= 209.703723

a3_local_6: 
+0.69598732747975822 a3_x5
+1.43680777007981342 a3_x3
+1.10355511158384445 a3_x4
<= 128.066585

a3_local_7: 
+0.91130667672903898 a3_x1
+0.70396555294661367 a3_x5
+1.42052405236913182 a3_x2
<= 157.245521

a3_local_8: 
+0.86788193626099086 a3_x1
+0.81069305837257799 a3_x3
+1.23351247389171603 a3_x6
<= 179.258454

a3_act_1: 
+0.10000000000000001 a3_x1
-10.00000000000000000 a3_z1
<= 0.000000

a3_act_2: 
+0.10000000000000001 a3_x2
-10.00000000000000000 a3_z2
<= 0.000000

a4_local_1: 
+0.87153560648869466 a4_x3
+1.14740005176480619 a4_x5
+1.11250158498243668 a4_x2
<= 178.954034

a4_local_2: 
+1.17975007854500102 a4_x6
+0.84763715483987179 a4_x4
+0.86915693443033959 a4_x5
<= 114.582894

a4_local_3: 
+1.09424020445021752 a4_x6
+0.91387612695370957 a4_x3
+0.95683690475189276 a4_x2
<= 195.711153

a4_local_4: 
+0.72176562294919289 a4_x3
+0.71620093032760879 a4_x6
+1.39625621477840611 a4_x5
<= 104.954337

a4_local_5: 
+0.79051140347389837 a4_x1
+1.35892966172127916 a4_x6
+0.73587325979282603 a4_x3
<= 113.661700

a4_local_6: 
+0.83436693204328760 a4_x6
+0.94198930832259731 a4_x3
+1.19851346163862504 a4_x4
<= 173.749203

a4_local_7: 
+0.99167645099652602 a4_x6
+0.97330624719013004 a4_x4
+1.02742585171618184 a4_x5
<= 99.315702

a4_local_8: 
+1.17947549879990876 a4_x2
+1.20863390146727490 a4_x4
+0.82738039929709528 a4_x1
<= 99.234546

a4_act_1: 
+0.10000000000000001 a4_x1
-10.00000000000000000 a4_z1
<= 0.000000

a4_act_2: 
+0.10000000000000001 a4_x2
-10.00000000000000000 a4_z2
<= 0.000000

coupling_1: 
+0.00000049253785171 a1_x1
+0.00011502912775234 a2_x1
+0.01006917123307565 a3_x1
+0.99994862635431025 a4_x1
+0.00081951536413277 short_1
-0.00081951536413277 surp_1
= 74.968602

coupling_2: 
+0.00000092028593894 a1_x2
+0.00011843517515595 a2_x2
+0.01206582100674515 a3_x2
+0.99992506341112497 a4_x2
+0.00146107801866861 short_2
-0.00146107801866861 surp_2
= 24.933734

coupling_3: 
+0.00000085226463404 a1_x3
+0.00007947993478397 a2_x3
+0.00688802743898074 a3_x3
+0.99997538076925119 a4_x3
+0.00094514961904348 short_3
-0.00094514961904348 surp_3
= 50.036061

bounds
  0.000000 <= a1_x1 <= 100.000000
  0.000000 <= a1_x2 <= 100.000000
  0.000000 <= a1_x3 <= 100.000000
  0.000000 <= a1_x4 <= 100.000000
  0.000000 <= a1_x5 <= 100.000000
  0.000000 <= a1_x6 <= 100.000000
  0.000000 <= a2_x1 <= 100.000000
  0.000000 <= a2_x2 <= 100.000000
  0.000000 <= a2_x3 <= 100.000000
  0.000000 <= a2_x4 <= 100.000000
  0.000000 <= a2_x5 <= 100.000000
  0.000000 <= a2_x6 <= 100.000000
  0.000000 <= a3_x1 <= 100.000000
  0.000000 <= a3_x2 <= 100.000000
  0.000000 <= a3_x3 <= 100.000000
  0.000000 <= a3_x4 <= 100.000000
  0.000000 <= a3_x5 <= 100.000000
  0.000000 <= a3_x6 <= 100.000000
  0.000000 <= a4_x1 <= 100.000000
  0.000000 <= a4_x2 <= 100.000000
  0.000000 <= a4_x3 <= 100.000000
  0.000000 <= a4_x4 <= 100.000000
  0.000000 <= a4_x5 <= 100.000000
  0.000000 <= a4_x6 <= 100.000000
  0.000000 <= short_1 <= +inf
  0.000000 <= surp_1 <= +inf
  0.000000 <= short_2 <= +inf
  0.000000 <= surp_2 <= +inf
  0.000000 <= short_3 <= +inf
  0.000000 <= surp_3 <= +inf
 0 <= a1_z1 <= 1
 0 <= a1_z2 <= 1
 0 <= a2_z1 <= 1
 0 <= a2_z2 <= 1
 0 <= a3_z1 <= 1
 0 <= a3_z2 <= 1
 0 <= a4_z1 <= 1
 0 <= a4_z2 <= 1

binary
  a1_z1
  a1_z2
  a2_z1
  a2_z2
  a3_z1
  a3_z2
  a4_z1
  a4_z2
end
