min
obj: 
  +7.78207569299738466 a1_x1
  +2.62040292120299334 a1_x2
  +1.02293933329670939 a1_x3
  +7.19109322240713489 a1_x4
  +4.26327457704359070 a1_x5
  +6.02462654690972954 a1_x6
  +42.77102711119731282 a1_z1
  +28.11411837117618262 a1_z2
  +1.09429072695693774 a2_x1
  +2.39250112218893918 a2_x2
  +1.83547081268154932 a2_x3
  +3.26801901615166557 a2_x4
  +8.57451293041723162 a2_x5
  +5.28554157085463672 a2_x6
  +40.37542851028292290 a2_z1
  +37.67992106218490278 a2_z2
  +8.27637474833418807 a3_x1
  +6.90983361892269166 a3_x2
  +7.22469297213641504 a3_x3
  +2.76350562177570946 a3_x4
  +4.58041526640907559 a3_x5
  +5.53917660184281146 a3_x6
  +12.64013062893968176 a3_z1
  +24.71990871554554658 a3_z2
  +3.79335491985486684 a4_x1
  +7.87721431876430422 a4_x2
  +7.82223412443215427 a4_x3
  +1.26243572521241743 a4_x4
  +2.93412910760232926 a4_x5
  +4.86803560394161750 a4_x6
  +47.52172151037576953 a4_z1
  +34.58728502900768120 a4_z2
  +1000000.00000000000000000 short_1
  +1000000.00000000000000000 surp_1
  +1000000.00000000000000000 short_2
  +1000000.00000000000000000 surp_2
  +1000000.00000000000000000 short_3
  +1000000.00000000000000000 surp_3

s.t.

a1_local_1: 
+0.50830128584377543 a1_x4
+0.78099407126304765 a1_x6
+0.36287472144189670 a1_x3
<= 82.586536

a1_local_2: 
+0.39039666452946670 a1_x6
+0.75384461784374823 a1_x2
+0.52849667593304728 a1_x4
<= 111.155497

a1_local_3: 
+0.62639781087864566 a1_x2
+0.62813403544600321 a1_x5
+0.46159876087437646 a1_x4
<= 113.604548

a1_local_4: 
+0.70345461954399757 a1_x2
+0.38261364980276902 a1_x1
+0.59896443402493715 a1_x3
<= 97.354533

a1_local_5: 
+0.79739452556466095 a1_x3
+0.30467483961233105 a1_x2
+0.52089846679243501 a1_x6
<= 70.872307

a1_local_6: 
+0.57704193843430318 a1_x4
+0.67079760420600565 a1_x5
+0.46588966019806111 a1_x2
<= 62.899236

a1_local_7: 
+0.43601959552897129 a1_x1
+0.79355433946322207 a1_x5
+0.42445073051396881 a1_x3
<= 109.084259

a1_local_8: 
+0.52337360990039961 a1_x1
+0.59707591077654110 a1_x5
+0.60793126357359539 a1_x4
<= 55.188638

a1_act_1: 
+0.00999950003749688 a1_x1
-0.99995000374968757 a1_z1
<= 0.000000

a1_act_2: 
+0.00999950003749688 a1_x2
-0.99995000374968757 a1_z2
<= 0.000000

a2_local_1: 
+0.55973648162610345 a2_x2
+0.64635519491725879 a2_x3
+0.51857500242520649 a2_x4
<= 120.215719

a2_local_2: 
+0.45716660215124966 a2_x1
+0.79607202221084428 a2_x4
+0.39657033844025497 a2_x5
<= 101.773709

a2_local_3: 
+0.48150520628687665 a2_x5
+0.47900882114839483 a2_x2
+0.73396409011657893 a2_x6
<= 57.014454

a2_local_4: 
+0.37108491094252499 a2_x5
+0.51453332323007472 a2_x4
+0.77301452001666437 a2_x6
<= 75.252986

a2_local_5: 
+0.54576959919103540 a2_x1
+0.69406046777831110 a2_x3
+0.46948441046131489 a2_x2
<= 115.116891

a2_local_6: 
+0.65271866371194220 a2_x5
+0.55969707700688864 a2_x6
+0.51058547573549484 a2_x1
<= 51.881462

a2_local_7: 
+0.64435631509092817 a2_x5
+0.53966988147753669 a2_x6
+0.54181302884709415 a2_x3
<= 98.530300

a2_local_8: 
+0.55644931175132029 a2_x5
+0.62297550105928134 a2_x2
+0.54978694830945118 a2_x4
<= 61.785271

a2_act_1: 
+0.00999950003749688 a2_x1
-0.99995000374968757 a2_z1
<= 0.000000

a2_act_2: 
+0.00999950003749688 a2_x2
-0.99995000374968757 a2_z2
<= 0.000000

a3_local_1: 
+0.65465585444098084 a3_x1
+0.64792105361424945 a3_x5
+0.38938929174997883 a3_x3
<= 94.779828

a3_local_2: 
+0.60569249579577078 a3_x1
+0.59543971388029249 a3_x3
+0.52781450119416529 a3_x5
<= 101.572116

a3_local_3: 
+0.72153885730764800 a3_x5
+0.61870520967028309 a3_x2
+0.31078214382751268 a3_x4
<= 78.866980

a3_local_4: 
+0.74740317250648791 a3_x6
+0.53417170670805203 a3_x3
+0.39503048677265917 a3_x4
<= 103.578447

a3_local_5: 
+0.53324428707979965 a3_x2
+0.62379898786635002 a3_x4
+0.57142396960022046 a3_x1
<= 93.962988

a3_local_6: 
+0.36973940424554813 a3_x6
+0.30643624498288274 a3_x4
+0.87714856250747963 a3_x5
<= 81.147216

a3_local_7: 
+0.35353124402877611 a3_x6
+0.84635515733245292 a3_x5
+0.39836993756083655 a3_x3
<= 84.746800

a3_local_8: 
+0.66594347090824579 a3_x4
+0.67769820192539965 a3_x6
+0.31184040896227461 a3_x2
<= 101.012303

a3_act_1: 
+0.00999950003749688 a3_x1
-0.99995000374968757 a3_z1
<= 0.000000

a3_act_2: 
+0.00999950003749688 a3_x2
-0.99995000374968757 a3_z2
<= 0.000000

a4_local_1: 
+0.33817599434806367 a4_x2
+0.75191735880741373 a4_x3
+0.56591278689457203 a4_x4
<= 91.252896

a4_local_2: 
+0.57959863448861604 a4_x4
+0.41581070377661739 a4_x6
+0.70083299117815911 a4_x1
<= 64.514147

a4_local_3: 
+0.67875539047922606 a4_x3
+0.40662264837098566 a4_x2
+0.61151381155878981 a4_x5
<= 109.837307

a4_local_4: 
+0.56066381900763096 a4_x2
+0.67959937047783681 a4_x1
+0.47307586886450531 a4_x5
<= 66.195134

a4_local_5: 
+0.56383581487734236 a4_x6
+0.76066913785552093 a4_x2
+0.32167007410659421 a4_x3
<= 105.463454

a4_local_6: 
+0.38801516538316289 a4_x5
+0.77377718471345081 a4_x6
+0.50071259206215568 a4_x2
<= 67.006906

a4_local_7: 
+0.60863090104425599 a4_x6
+0.62699660985340733 a4_x5
+0.48625474550526615 a4_x3
<= 80.750102

a4_local_8: 
+0.49529887827268865 a4_x5
+0.63976000449694503 a4_x6
+0.58769563366413158 a4_x4
<= 55.854884

a4_act_1: 
+0.00999950003749688 a4_x1
-0.99995000374968757 a4_z1
<= 0.000000

a4_act_2: 
+0.00999950003749688 a4_x2
-0.99995000374968757 a4_z2
<= 0.000000

coupling_1: 
+0.00000053714248391 a1_x1
+0.00005391765801975 a2_x1
+0.00965974668850132 a3_x1
+0.99995281083526799 a4_x1
+0.00072886526813584 short_1
-0.00072886526813584 surp_1
= 65.500826

coupling_2: 
+0.00000042541016414 a1_x2
+0.00009532492904531 a2_x2
+0.00579016730211796 a3_x2
+0.99998251659255966 a4_x2
+0.00084598605236187 short_2
-0.00084598605236187 surp_2
= 70.391155

coupling_3: 
+0.00000161874897453 a1_x3
+0.00016412892086257 a2_x3
+0.01708884042276942 a3_x3
+0.99985222711727084 a4_x3
+0.00131691319291557 short_3
-0.00131691319291557 surp_3
= 52.095646

bounds
  0.000000 <= a1_x1 <= 100.000000
  0.000000 <= a1_x2 <= 100.000000
  0.000000 <= a1_x3 <= 100.000000
  0.000000 <= a1_x4 <= 100.000000
  0.000000 <= a1_x5 <= 100.000000
  0.000000 <= a1_x6 <= 100.000000
  0.000000 <= a2_x1 <= 100.000000
  0.000000 <= a2_x2 <= 100.000000
  0.000000 <= a2_x3 <= 100.000000
  0.000000 <= a2_x4 <= 100.000000
  0.000000 <= a2_x5 <= 100.000000
  0.000000 <= a2_x6 <= 100.000000
  0.000000 <= a3_x1 <= 100.000000
  0.000000 <= a3_x2 <= 100.000000
  0.000000 <= a3_x3 <= 100.000000
  0.000000 <= a3_x4 <= 100.000000
  0.000000 <= a3_x5 <= 100.000000
  0.000000 <= a3_x6 <= 100.000000
  0.000000 <= a4_x1 <= 100.000000
  0.000000 <= a4_x2 <= 100.000000
  0.000000 <= a4_x3 <= 100.000000
  0.000000 <= a4_x4 <= 100.000000
  0.000000 <= a4_x5 <= 100.000000
  0.000000 <= a4_x6 <= 100.000000
  0.000000 <= short_1 <= +inf
  0.000000 <= surp_1 <= +inf
  0.000000 <= short_2 <= +inf
  0.000000 <= surp_2 <= +inf
  0.000000 <= short_3 <= +inf
  0.000000 <= surp_3 <= +inf
 0 <= a1_z1 <= 1
 0 <= a1_z2 <= 1
 0 <= a2_z1 <= 1
 0 <= a2_z2 <= 1
 0 <= a3_z1 <= 1
 0 <= a3_z2 <= 1
 0 <= a4_z1 <= 1
 0 <= a4_z2 <= 1

binary
  a1_z1
  a1_z2
  a2_z1
  a2_z2
  a3_z1
  a3_z2
  a4_z1
  a4_z2
end
