min
obj: 
  +2.37029411872895501 a1_x1
  +4.08711411622905185 a1_x2
  +7.66136637275760890 a1_x3
  +4.89991689432673461 a1_x4
  +9.18560754331382867 a1_x5
  +7.80552329567271030 a1_x6
  +17.43087311454965516 a1_z1
  +23.40237872614093462 a1_z2
  +7.13711580461956085 a2_x1
  +9.86731097874472596 a2_x2
  +9.26152928173022261 a2_x3
  +3.50078905131847584 a2_x4
  +7.16373731684462012 a2_x5
  +7.92452849914212010 a2_x6
  +12.29105339851766843 a2_z1
  +33.65890549127213660 a2_z2
  +4.07314116822603278 a3_x1
  +2.67328543975586186 a3_x2
  +9.89718173180398963 a3_x3
  +5.22112132820410846 a3_x4
  +8.01142911451852413 a3_x5
  +2.58297506253818687 a3_x6
  +49.51256436548434436 a3_z1
  +27.09261525514139990 a3_z2
  +6.63650565601125653 a4_x1
  +8.20462741556096375 a4_x2
  +7.12140565612760490 a4_x3
  +6.26647229654029836 a4_x4
  +7.50796663445631296 a4_x5
  +5.57360575198759278 a4_x6
  +9.04054185098157959 a4_z1
  +27.56107960188447947 a4_z2
  +1000000.00000000000000000 short_1
  +1000000.00000000000000000 surp_1
  +1000000.00000000000000000 short_2
  +1000000.00000000000000000 surp_2
  +1000000.00000000000000000 short_3
  +1000000.00000000000000000 surp_3

s.t.

a1_local_1: 
+0.77241195716615829 a1_x3
+0.55510986696212816 a1_x2
+0.30859812706501166 a1_x1
<= 114.444167

a1_local_2: 
+0.57900632461119739 a1_x2
+0.70078383105752595 a1_x1
+0.41671776802599797 a1_x5
<= 70.700990

a1_local_3: 
+0.29618601529088329 a1_x4
+0.57987866544253786 a1_x1
+0.75895624228982383 a1_x2
<= 114.293522

a1_local_4: 
+0.47327851004709753 a1_x2
+0.81828922468365550 a1_x5
+0.32620575821744968 a1_x1
<= 64.649399

a1_local_5: 
+0.36734108743170801 a1_x6
+0.63359889239632061 a1_x2
+0.68089130486344607 a1_x5
<= 73.135034

a1_local_6: 
+0.67634375358820198 a1_x1
+0.46025579715374171 a1_x6
+0.57508584417336783 a1_x5
<= 61.537891

a1_local_7: 
+0.56690561791849470 a1_x5
+0.58499742674880872 a1_x4
+0.57999657849828912 a1_x1
<= 67.950117

a1_local_8: 
+0.65207408325029370 a1_x6
+0.49527768629049418 a1_x5
+0.57402038588888438 a1_x2
<= 119.808627

a1_act_1: 
+0.00999950003749688 a1_x1
-0.99995000374968757 a1_z1
<= 0.000000

a1_act_2: 
+0.00999950003749688 a1_x2
-0.99995000374968757 a1_z2
<= 0.000000

a2_local_1: 
+0.54911824232179274 a2_x6
+0.57335660779261954 a2_x1
+0.60805538912994217 a2_x3
<= 117.510592

a2_local_2: 
+0.66810605983726146 a2_x5
+0.60555299253408046 a2_x4
+0.43236543113638209 a2_x2
<= 73.735076

a2_local_3: 
+0.67030100343169718 a2_x1
+0.33341969637268204 a2_x6
+0.66296898183037822 a2_x3
<= 90.879131

a2_local_4: 
+0.27298831903800402 a2_x6
+0.64549758915640554 a2_x2
+0.71330935789604866 a2_x1
<= 104.229229

a2_local_5: 
+0.63045094666658730 a2_x1
+0.40158174903591159 a2_x6
+0.66427682684891376 a2_x2
<= 65.747941

a2_local_6: 
+0.60119021663261940 a2_x2
+0.52428172571888243 a2_x3
+0.60307461851951183 a2_x5
<= 93.944738

a2_local_7: 
+0.33899836697336877 a2_x1
+0.67654895631412582 a2_x4
+0.65372900876407214 a2_x3
<= 80.456853

a2_local_8: 
+0.45116048109391438 a2_x1
+0.39428408346917504 a2_x5
+0.80062118496950885 a2_x3
<= 92.990595

a2_act_1: 
+0.00999950003749688 a2_x1
-0.99995000374968757 a2_z1
<= 0.000000

a2_act_2: 
+0.00999950003749688 a2_x2
-0.99995000374968757 a2_z2
<= 0.000000

a3_local_1: 
+0.58686243400301796 a3_x2
+0.47763215551731569 a3_x1
+0.65380425784170015 a3_x5
<= 114.868408

a3_local_2: 
+0.60374375736530261 a3_x6
+0.62206106239179826 a3_x5
+0.49853135317491709 a3_x3
<= 73.671565

a3_local_3: 
+0.51046909469657009 a3_x5
+0.55688024336056985 a3_x1
+0.65521423818041102 a3_x4
<= 78.146627

a3_local_4: 
+0.44963840955300688 a3_x5
+0.69941239980407166 a3_x2
+0.55556061384420707 a3_x6
<= 66.655589

a3_local_5: 
+0.71532916863256824 a3_x5
+0.41715344832917400 a3_x1
+0.56061321876184655 a3_x6
<= 98.268185

a3_local_6: 
+0.48113502172049766 a3_x2
+0.68110604761006088 a3_x3
+0.55190908923754611 a3_x1
<= 117.556291

a3_local_7: 
+0.61873482797448953 a3_x4
+0.32757898195559437 a3_x3
+0.71404427259961634 a3_x6
<= 70.380977

a3_local_8: 
+0.55602492840374218 a3_x5
+0.57217565334649900 a3_x6
+0.60286922355608807 a3_x4
<= 90.885757

a3_act_1: 
+0.00999950003749688 a3_x1
-0.99995000374968757 a3_z1
<= 0.000000

a3_act_2: 
+0.00999950003749688 a3_x2
-0.99995000374968757 a3_z2
<= 0.000000

a4_local_1: 
+0.53115479346048566 a4_x2
+0.76785421784499741 a4_x3
+0.35815427614590356 a4_x1
<= 64.884108

a4_local_2: 
+0.50232361808292381 a4_x2
+0.64104098897445461 a4_x1
+0.58029081775497193 a4_x6
<= 63.036250

a4_local_3: 
+0.56701322740703075 a4_x5
+0.36801406164856154 a4_x3
+0.73692716761861321 a4_x2
<= 89.926017

a4_local_4: 
+0.62700475387235888 a4_x2
+0.48261932141035274 a4_x3
+0.61150930428152384 a4_x4
<= 73.986075

a4_local_5: 
+0.68697701092450347 a4_x1
+0.49200142414376985 a4_x3
+0.53478704649770337 a4_x2
<= 68.417537

a4_local_6: 
+0.30769936179685253 a4_x2
+0.46546423421008171 a4_x6
+0.82985790917543967 a4_x3
<= 85.355779

a4_local_7: 
+0.75147322081669554 a4_x4
+0.60178596781059868 a4_x2
+0.27044712485371863 a4_x5
<= 68.647875

a4_local_8: 
+0.67857253477884127 a4_x5
+0.66516786754090340 a4_x2
+0.31159432445875096 a4_x4
<= 88.780333

a4_act_1: 
+0.00999950003749688 a4_x1
-0.99995000374968757 a4_z1
<= 0.000000

a4_act_2: 
+0.00999950003749688 a4_x2
-0.99995000374968757 a4_z2
<= 0.000000

coupling_1: 
+0.00000113842622337 a1_x1
+0.00006187857222345 a2_x1
+0.00855289627237926 a3_x1
+0.99996277381103893 a4_x1
+0.00080471337550887 short_1
-0.00080471337550887 surp_1
= 67.886564

coupling_2: 
+0.00000116199553020 a1_x2
+0.00009283153786898 a2_x2
+0.01223849620589743 a3_x2
+0.99992442452182140 a4_x2
+0.00082335784377696 short_2
-0.00082335784377696 surp_2
= 66.351946

coupling_3: 
+0.00000084736841252 a1_x3
+0.00006305314280531 a2_x3
+0.00793271735236976 a3_x3
+0.99996792085861363 a4_x3
+0.00078271089558211 short_3
-0.00078271089558211 surp_3
= 73.596240

bounds
  0.000000 <= a1_x1 <= 100.000000
  0.000000 <= a1_x2 <= 100.000000
  0.000000 <= a1_x3 <= 100.000000
  0.000000 <= a1_x4 <= 100.000000
  0.000000 <= a1_x5 <= 100.000000
  0.000000 <= a1_x6 <= 100.000000
  0.000000 <= a2_x1 <= 100.000000
  0.000000 <= a2_x2 <= 100.000000
  0.000000 <= a2_x3 <= 100.000000
  0.000000 <= a2_x4 <= 100.000000
  0.000000 <= a2_x5 <= 100.000000
  0.000000 <= a2_x6 <= 100.000000
  0.000000 <= a3_x1 <= 100.000000
  0.000000 <= a3_x2 <= 100.000000
  0.000000 <= a3_x3 <= 100.000000
  0.000000 <= a3_x4 <= 100.000000
  0.000000 <= a3_x5 <= 100.000000
  0.000000 <= a3_x6 <= 100.000000
  0.000000 <= a4_x1 <= 100.000000
  0.000000 <= a4_x2 <= 100.000000
  0.000000 <= a4_x3 <= 100.000000
  0.000000 <= a4_x4 <= 100.000000
  0.000000 <= a4_x5 <= 100.000000
  0.000000 <= a4_x6 <= 100.000000
  0.000000 <= short_1 <= +inf
  0.000000 <= surp_1 <= +inf
  0.000000 <= short_2 <= +inf
  0.000000 <= surp_2 <= +inf
  0.000000 <= short_3 <= +inf
  0.000000 <= surp_3 <= +inf
 0 <= a1_z1 <= 1
 0 <= a1_z2 <= 1
 0 <= a2_z1 <= 1
 0 <= a2_z2 <= 1
 0 <= a3_z1 <= 1
 0 <= a3_z2 <= 1
 0 <= a4_z1 <= 1
 0 <= a4_z2 <= 1

binary
  a1_z1
  a1_z2
  a2_z1
  a2_z2
  a3_z1
  a3_z2
  a4_z1
  a4_z2
end
