min
obj: 
  +1.57709742578195788 a1_x1
  +5.24362332399284625 a1_x2
  +8.06959664561268042 a1_x3
  +3.47810228856863679 a1_x4
  +9.41205830682384104 a1_x5
  +8.31656886029670339 a1_x6
  +34.00140095985545230 a1_z1
  +10.41050343041974102 a1_z2
  +7.41825931722322895 a2_x1
  +8.28066141375753872 a2_x2
  +6.06494311381576523 a2_x3
  +8.65417661359723311 a2_x4
  +4.32929045080204133 a2_x5
  +7.27024404204758401 a2_x6
  +22.65925838872017550 a2_z1
  +14.32924585982750010 a2_z2
  +6.57062993093993875 a3_x1
  +3.46672163395224064 a3_x2
  +8.73068689063360637 a3_x3
  +5.78731633243780319 a3_x4
  +5.65993509091970015 a3_x5
  +4.88699203046912878 a3_x6
  +21.67833706752954370 a3_z1
  +5.90058593924896702 a3_z2
  +6.06162452349797132 a4_x1
  +4.52735162287015491 a4_x2
  +9.79326185053260900 a4_x3
  +5.17425215108361947 a4_x4
  +5.44899982766291835 a4_x5
  +4.65504731238401082 a4_x6
  +25.90789863548987526 a4_z1
  +20.49298729783527051 a4_z2
  +1000000.00000000000000000 short_1
  +1000000.00000000000000000 surp_1
  +1000000.00000000000000000 short_2
  +1000000.00000000000000000 surp_2
  +1000000.00000000000000000 short_3
  +1000000.00000000000000000 surp_3

s.t.

a1_local_1: 
+0.00135963528472831 a1_x1
+0.00138998373502692 a1_x6
+0.00084774976891834 a1_x5
<= 0.189233

a1_local_2: 
+0.00068309729952001 a1_x5
+0.00090677427658082 a1_x2
+0.00050009063877708 a1_x4
<= 0.138920

a1_local_3: 
+0.00095733733688664 a1_x4
+0.00103154892605694 a1_x2
+0.00071461148554972 a1_x6
<= 0.137384

a1_local_4: 
+0.00088454130087828 a1_x3
+0.00073758039142452 a1_x4
+0.00141568021998488 a1_x1
<= 0.209683

a1_local_5: 
+0.00069880301739105 a1_x4
+0.00103821733489330 a1_x6
+0.00136731318264746 a1_x3
<= 0.211656

a1_local_6: 
+0.00109028142605086 a1_x2
+0.00081728509743205 a1_x4
+0.00059437931473846 a1_x3
<= 0.110941

a1_local_7: 
+0.00077255037158127 a1_x2
+0.00063596028887264 a1_x4
+0.00145137540836666 a1_x3
<= 0.111471

a1_local_8: 
+0.00089489294982925 a1_x6
+0.00115793742883915 a1_x4
+0.00148774925694686 a1_x3
<= 0.181902

a1_act_1: 
+1.00000000000000000 a1_x1
-100.00000000000000000 a1_z1
<= 0.000000

a1_act_2: 
+1.00000000000000000 a1_x2
-100.00000000000000000 a1_z2
<= 0.000000

a2_local_1: 
+0.07667892904907116 a2_x1
+0.07217565496937826 a2_x3
+0.13281894177090633 a2_x6
<= 16.379616

a2_local_2: 
+0.06305870489480529 a2_x2
+0.14293542108356902 a2_x3
+0.10804408631619410 a2_x5
<= 11.956096

a2_local_3: 
+0.12622231546018017 a2_x6
+0.12623165888456978 a2_x5
+0.11390282969860495 a2_x1
<= 18.685739

a2_local_4: 
+0.14497908415566110 a2_x6
+0.05996592601638913 a2_x4
+0.13491977774742631 a2_x2
<= 18.262477

a2_local_5: 
+0.08639737440774449 a2_x1
+0.07255442940312762 a2_x2
+0.10371652131402742 a2_x3
<= 15.779372

a2_local_6: 
+0.13332273803441669 a2_x4
+0.07147550592470638 a2_x6
+0.08449188036861277 a2_x1
<= 13.998773

a2_local_7: 
+0.07334650957680994 a2_x5
+0.11203237939918331 a2_x1
+0.07267618450219640 a2_x6
<= 17.094414

a2_local_8: 
+0.07293293906481424 a2_x1
+0.08417426215564888 a2_x2
+0.10273239164531943 a2_x6
<= 10.542730

a2_act_1: 
+1.00000000000000000 a2_x1
-100.00000000000000000 a2_z1
<= 0.000000

a2_act_2: 
+1.00000000000000000 a2_x2
-100.00000000000000000 a2_z2
<= 0.000000

a3_local_1: 
+10.67008432626458614 a3_x2
+12.28286923017609311 a3_x4
+8.41386567703372279 a3_x6
<= 1154.586433

a3_local_2: 
+12.25006977750409476 a3_x2
+5.55157755263719555 a3_x4
+5.12328615254112663 a3_x6
<= 1431.526007

a3_local_3: 
+9.42073920128292741 a3_x6
+14.43563405328564642 a3_x3
+11.07520422124232518 a3_x2
<= 2169.392881

a3_local_4: 
+13.97966053805160058 a3_x3
+14.48565285721103102 a3_x2
+6.50358584982745391 a3_x5
<= 1720.555913

a3_local_5: 
+12.59637339060175165 a3_x4
+11.39006606352766404 a3_x2
+5.89149435026325285 a3_x6
<= 997.489870

a3_local_6: 
+9.73124188841926419 a3_x3
+14.23305972920674733 a3_x5
+13.84696329414216720 a3_x1
<= 1895.559387

a3_local_7: 
+8.69102483003959492 a3_x2
+13.86149992046508572 a3_x3
+8.41591883318207223 a3_x5
<= 1165.553524

a3_local_8: 
+8.24960470894998643 a3_x2
+6.77781108266761390 a3_x5
+11.10648178627135962 a3_x3
<= 1284.212051

a3_act_1: 
+1.00000000000000000 a3_x1
-100.00000000000000000 a3_z1
<= 0.000000

a3_act_2: 
+1.00000000000000000 a3_x2
-100.00000000000000000 a3_z2
<= 0.000000

a4_local_1: 
+549.58064319463358061 a4_x4
+1414.08686010214933049 a4_x5
+740.29898216289302582 a4_x1
<= 106020.887131

a4_local_2: 
+664.04099881629645097 a4_x6
+1306.87854306914641711 a4_x4
+699.13069661309975800 a4_x1
<= 168268.273679

a4_local_3: 
+1107.04849163857761596 a4_x1
+870.42591759120830375 a4_x3
+865.30039461971534820 a4_x4
<= 174694.696190

a4_local_4: 
+1142.40154015830398748 a4_x3
+1128.89214744363425780 a4_x6
+1020.86828022301824603 a4_x5
<= 222154.137675

a4_local_5: 
+1497.33286838732055912 a4_x4
+1218.60041157519958688 a4_x5
+691.60351682621774216 a4_x6
<= 166219.490664

a4_local_6: 
+892.33748435442646496 a4_x5
+1212.56538908029347112 a4_x3
+1225.69582299523904112 a4_x2
<= 192672.810481

a4_local_7: 
+683.86147291638883416 a4_x6
+528.65619798879413338 a4_x3
+1283.55797084713390177 a4_x4
<= 80668.719745

a4_local_8: 
+865.58493735763158838 a4_x6
+1154.50365593334549885 a4_x4
+1363.71899989055850710 a4_x1
<= 139458.802548

a4_act_1: 
+1.00000000000000000 a4_x1
-100.00000000000000000 a4_z1
<= 0.000000

a4_act_2: 
+1.00000000000000000 a4_x2
-100.00000000000000000 a4_z2
<= 0.000000

coupling_1: 
+0.00000787616039900 a1_x1
+0.00064886058793145 a2_x1
+0.04708902876140283 a3_x1
+7.02570358047233956 a4_x1
+0.00625884076028894 short_1
-0.00625884076028894 surp_1
= 498.853048

coupling_2: 
+0.00951378254928143 a1_x2
+0.82118807977878183 a2_x2
+123.88240969272654013 a3_x2
+12724.53524383286639932 a4_x2
+10.78078307114064138 short_2
-10.78078307114064138 surp_2
= 864026.004378

coupling_3: 
+0.02006048654045480 a1_x3
+2.23951744988470169 a2_x3
+178.91588678359181586 a3_x3
+24662.94802834765869193 a4_x3
+24.25344558593762301 short_3
-24.25344558593762301 surp_3
= 1634294.240461

bounds
  0.000000 <= a1_x1 <= 100.000000
  0.000000 <= a1_x2 <= 100.000000
  0.000000 <= a1_x3 <= 100.000000
  0.000000 <= a1_x4 <= 100.000000
  0.000000 <= a1_x5 <= 100.000000
  0.000000 <= a1_x6 <= 100.000000
  0.000000 <= a2_x1 <= 100.000000
  0.000000 <= a2_x2 <= 100.000000
  0.000000 <= a2_x3 <= 100.000000
  0.000000 <= a2_x4 <= 100.000000
  0.000000 <= a2_x5 <= 100.000000
  0.000000 <= a2_x6 <= 100.000000
  0.000000 <= a3_x1 <= 100.000000
  0.000000 <= a3_x2 <= 100.000000
  0.000000 <= a3_x3 <= 100.000000
  0.000000 <= a3_x4 <= 100.000000
  0.000000 <= a3_x5 <= 100.000000
  0.000000 <= a3_x6 <= 100.000000
  0.000000 <= a4_x1 <= 100.000000
  0.000000 <= a4_x2 <= 100.000000
  0.000000 <= a4_x3 <= 100.000000
  0.000000 <= a4_x4 <= 100.000000
  0.000000 <= a4_x5 <= 100.000000
  0.000000 <= a4_x6 <= 100.000000
  0.000000 <= short_1 <= +inf
  0.000000 <= surp_1 <= +inf
  0.000000 <= short_2 <= +inf
  0.000000 <= surp_2 <= +inf
  0.000000 <= short_3 <= +inf
  0.000000 <= surp_3 <= +inf
 0 <= a1_z1 <= 1
 0 <= a1_z2 <= 1
 0 <= a2_z1 <= 1
 0 <= a2_z2 <= 1
 0 <= a3_z1 <= 1
 0 <= a3_z2 <= 1
 0 <= a4_z1 <= 1
 0 <= a4_z2 <= 1

binary
  a1_z1
  a1_z2
  a2_z1
  a2_z2
  a3_z1
  a3_z2
  a4_z1
  a4_z2
end
