min
obj: 
  +9.92789069156587445 a1_x1
  +4.10293210566149646 a1_x2
  +3.32901181929639423 a1_x3
  +9.10176472428019245 a1_x4
  +1.02767819950250816 a1_x5
  +7.50152284301075145 a1_x6
  +48.47610588570461232 a1_z1
  +46.46239370281180214 a1_z2
  +6.93758052846583873 a2_x1
  +8.73612443817434503 a2_x2
  +2.04228756855595339 a2_x3
  +7.91416373752481395 a2_x4
  +8.85104976446995906 a2_x5
  +5.35890260317347789 a2_x6
  +22.32551298055883748 a2_z1
  +43.59910462783197715 a2_z2
  +2.44474458582316245 a3_x1
  +8.77121756982191414 a3_x2
  +5.76281450528001393 a3_x3
  +8.52709380603204359 a3_x4
  +1.13892657158295396 a3_x5
  +2.91144295006929399 a3_x6
  +15.13786411581276603 a3_z1
  +21.64888772902043002 a3_z2
  +4.31354625098332889 a4_x1
  +3.73746776663401503 a4_x2
  +6.30470396079639350 a4_x3
  +7.23244248154489888 a4_x4
  +3.53129435828251648 a4_x5
  +2.19432544763669313 a4_x6
  +13.98335585286305616 a4_z1
  +25.76781967633817416 a4_z2
  +1000000.00000000000000000 short_1
  +1000000.00000000000000000 surp_1
  +1000000.00000000000000000 short_2
  +1000000.00000000000000000 surp_2
  +1000000.00000000000000000 short_3
  +1000000.00000000000000000 surp_3

s.t.

a1_local_1: 
+1.21501867946975217 a1_x4
+1.18164631490537908 a1_x6
+0.82303261414582629 a1_x1
<= 128.373546

a1_local_2: 
+1.05148116348112231 a1_x4
+0.91201026733257151 a1_x3
+1.09647888386693149 a1_x5
<= 154.346076

a1_local_3: 
+0.75664890650966610 a1_x4
+0.94991445195648361 a1_x3
+1.32161692351196902 a1_x2
<= 162.941027

a1_local_4: 
+1.07192480178993699 a1_x4
+1.35216756611632505 a1_x5
+0.73955331059462159 a1_x2
<= 207.259973

a1_local_5: 
+1.52554721067789334 a1_x2
+0.65550249313860243 a1_x1
+1.35918274828457331 a1_x6
<= 178.363233

a1_local_6: 
+0.70229148870958735 a1_x3
+1.42391017985627566 a1_x5
+1.14116453450411193 a1_x4
<= 223.831032

a1_local_7: 
+0.72880026951819588 a1_x6
+0.81002640736533726 a1_x4
+1.37211804361857892 a1_x3
<= 97.558206

a1_local_8: 
+1.35127531285957336 a1_x1
+0.74004164102117487 a1_x3
+1.21572688211841973 a1_x4
<= 201.196128

a1_act_1: 
+0.10000000000000001 a1_x1
-10.00000000000000000 a1_z1
<= 0.000000

a1_act_2: 
+0.10000000000000001 a1_x2
-10.00000000000000000 a1_z2
<= 0.000000

a2_local_1: 
+0.76527659051235053 a2_x3
+0.73916055019772753 a2_x1
+1.35288605396012729 a2_x6
<= 171.853028

a2_local_2: 
+0.74840880784559671 a2_x4
+1.33616813366834242 a2_x1
+1.18711353535216890 a2_x5
<= 115.032637

a2_local_3: 
+0.60709627354040507 a2_x2
+1.43189962289797434 a2_x5
+1.64718520535185831 a2_x1
<= 190.273264

a2_local_4: 
+1.07695403690108549 a2_x2
+1.03994431642959650 a2_x1
+0.92854473425577266 a2_x4
<= 169.619087

a2_local_5: 
+0.85101975162979593 a2_x4
+1.14247934461605327 a2_x5
+1.17506085855808928 a2_x2
<= 122.896613

a2_local_6: 
+1.06787208593486804 a2_x1
+1.23640084455691701 a2_x2
+0.80879918871162304 a2_x3
<= 203.369346

a2_local_7: 
+0.86430641799258312 a2_x1
+0.97576147649340239 a2_x2
+1.15699707786802675 a2_x4
<= 191.335906

a2_local_8: 
+0.65568429538975681 a2_x6
+1.52512422065191044 a2_x3
+1.26651329856328276 a2_x5
<= 155.206400

a2_act_1: 
+0.10000000000000001 a2_x1
-10.00000000000000000 a2_z1
<= 0.000000

a2_act_2: 
+0.10000000000000001 a2_x2
-10.00000000000000000 a2_z2
<= 0.000000

a3_local_1: 
+1.59456805558424097 a3_x4
+0.61429344521114027 a3_x6
+1.62788648942247360 a3_x3
<= 164.400381

a3_local_2: 
+1.07016672572159255 a3_x6
+1.05551066019918616 a3_x4
+0.93443383723757589 a3_x3
<= 122.101310

a3_local_3: 
+1.16958030016538350 a3_x2
+0.85500756113846621 a3_x1
+0.93444786978920147 a3_x4
<= 136.270181

a3_local_4: 
+0.73418617648838636 a3_x5
+0.78901750512116542 a3_x3
+1.36205234043359602 a3_x2
<= 167.833043

a3_local_5: 
+0.61735490789970082 a3_x1
+0.83836344733774260 a3_x2
+1.61981380111173623 a3_x5
<= 107.088659

a3_local_6: 
+1.13966323651581658 a3_x6
+0.97547903340670150 a3_x4
+0.87745218759289323 a3_x2
<= 175.530619

a3_local_7: 
+1.39624204437054233 a3_x2
+0.85747778462066959 a3_x3
+0.71620819902384669 a3_x5
<= 155.369181

a3_local_8: 
+0.64367469071505234 a3_x5
+0.86223092083818231 a3_x2
+1.55357980424724995 a3_x3
<= 174.377931

a3_act_1: 
+0.10000000000000001 a3_x1
-10.00000000000000000 a3_z1
<= 0.000000

a3_act_2: 
+0.10000000000000001 a3_x2
-10.00000000000000000 a3_z2
<= 0.000000

a4_local_1: 
+0.70324529153788728 a4_x1
+1.42197894821756488 a4_x4
+1.07483931909977626 a4_x6
<= 137.382062

a4_local_2: 
+1.12009862686782879 a4_x6
+1.11846103865430657 a4_x3
+0.89277852504500899 a4_x4
<= 209.447731

a4_local_3: 
+0.80718506019082636 a4_x1
+1.52835033008549037 a4_x2
+0.65430024799619302 a4_x5
<= 105.251528

a4_local_4: 
+1.09580791442912417 a4_x4
+0.91256869642245975 a4_x5
+1.04518022884542838 a4_x1
<= 111.203509

a4_local_5: 
+0.67531843618071796 a4_x4
+1.48078291132628870 a4_x6
+1.01655210253788342 a4_x2
<= 216.062013

a4_local_6: 
+1.21738940896177206 a4_x6
+1.11979119258846160 a4_x2
+0.82142985033263227 a4_x3
<= 159.549914

a4_local_7: 
+1.49656109700580608 a4_x6
+1.31532496345145566 a4_x3
+0.66819858006513477 a4_x4
<= 216.631570

a4_local_8: 
+0.94803023231847250 a4_x2
+0.93191586716542862 a4_x4
+1.07305823973322845 a4_x3
<= 134.273624

a4_act_1: 
+0.10000000000000001 a4_x1
-10.00000000000000000 a4_z1
<= 0.000000

a4_act_2: 
+0.10000000000000001 a4_x2
-10.00000000000000000 a4_z2
<= 0.000000

coupling_1: 
+0.00000250110536577 a1_x1
+0.00014598979704589 a2_x1
+0.02484899997589060 a3_x1
+0.99968760832368464 a4_x1
+0.00189626540772495 short_1
-0.00189626540772495 surp_1
= 45.575428

coupling_2: 
+0.00000090612446154 a1_x2
+0.00015179149702468 a2_x2
+0.00993701968722339 a3_x2
+0.99994867083302230 a4_x2
+0.00139432735184902 short_2
-0.00139432735184902 surp_2
= 47.810143

coupling_3: 
+0.00000138504786143 a1_x3
+0.00006594613744984 a2_x3
+0.00973220476493821 a3_x3
+0.99995111405329296 a4_x3
+0.00123477592713580 short_3
-0.00123477592713580 surp_3
= 68.140845

bounds
  0.000000 <= a1_x1 <= 100.000000
  0.000000 <= a1_x2 <= 100.000000
  0.000000 <= a1_x3 <= 100.000000
  0.000000 <= a1_x4 <= 100.000000
  0.000000 <= a1_x5 <= 100.000000
  0.000000 <= a1_x6 <= 100.000000
  0.000000 <= a2_x1 <= 100.000000
  0.000000 <= a2_x2 <= 100.000000
  0.000000 <= a2_x3 <= 100.000000
  0.000000 <= a2_x4 <= 100.000000
  0.000000 <= a2_x5 <= 100.000000
  0.000000 <= a2_x6 <= 100.000000
  0.000000 <= a3_x1 <= 100.000000
  0.000000 <= a3_x2 <= 100.000000
  0.000000 <= a3_x3 <= 100.000000
  0.000000 <= a3_x4 <= 100.000000
  0.000000 <= a3_x5 <= 100.000000
  0.000000 <= a3_x6 <= 100.000000
  0.000000 <= a4_x1 <= 100.000000
  0.000000 <= a4_x2 <= 100.000000
  0.000000 <= a4_x3 <= 100.000000
  0.000000 <= a4_x4 <= 100.000000
  0.000000 <= a4_x5 <= 100.000000
  0.000000 <= a4_x6 <= 100.000000
  0.000000 <= short_1 <= +inf
  0.000000 <= surp_1 <= +inf
  0.000000 <= short_2 <= +inf
  0.000000 <= surp_2 <= +inf
  0.000000 <= short_3 <= +inf
  0.000000 <= surp_3 <= +inf
 0 <= a1_z1 <= 1
 0 <= a1_z2 <= 1
 0 <= a2_z1 <= 1
 0 <= a2_z2 <= 1
 0 <= a3_z1 <= 1
 0 <= a3_z2 <= 1
 0 <= a4_z1 <= 1
 0 <= a4_z2 <= 1

binary
  a1_z1
  a1_z2
  a2_z1
  a2_z2
  a3_z1
  a3_z2
  a4_z1
  a4_z2
end
