min
obj: 
  +3.04305245350352704 a1_x1
  +8.52421046785006808 a1_x2
  +7.69307565210918742 a1_x3
  +6.91899621560824230 a1_x4
  +9.20970734213053355 a1_x5
  +1.67836132765545631 a1_x6
  +29.95730103851083470 a1_z1
  +31.08072985890714435 a1_z2
  +8.69577677526249104 a2_x1
  +6.90777420422215815 a2_x2
  +5.08754459362986733 a2_x3
  +7.59170235780382363 a2_x4
  +8.27944903727416381 a2_x5
  +1.03512879040065853 a2_x6
  +28.92886188645300649 a2_z1
  +23.93421358976911506 a2_z2
  +5.14038055583452635 a3_x1
  +3.33875162916421697 a3_x2
  +6.11068986646011059 a3_x3
  +6.55082117265498010 a3_x4
  +5.19513264683116827 a3_x5
  +3.93701514527552376 a3_x6
  +16.85304582879687985 a3_z1
  +38.53959756350231913 a3_z2
  +1.41634150693496075 a4_x1
  +8.54382197580174818 a4_x2
  +7.14956107064012691 a4_x3
  +5.56590579337685210 a4_x4
  +2.52647125500070402 a4_x5
  +2.35011295395534869 a4_x6
  +43.90402305541062589 a4_z1
  +7.45391026181894656 a4_z2
  +1000000.00000000000000000 short_1
  +1000000.00000000000000000 surp_1
  +1000000.00000000000000000 short_2
  +1000000.00000000000000000 surp_2
  +1000000.00000000000000000 short_3
  +1000000.00000000000000000 surp_3

s.t.

a1_local_1: 
+0.00050697184382356 a1_x4
+0.00063070814300599 a1_x3
+0.00135873784150293 a1_x1
<= 0.155078

a1_local_2: 
+0.00066164660390064 a1_x6
+0.00115278111452226 a1_x4
+0.00070176638952813 a1_x2
<= 0.112483

a1_local_3: 
+0.00144024589145651 a1_x3
+0.00085063838979128 a1_x1
+0.00056510120820103 a1_x4
<= 0.119961

a1_local_4: 
+0.00119415684851969 a1_x3
+0.00066990276680099 a1_x1
+0.00125640309743608 a1_x2
<= 0.154836

a1_local_5: 
+0.00065664062725786 a1_x3
+0.00112895965606468 a1_x2
+0.00120076611469730 a1_x4
<= 0.117952

a1_local_6: 
+0.00077678333966015 a1_x3
+0.00146440291383184 a1_x5
+0.00102187490811662 a1_x4
<= 0.113369

a1_local_7: 
+0.00137170099376216 a1_x5
+0.00115577671130270 a1_x6
+0.00087832444884740 a1_x1
<= 0.150481

a1_local_8: 
+0.00090391888862948 a1_x2
+0.00073252222234779 a1_x3
+0.00081837805538173 a1_x6
<= 0.122472

a1_act_1: 
+1.00000000000000000 a1_x1
-100.00000000000000000 a1_z1
<= 0.000000

a1_act_2: 
+1.00000000000000000 a1_x2
-100.00000000000000000 a1_z2
<= 0.000000

a2_local_1: 
+0.05176341627626017 a2_x6
+0.06344901489403883 a2_x3
+0.07169614919324628 a2_x1
<= 6.317022

a2_local_2: 
+0.06986961578039441 a2_x4
+0.08699620047195095 a2_x1
+0.13342349175535886 a2_x5
<= 15.252397

a2_local_3: 
+0.08671408223907524 a2_x6
+0.10297548042271534 a2_x5
+0.13914658806165911 a2_x3
<= 20.170040

a2_local_4: 
+0.08307521502027715 a2_x4
+0.12954504241131476 a2_x3
+0.08824035191493507 a2_x6
<= 14.714733

a2_local_5: 
+0.12317434114557220 a2_x6
+0.11192088007077866 a2_x2
+0.08380831561954810 a2_x5
<= 18.185753

a2_local_6: 
+0.09651806182433971 a2_x2
+0.08209127675242223 a2_x1
+0.10164638198111375 a2_x4
<= 11.634107

a2_local_7: 
+0.08200794819353251 a2_x6
+0.14330288837289698 a2_x2
+0.13628256696790603 a2_x5
<= 16.482123

a2_local_8: 
+0.14153230658338653 a2_x2
+0.07350887529926799 a2_x4
+0.10230762148015271 a2_x5
<= 13.808495

a2_act_1: 
+1.00000000000000000 a2_x1
-100.00000000000000000 a2_z1
<= 0.000000

a2_act_2: 
+1.00000000000000000 a2_x2
-100.00000000000000000 a2_z2
<= 0.000000

a3_local_1: 
+9.02911793214232006 a3_x6
+13.81713061162071909 a3_x5
+12.25832357357771407 a3_x2
<= 2341.720278

a3_local_2: 
+13.79730079259475772 a3_x4
+6.48652644451167237 a3_x3
+9.66831096520440525 a3_x1
<= 1289.315694

a3_local_3: 
+11.80356430872676832 a3_x2
+11.44252358820274296 a3_x4
+13.42897997579586189 a3_x3
<= 1984.222166

a3_local_4: 
+10.82621593415278305 a3_x5
+13.86957629694797589 a3_x2
+12.45749190894047587 a3_x1
<= 2467.402528

a3_local_5: 
+9.26777576950155080 a3_x6
+10.87383469546576364 a3_x2
+5.53038987861499187 a3_x3
<= 1785.416059

a3_local_6: 
+13.15888694970660211 a3_x1
+13.72240408821348367 a3_x4
+5.51906525736286824 a3_x3
<= 1833.088547

a3_local_7: 
+13.99155516374675301 a3_x2
+11.91641723655694030 a3_x6
+10.69273426101413627 a3_x5
<= 2557.943675

a3_local_8: 
+8.42458828720929809 a3_x2
+6.63131491235217840 a3_x3
+9.47773218922512761 a3_x4
<= 1117.687162

a3_act_1: 
+1.00000000000000000 a3_x1
-100.00000000000000000 a3_z1
<= 0.000000

a3_act_2: 
+1.00000000000000000 a3_x2
-100.00000000000000000 a3_z2
<= 0.000000

a4_local_1: 
+770.04214379245365762 a4_x4
+639.81232959295277851 a4_x5
+1106.56679470263611620 a4_x6
<= 92838.201816

a4_local_2: 
+1257.63503773334150537 a4_x3
+1462.95300185418727779 a4_x1
+1010.45405397420040572 a4_x2
<= 247448.820978

a4_local_3: 
+565.16529911070426806 a4_x4
+720.32831130866691183 a4_x6
+1170.08233449842691698 a4_x2
<= 76121.878958

a4_local_4: 
+986.79356709185174168 a4_x2
+896.52566412003272944 a4_x3
+708.70243523321187240 a4_x1
<= 153822.727577

a4_local_5: 
+719.16633369188059532 a4_x4
+1301.41170741962878310 a4_x5
+847.31537185675074397 a4_x2
<= 196965.719476

a4_local_6: 
+1270.36664534109922897 a4_x6
+527.33861341418901247 a4_x5
+969.16414774672841759 a4_x3
<= 190001.069488

a4_local_7: 
+521.63364395311373301 a4_x4
+1224.83247068875289187 a4_x3
+1303.29177689118068884 a4_x5
<= 200217.740251

a4_local_8: 
+979.25406698896483704 a4_x1
+576.15560200627965060 a4_x6
+1366.37158363654043569 a4_x4
<= 161399.030163

a4_act_1: 
+1.00000000000000000 a4_x1
-100.00000000000000000 a4_z1
<= 0.000000

a4_act_2: 
+1.00000000000000000 a4_x2
-100.00000000000000000 a4_z2
<= 0.000000

coupling_1: 
+0.23570392399642889 a1_x1
+9.20528982993548084 a2_x1
+889.92230359564871378 a3_x1
+204883.83097901919973083 a4_x1
+164.26021024460851550 short_1
-164.26021024460851550 surp_1
= 4152772.838277

coupling_2: 
+0.00000157515169271 a1_x2
+0.00019138993071601 a2_x2
+0.02773771375911838 a3_x2
+2.56603975104640902 a4_x2
+0.00209978074526481 short_2
-0.00209978074526481 surp_2
= 86.163794

coupling_3: 
+0.00000113624632878 a1_x3
+0.00016569589766213 a2_x3
+0.01872843436833735 a3_x3
+0.97227127719927076 a4_x3
+0.00175357949869701 short_3
-0.00175357949869701 surp_3
= 20.655607

bounds
  0.000000 <= a1_x1 <= 100.000000
  0.000000 <= a1_x2 <= 100.000000
  0.000000 <= a1_x3 <= 100.000000
  0.000000 <= a1_x4 <= 100.000000
  0.000000 <= a1_x5 <= 100.000000
  0.000000 <= a1_x6 <= 100.000000
  0.000000 <= a2_x1 <= 100.000000
  0.000000 <= a2_x2 <= 100.000000
  0.000000 <= a2_x3 <= 100.000000
  0.000000 <= a2_x4 <= 100.000000
  0.000000 <= a2_x5 <= 100.000000
  0.000000 <= a2_x6 <= 100.000000
  0.000000 <= a3_x1 <= 100.000000
  0.000000 <= a3_x2 <= 100.000000
  0.000000 <= a3_x3 <= 100.000000
  0.000000 <= a3_x4 <= 100.000000
  0.000000 <= a3_x5 <= 100.000000
  0.000000 <= a3_x6 <= 100.000000
  0.000000 <= a4_x1 <= 100.000000
  0.000000 <= a4_x2 <= 100.000000
  0.000000 <= a4_x3 <= 100.000000
  0.000000 <= a4_x4 <= 100.000000
  0.000000 <= a4_x5 <= 100.000000
  0.000000 <= a4_x6 <= 100.000000
  0.000000 <= short_1 <= +inf
  0.000000 <= surp_1 <= +inf
  0.000000 <= short_2 <= +inf
  0.000000 <= surp_2 <= +inf
  0.000000 <= short_3 <= +inf
  0.000000 <= surp_3 <= +inf
 0 <= a1_z1 <= 1
 0 <= a1_z2 <= 1
 0 <= a2_z1 <= 1
 0 <= a2_z2 <= 1
 0 <= a3_z1 <= 1
 0 <= a3_z2 <= 1
 0 <= a4_z1 <= 1
 0 <= a4_z2 <= 1

binary
  a1_z1
  a1_z2
  a2_z1
  a2_z2
  a3_z1
  a3_z2
  a4_z1
  a4_z2
end
