min
obj: 
  +4.68205187695116365 a1_x1
  +5.71291625483064269 a1_x2
  +9.00563589084773142 a1_x3
  +9.01724711762336106 a1_x4
  +9.40638568868457803 a1_x5
  +5.77535620951187667 a1_x6
  +36.44079832510822570 a1_z1
  +20.35589591192510284 a1_z2
  +7.59221324303607314 a2_x1
  +9.57055811069523088 a2_x2
  +1.26049992587512483 a2_x3
  +5.39403189015226747 a2_x4
  +5.18163926236740036 a2_x5
  +3.59512023493198285 a2_x6
  +41.62149658815251030 a2_z1
  +8.22405720557796727 a2_z2
  +7.86202629574308798 a3_x1
  +4.44432428569451421 a3_x2
  +6.87835612826100196 a3_x3
  +6.09227189830646143 a3_x4
  +7.96998209317280093 a3_x5
  +3.38862436120579025 a3_x6
  +44.38425278971256915 a3_z1
  +46.43685776379189178 a3_z2
  +5.32725959516227121 a4_x1
  +2.14266889482626155 a4_x2
  +3.71753864038075932 a4_x3
  +7.47528281002840789 a4_x4
  +1.46230104481487744 a4_x5
  +9.33481878718765401 a4_x6
  +27.54992178484519982 a4_z1
  +29.02492698326168252 a4_z2
  +1000000.00000000000000000 short_1
  +1000000.00000000000000000 surp_1
  +1000000.00000000000000000 short_2
  +1000000.00000000000000000 surp_2
  +1000000.00000000000000000 short_3
  +1000000.00000000000000000 surp_3

s.t.

a1_local_1: 
+1.36239454542144522 a1_x4
+1.11471004010267372 a1_x2
+0.73400176429116459 a1_x6
<= 140.876444

a1_local_2: 
+1.34673488461245006 a1_x5
+1.49530127330706009 a1_x4
+0.66876155183655095 a1_x1
<= 185.470965

a1_local_3: 
+1.43304823351067312 a1_x6
+1.13288956764784232 a1_x2
+0.69781321843592514 a1_x1
<= 172.462191

a1_local_4: 
+1.22955910847249172 a1_x5
+0.81329965603875842 a1_x2
+0.99768634333942341 a1_x6
<= 110.164954

a1_local_5: 
+1.40472673569735518 a1_x6
+1.36445259773585081 a1_x2
+0.71188222918215160 a1_x1
<= 185.464262

a1_local_6: 
+1.22193379776742739 a1_x5
+0.83449512309744434 a1_x4
+0.81837494128330146 a1_x2
<= 115.647136

a1_local_7: 
+1.30520205812942613 a1_x1
+0.76616489666984433 a1_x4
+1.10538097770209554 a1_x3
<= 206.119787

a1_local_8: 
+0.88331928695941897 a1_x5
+1.13209347374517533 a1_x6
+1.08315066540634541 a1_x4
<= 117.368808

a1_act_1: 
+0.10000000000000001 a1_x1
-10.00000000000000000 a1_z1
<= 0.000000

a1_act_2: 
+0.10000000000000001 a1_x2
-10.00000000000000000 a1_z2
<= 0.000000

a2_local_1: 
+0.71738022542854685 a2_x3
+0.96650822179958484 a2_x4
+1.39396092135467264 a2_x5
<= 175.480568

a2_local_2: 
+0.75297574241402365 a2_x3
+1.08030062507859492 a2_x2
+1.32806403137772011 a2_x5
<= 199.670829

a2_local_3: 
+1.46378387078513406 a2_x4
+1.53411627171589582 a2_x6
+0.65184107517581369 a2_x5
<= 248.615629

a2_local_4: 
+0.82255223736599736 a2_x1
+0.96510171389543442 a2_x4
+1.21572825964492104 a2_x5
<= 208.554766

a2_local_5: 
+0.80313275925127980 a2_x2
+1.24512415722183944 a2_x5
+0.86467405063951841 a2_x1
<= 96.148906

a2_local_6: 
+1.27222474748854686 a2_x5
+0.95417182607426609 a2_x4
+0.78602464067301303 a2_x3
<= 201.963970

a2_local_7: 
+0.93868271683434534 a2_x3
+1.06532269324446904 a2_x5
+0.95343191214686263 a2_x6
<= 95.087049

a2_local_8: 
+1.26173096162406462 a2_x2
+0.79256198858180382 a2_x6
+1.09879827568405597 a2_x4
<= 198.064898

a2_act_1: 
+0.10000000000000001 a2_x1
-10.00000000000000000 a2_z1
<= 0.000000

a2_act_2: 
+0.10000000000000001 a2_x2
-10.00000000000000000 a2_z2
<= 0.000000

a3_local_1: 
+0.82649462397420315 a3_x2
+1.20992922517934298 a3_x6
+0.96103044778089985 a3_x5
<= 204.852872

a3_local_2: 
+0.80127355156801439 a3_x4
+1.24801323847904033 a3_x5
+0.91993314476980048 a3_x3
<= 144.113443

a3_local_3: 
+0.99321068749748276 a3_x4
+1.10321431102310541 a3_x5
+0.90644219351416322 a3_x1
<= 169.616950

a3_local_4: 
+1.45378937265847985 a3_x3
+0.68785755268752891 a3_x4
+1.43681321295480413 a3_x5
<= 145.953952

a3_local_5: 
+0.90519840921893402 a3_x5
+0.78289637839401183 a3_x3
+1.27730824614534821 a3_x2
<= 149.572245

a3_local_6: 
+0.80690296163612485 a3_x1
+1.10229151864774222 a3_x3
+1.23930639438023626 a3_x5
<= 169.012935

a3_local_7: 
+0.70141346562245221 a3_x6
+1.42569261785211765 a3_x4
+1.22383492363242907 a3_x1
<= 229.930499

a3_local_8: 
+1.09247275811384892 a3_x4
+0.91535463248209226 a3_x3
+1.03007231235036789 a3_x5
<= 98.839578

a3_act_1: 
+0.10000000000000001 a3_x1
-10.00000000000000000 a3_z1
<= 0.000000

a3_act_2: 
+0.10000000000000001 a3_x2
-10.00000000000000000 a3_z2
<= 0.000000

a4_local_1: 
+0.78359006867826630 a4_x1
+1.21605813303745092 a4_x4
+1.27617748102240092 a4_x6
<= 112.084838

a4_local_2: 
+1.17348368303574291 a4_x3
+0.93833273239640747 a4_x5
+0.85216353193173544 a4_x2
<= 134.447172

a4_local_3: 
+1.16228598351922030 a4_x5
+0.79717754452400935 a4_x1
+1.25442570086077221 a4_x3
<= 181.425959

a4_local_4: 
+1.35836106859332739 a4_x3
+1.13805271674552611 a4_x1
+0.73618128722988663 a4_x5
<= 167.551190

a4_local_5: 
+0.89143083019680402 a4_x6
+0.91455986686477875 a4_x4
+1.12179202931451982 a4_x2
<= 153.572111

a4_local_6: 
+1.32385094026291261 a4_x1
+0.97307570182124925 a4_x4
+0.75537205102668359 a4_x5
<= 125.698075

a4_local_7: 
+1.38250461132272950 a4_x2
+1.15512061452705495 a4_x5
+0.72332489295875591 a4_x4
<= 128.159564

a4_local_8: 
+1.06034344456244134 a4_x5
+0.80895181388735826 a4_x6
+1.23616757244732978 a4_x2
<= 179.836748

a4_act_1: 
+0.10000000000000001 a4_x1
-10.00000000000000000 a4_z1
<= 0.000000

a4_act_2: 
+0.10000000000000001 a4_x2
-10.00000000000000000 a4_z2
<= 0.000000

coupling_1: 
+0.00000092632490180 a1_x1
+0.00012294793123293 a2_x1
+0.00546820493839906 a3_x1
+0.99998415452375355 a4_x1
+0.00094189147832482 short_1
-0.00094189147832482 surp_1
= 24.624353

coupling_2: 
+0.00000092663075854 a1_x2
+0.00009239730372310 a2_x2
+0.00872773969666732 a3_x2
+0.99996144290594324 a4_x2
+0.00068217414605572 short_2
-0.00068217414605572 surp_2
= 77.635282

coupling_3: 
+0.00000099532690093 a1_x3
+0.00009411668896794 a2_x3
+0.01129177141129695 a3_x3
+0.99993381290016925 a4_x3
+0.00155834180821647 short_3
-0.00155834180821647 surp_3
= 39.166597

bounds
  0.000000 <= a1_x1 <= 100.000000
  0.000000 <= a1_x2 <= 100.000000
  0.000000 <= a1_x3 <= 100.000000
  0.000000 <= a1_x4 <= 100.000000
  0.000000 <= a1_x5 <= 100.000000
  0.000000 <= a1_x6 <= 100.000000
  0.000000 <= a2_x1 <= 100.000000
  0.000000 <= a2_x2 <= 100.000000
  0.000000 <= a2_x3 <= 100.000000
  0.000000 <= a2_x4 <= 100.000000
  0.000000 <= a2_x5 <= 100.000000
  0.000000 <= a2_x6 <= 100.000000
  0.000000 <= a3_x1 <= 100.000000
  0.000000 <= a3_x2 <= 100.000000
  0.000000 <= a3_x3 <= 100.000000
  0.000000 <= a3_x4 <= 100.000000
  0.000000 <= a3_x5 <= 100.000000
  0.000000 <= a3_x6 <= 100.000000
  0.000000 <= a4_x1 <= 100.000000
  0.000000 <= a4_x2 <= 100.000000
  0.000000 <= a4_x3 <= 100.000000
  0.000000 <= a4_x4 <= 100.000000
  0.000000 <= a4_x5 <= 100.000000
  0.000000 <= a4_x6 <= 100.000000
  0.000000 <= short_1 <= +inf
  0.000000 <= surp_1 <= +inf
  0.000000 <= short_2 <= +inf
  0.000000 <= surp_2 <= +inf
  0.000000 <= short_3 <= +inf
  0.000000 <= surp_3 <= +inf
 0 <= a1_z1 <= 1
 0 <= a1_z2 <= 1
 0 <= a2_z1 <= 1
 0 <= a2_z2 <= 1
 0 <= a3_z1 <= 1
 0 <= a3_z2 <= 1
 0 <= a4_z1 <= 1
 0 <= a4_z2 <= 1

binary
  a1_z1
  a1_z2
  a2_z1
  a2_z2
  a3_z1
  a3_z2
  a4_z1
  a4_z2
end
