min
obj: 
  +2.86702301288668870 a1_x1
  +4.61217347674817457 a1_x2
  +8.37266539443051627 a1_x3
  +3.88741117842564377 a1_x4
  +3.57352147071314707 a1_x5
  +7.90632682258909369 a1_x6
  +32.52167325628295202 a1_z1
  +46.95512094955829951 a1_z2
  +6.18957109820114049 a2_x1
  +7.65671715801393571 a2_x2
  +8.20437447093011585 a2_x3
  +3.61886914738285226 a2_x4
  +5.28592570462095690 a2_x5
  +3.39477691808076010 a2_x6
  +12.60548138304202581 a2_z1
  +31.13088232979415793 a2_z2
  +1.00384692741400694 a3_x1
  +6.98746639113835144 a3_x2
  +2.08920162411281263 a3_x3
  +9.36108080061404380 a3_x4
  +4.85098195997041159 a3_x5
  +1.72431460157976346 a3_x6
  +35.01946721881928681 a3_z1
  +33.01267747284549614 a3_z2
  +2.50332166724604033 a4_x1
  +6.42161923356443864 a4_x2
  +2.38773349159600956 a4_x3
  +7.47586240964883597 a4_x4
  +7.41060969147519710 a4_x5
  +8.58602476997859654 a4_x6
  +17.16287865875343854 a4_z1
  +23.31726507162430551 a4_z2
  +1000000.00000000000000000 short_1
  +1000000.00000000000000000 surp_1
  +1000000.00000000000000000 short_2
  +1000000.00000000000000000 surp_2
  +1000000.00000000000000000 short_3
  +1000000.00000000000000000 surp_3

s.t.

a1_local_1: 
+0.39177291867941211 a1_x3
+0.68779036958806883 a1_x1
+0.61111241821069417 a1_x2
<= 101.678160

a1_local_2: 
+0.48694897149036176 a1_x6
+0.69838775780659312 a1_x4
+0.52453335347750607 a1_x3
<= 66.970578

a1_local_3: 
+0.47040300645458738 a1_x5
+0.63568217323300102 a1_x6
+0.61206959257281712 a1_x4
<= 63.024802

a1_local_4: 
+0.61056793419217070 a1_x3
+0.70428887678463714 a1_x6
+0.36219328510305021 a1_x4
<= 56.530766

a1_local_5: 
+0.72564219502028804 a1_x4
+0.57689771923724265 a1_x5
+0.37500990166261700 a1_x2
<= 61.430858

a1_local_6: 
+0.61705341369718358 a1_x5
+0.59840647661207103 a1_x4
+0.51103304530468419 a1_x2
<= 83.984197

a1_local_7: 
+0.57331027592428330 a1_x2
+0.73011262331751592 a1_x3
+0.37182103866246907 a1_x6
<= 104.233835

a1_local_8: 
+0.66788022824517312 a1_x2
+0.64196471180922843 a1_x5
+0.37658639050139570 a1_x1
<= 88.057536

a1_act_1: 
+0.00999950003749688 a1_x1
-0.99995000374968757 a1_z1
<= 0.000000

a1_act_2: 
+0.00999950003749688 a1_x2
-0.99995000374968757 a1_z2
<= 0.000000

a2_local_1: 
+0.60855645218571985 a2_x4
+0.51130682546239370 a2_x3
+0.60681494274506698 a2_x1
<= 93.043382

a2_local_2: 
+0.60371186662097454 a2_x6
+0.35654461067946225 a2_x2
+0.71302729449611491 a2_x5
<= 65.437782

a2_local_3: 
+0.69570721967455029 a2_x6
+0.57752474334406745 a2_x4
+0.42714942972931158 a2_x5
<= 102.299406

a2_local_4: 
+0.72215275482148866 a2_x3
+0.45193598290534320 a2_x4
+0.52368813816919346 a2_x1
<= 110.464929

a2_local_5: 
+0.51458283840012975 a2_x5
+0.49990730061265670 a2_x4
+0.69663275347792319 a2_x3
<= 115.244898

a2_local_6: 
+0.35256790999560350 a2_x6
+0.69182723846283511 a2_x4
+0.63013565282581774 a2_x3
<= 93.817178

a2_local_7: 
+0.53874347916553034 a2_x6
+0.56533272351041475 a2_x3
+0.62462338683795438 a2_x5
<= 64.426868

a2_local_8: 
+0.42804311555090391 a2_x5
+0.70053246993261165 a2_x3
+0.57099330101113288 a2_x4
<= 71.522220

a2_act_1: 
+0.00999950003749688 a2_x1
-0.99995000374968757 a2_z1
<= 0.000000

a2_act_2: 
+0.00999950003749688 a2_x2
-0.99995000374968757 a2_z2
<= 0.000000

a3_local_1: 
+0.54521162174487603 a3_x4
+0.62866008780688731 a3_x2
+0.55455457938146979 a3_x6
<= 57.400348

a3_local_2: 
+0.47130421698944397 a3_x4
+0.81952103305188717 a3_x6
+0.32597179545711435 a3_x3
<= 60.371498

a3_local_3: 
+0.63710162769497625 a3_x4
+0.53136446152404893 a3_x2
+0.55834874855923977 a3_x3
<= 54.229711

a3_local_4: 
+0.56378721533952569 a3_x2
+0.73437186999541926 a3_x4
+0.37794435090252948 a3_x3
<= 86.903985

a3_local_5: 
+0.52454001781291215 a3_x4
+0.64377892316446506 a3_x6
+0.55714133557117407 a3_x1
<= 65.023708

a3_local_6: 
+0.51078968068259356 a3_x3
+0.59372936482145622 a3_x4
+0.62175505101035089 a3_x1
<= 58.957358

a3_local_7: 
+0.57222014825871048 a3_x4
+0.46253952721860953 a3_x1
+0.67721583537832641 a3_x6
<= 99.771505

a3_local_8: 
+0.58264471438103871 a3_x2
+0.57275626582281380 a3_x3
+0.57660679562813355 a3_x1
<= 67.145302

a3_act_1: 
+0.00999950003749688 a3_x1
-0.99995000374968757 a3_z1
<= 0.000000

a3_act_2: 
+0.00999950003749688 a3_x2
-0.99995000374968757 a3_z2
<= 0.000000

a4_local_1: 
+0.51524792990526502 a4_x1
+0.64131569030573043 a4_x4
+0.56853650374978026 a4_x5
<= 54.230489

a4_local_2: 
+0.53026022173153775 a4_x6
+0.62207193170176522 a4_x2
+0.57606476114934746 a4_x3
<= 67.391399

a4_local_3: 
+0.58327998912470003 a4_x1
+0.56845349214182617 a4_x4
+0.58021123873848957 a4_x5
<= 84.750178

a4_local_4: 
+0.34456449555223523 a4_x2
+0.68318818009549698 a4_x6
+0.64383943571564228 a4_x5
<= 58.377444

a4_local_5: 
+0.48190778861468742 a4_x2
+0.41976839610883476 a4_x5
+0.76912897286522641 a4_x1
<= 90.464514

a4_local_6: 
+0.47920236764452440 a4_x5
+0.67714376241244645 a4_x6
+0.55842762813975988 a4_x4
<= 119.397794

a4_local_7: 
+0.36463701504745766 a4_x1
+0.58561286276784918 a4_x5
+0.72394573154216768 a4_x2
<= 56.275021

a4_local_8: 
+0.58138333225100192 a4_x1
+0.53893158259628360 a4_x6
+0.60954587215482492 a4_x5
<= 85.527877

a4_act_1: 
+0.00999950003749688 a4_x1
-0.99995000374968757 a4_z1
<= 0.000000

a4_act_2: 
+0.00999950003749688 a4_x2
-0.99995000374968757 a4_z2
<= 0.000000

coupling_1: 
+0.00000060495143134 a1_x1
+0.00010215566228821 a2_x1
+0.01089738364732507 a3_x1
+0.99993976653295968 a4_x1
+0.00092192719557059 short_1
-0.00092192719557059 surp_1
= 60.072109

coupling_2: 
+0.00000057134817354 a1_x2
+0.00006581011949070 a2_x2
+0.00680065251492525 a3_x2
+0.99997618579784964 a4_x2
+0.00082904500998839 short_2
-0.00082904500998839 surp_2
= 40.111101

coupling_3: 
+0.00000165597955127 a1_x3
+0.00013012088171247 a2_x3
+0.01426869050718388 a3_x3
+0.99989499232872969 a4_x3
+0.00178771543511190 short_3
-0.00178771543511190 surp_3
= 44.914262

bounds
  0.000000 <= a1_x1 <= 100.000000
  0.000000 <= a1_x2 <= 100.000000
  0.000000 <= a1_x3 <= 100.000000
  0.000000 <= a1_x4 <= 100.000000
  0.000000 <= a1_x5 <= 100.000000
  0.000000 <= a1_x6 <= 100.000000
  0.000000 <= a2_x1 <= 100.000000
  0.000000 <= a2_x2 <= 100.000000
  0.000000 <= a2_x3 <= 100.000000
  0.000000 <= a2_x4 <= 100.000000
  0.000000 <= a2_x5 <= 100.000000
  0.000000 <= a2_x6 <= 100.000000
  0.000000 <= a3_x1 <= 100.000000
  0.000000 <= a3_x2 <= 100.000000
  0.000000 <= a3_x3 <= 100.000000
  0.000000 <= a3_x4 <= 100.000000
  0.000000 <= a3_x5 <= 100.000000
  0.000000 <= a3_x6 <= 100.000000
  0.000000 <= a4_x1 <= 100.000000
  0.000000 <= a4_x2 <= 100.000000
  0.000000 <= a4_x3 <= 100.000000
  0.000000 <= a4_x4 <= 100.000000
  0.000000 <= a4_x5 <= 100.000000
  0.000000 <= a4_x6 <= 100.000000
  0.000000 <= short_1 <= +inf
  0.000000 <= surp_1 <= +inf
  0.000000 <= short_2 <= +inf
  0.000000 <= surp_2 <= +inf
  0.000000 <= short_3 <= +inf
  0.000000 <= surp_3 <= +inf
 0 <= a1_z1 <= 1
 0 <= a1_z2 <= 1
 0 <= a2_z1 <= 1
 0 <= a2_z2 <= 1
 0 <= a3_z1 <= 1
 0 <= a3_z2 <= 1
 0 <= a4_z1 <= 1
 0 <= a4_z2 <= 1

binary
  a1_z1
  a1_z2
  a2_z1
  a2_z2
  a3_z1
  a3_z2
  a4_z1
  a4_z2
end
