min
obj: 
  +1.5869078218103445 a1_x1
  +1.8591431952918778 a1_x2
  +3.3231109040519993 a1_x3
  +9.2087059181463786 a1_x4
  +9.6203246603591985 a1_x5
  +2.6522167369866532 a1_x6
  +45.971215901918207 a1_z1
  +15.231591264695247 a1_z2
  +9.6966969925339086 a2_x1
  +9.5099240901526567 a2_x2
  +7.5753998333245365 a2_x3
  +7.2545869758953661 a2_x4
  +4.0776176539598987 a2_x5
  +7.0823179577413251 a2_x6
  +41.740356324700421 a2_z1
  +13.295788449057502 a2_z2
  +8.20725746769123 a3_x1
  +8.7650426689296079 a3_x2
  +7.7797720123238729 a3_x3
  +6.0483854765360672 a3_x4
  +6.4868155236610479 a3_x5
  +7.5914186799784584 a3_x6
  +13.335393596501099 a3_z1
  +17.076428731733131 a3_z2
  +4.0749166189662294 a4_x1
  +3.9578684115063361 a4_x2
  +4.7726522238702849 a4_x3
  +6.6226528859876028 a4_x4
  +9.5073045520096944 a4_x5
  +5.1085987408368467 a4_x6
  +30.995431749404506 a4_z1
  +14.100841079092167 a4_z2
  +1000000 short_1
  +1000000 surp_1
  +1000000 short_2
  +1000000 surp_2
  +1000000 short_3
  +1000000 surp_3

s.t.

a1_local_1: 
+0.069026813349135421 a1_x4
+0.089464331444935652 a1_x1
+0.063535848743651965 a1_x3
<= 9.8434612917527122

a1_local_2: 
+0.14449070887233104 a1_x3
+0.12771120422091706 a1_x5
+0.086811311644212477 a1_x2
<= 17.810758416095254

a1_local_3: 
+0.076232545841716487 a1_x1
+0.11067179300559848 a1_x2
+0.065722297294827772 a1_x5
<= 15.841445274339044

a1_local_4: 
+0.093765416981877181 a1_x3
+0.13139489388724201 a1_x5
+0.13130321782795032 a1_x6
<= 23.446194510309663

a1_local_5: 
+0.10538838025278714 a1_x4
+0.11988124675651493 a1_x5
+0.11702439438557387 a1_x6
<= 18.456524392907127

a1_local_6: 
+0.12948527956256367 a1_x4
+0.13613608138366118 a1_x6
+0.14982391289795802 a1_x1
<= 26.999196126431542

a1_local_7: 
+0.09291254473282938 a1_x5
+0.080740616413265937 a1_x2
+0.08150040708539695 a1_x4
<= 9.2702863829465887

a1_local_8: 
+0.12098913430472608 a1_x2
+0.097705757572827068 a1_x6
+0.13568482395949522 a1_x3
<= 12.989503798696949

a1_act_1: 
+1 a1_x1
-100 a1_z1
<= 0

a1_act_2: 
+1 a1_x2
-100 a1_z2
<= 0

a2_local_1: 
+0.2879492240492586 a2_x5
+0.51140652514905904 a2_x3
+0.62428331511328938 a2_x6
<= 46.43521770430737

a2_local_2: 
+0.6032488459139066 a2_x5
+0.51995823675303232 a2_x1
+0.47969357296189841 a2_x4
<= 98.91467548444102

a2_local_3: 
+0.62289672442239286 a2_x6
+0.37318171882349138 a2_x1
+0.50512066611548001 a2_x3
<= 81.788260141463326

a2_local_4: 
+0.28299181123901129 a2_x4
+0.66876191396897688 a2_x2
+0.54579570241004216 a2_x5
<= 68.531676212445149

a2_local_5: 
+0.50756335340291669 a2_x5
+0.63772816619695083 a2_x3
+0.56737692429587161 a2_x1
<= 93.620666540820096

a2_local_6: 
+0.58817597891522488 a2_x6
+0.24483118808278814 a2_x2
+0.68910359429491985 a2_x1
<= 76.882779143808094

a2_local_7: 
+0.55093367411952043 a2_x2
+0.48717608762904308 a2_x1
+0.52877324142735838 a2_x3
<= 50.424914967933553

a2_local_8: 
+0.41715187926631236 a2_x6
+0.34788775042305126 a2_x3
+0.34647969473880214 a2_x5
<= 53.102313559643399

a2_act_1: 
+1 a2_x1
-100 a2_z1
<= 0

a2_act_2: 
+1 a2_x2
-100 a2_z2
<= 0

a3_local_1: 
+2.7749419774024604 a3_x2
+2.3802879528858201 a3_x3
+1.4577620905296549 a3_x1
<= 221.18471618402552

a3_local_2: 
+1.8185131263389167 a3_x6
+2.9702312318121686 a3_x2
+1.1518802201101357 a3_x3
<= 289.69174989580659

a3_local_3: 
+2.062567030304606 a3_x4
+1.599202588053247 a3_x2
+1.4147555487126271 a3_x3
<= 175.71865977017734

a3_local_4: 
+1.8347221140956378 a3_x4
+2.0454142921986151 a3_x1
+1.4615507424998275 a3_x3
<= 300.65008793115783

a3_local_5: 
+1.3202334265307392 a3_x3
+1.3275027410575371 a3_x4
+1.6113097670037695 a3_x6
<= 142.87692597092621

a3_local_6: 
+2.5436350612935503 a3_x3
+1.7175933153091458 a3_x4
+2.2042103224420813 a3_x5
<= 412.59449122294455

a3_local_7: 
+1.6330626450460324 a3_x5
+2.0834546074664329 a3_x6
+2.3233390543202463 a3_x2
<= 302.99663783438342

a3_local_8: 
+2.6578507466822279 a3_x4
+3.0234624072463308 a3_x6
+2.6449386501160408 a3_x5
<= 280.06967387174689

a3_act_1: 
+1 a3_x1
-100 a3_z1
<= 0

a3_act_2: 
+1 a3_x2
-100 a3_z2
<= 0

a4_local_1: 
+14.140647442705223 a4_x4
+6.7459844590050375 a4_x6
+13.546757298857305 a4_x5
<= 1385.6010936368239

a4_local_2: 
+6.1513562907119423 a4_x5
+9.2143012424365711 a4_x4
+8.472641343194427 a4_x2
<= 753.88160593477198

a4_local_3: 
+12.170123597254324 a4_x4
+14.74917304923558 a4_x2
+6.6468936019158109 a4_x1
<= 1483.1914173866517

a4_local_4: 
+11.140687811464199 a4_x6
+12.631070872433252 a4_x1
+6.2343503429776295 a4_x5
<= 2011.1782837564058

a4_local_5: 
+9.1772138852192953 a4_x3
+5.003204168375408 a4_x6
+13.723199515990121 a4_x1
<= 1638.0159400842731

a4_local_6: 
+10.009553427829484 a4_x5
+7.1494825736606842 a4_x2
+7.3487750552554783 a4_x1
<= 1308.7970600944291

a4_local_7: 
+12.297370265999001 a4_x2
+5.8902308851630192 a4_x4
+5.9786498325616222 a4_x1
<= 1514.9087934721765

a4_local_8: 
+14.740553525210522 a4_x6
+7.5310121957964702 a4_x5
+10.218419378822585 a4_x4
<= 1257.1551587522961

a4_act_1: 
+1 a4_x1
-100 a4_z1
<= 0

a4_act_2: 
+1 a4_x2
-100 a4_z2
<= 0

coupling_1: 
+76.478215626701783 a1_x1
+164.05144623082833 a2_x1
+991.06712971233844 a3_x1
+5431.9642848564545 a4_x1
+549.18467169771736 short_1
-549.18467169771736 surp_1
= 386276.60464118602

coupling_2: 
+18.833013246777696 a1_x2
+81.111479753349357 a2_x2
+445.61525177908749 a3_x2
+1990.6500559167987 a4_x2
+199.5694881218632 short_2
-199.5694881218632 surp_2
= 112345.31437782703

coupling_3: 
+7.9448117997772076 a1_x3
+23.003372875538084 a2_x3
+175.69213367119687 a3_x3
+726.5350111791463 a4_x3
+54.515442950312817 short_3
-54.515442950312817 surp_3
= 41038.666273894574

bounds
  0 <= a1_x1 <= 100
  0 <= a1_x2 <= 100
  0 <= a1_x3 <= 100
  0 <= a1_x4 <= 100
  0 <= a1_x5 <= 100
  0 <= a1_x6 <= 100
  0 <= a2_x1 <= 100
  0 <= a2_x2 <= 100
  0 <= a2_x3 <= 100
  0 <= a2_x4 <= 100
  0 <= a2_x5 <= 100
  0 <= a2_x6 <= 100
  0 <= a3_x1 <= 100
  0 <= a3_x2 <= 100
  0 <= a3_x3 <= 100
  0 <= a3_x4 <= 100
  0 <= a3_x5 <= 100
  0 <= a3_x6 <= 100
  0 <= a4_x1 <= 100
  0 <= a4_x2 <= 100
  0 <= a4_x3 <= 100
  0 <= a4_x4 <= 100
  0 <= a4_x5 <= 100
  0 <= a4_x6 <= 100
  0 <= short_1 <= +inf
  0 <= surp_1 <= +inf
  0 <= short_2 <= +inf
  0 <= surp_2 <= +inf
  0 <= short_3 <= +inf
  0 <= surp_3 <= +inf
 0 <= a1_z1 <= 1
 0 <= a1_z2 <= 1
 0 <= a2_z1 <= 1
 0 <= a2_z2 <= 1
 0 <= a3_z1 <= 1
 0 <= a3_z2 <= 1
 0 <= a4_z1 <= 1
 0 <= a4_z2 <= 1

binary
  a1_z1
  a1_z2
  a2_z1
  a2_z2
  a3_z1
  a3_z2
  a4_z1
  a4_z2
end
