min
obj: 
  +1.5770974257819579 a1_x1
  +5.2436233239928463 a1_x2
  +8.0695966456126804 a1_x3
  +3.4781022885686368 a1_x4
  +9.412058306823841 a1_x5
  +8.3165688602967034 a1_x6
  +34.001400959855452 a1_z1
  +10.410503430419741 a1_z2
  +7.418259317223229 a2_x1
  +8.2806614137575387 a2_x2
  +6.0649431138157652 a2_x3
  +8.6541766135972331 a2_x4
  +4.3292904508020413 a2_x5
  +7.270244042047584 a2_x6
  +22.659258388720176 a2_z1
  +14.3292458598275 a2_z2
  +6.5706299309399387 a3_x1
  +3.4667216339522406 a3_x2
  +8.7306868906336064 a3_x3
  +5.7873163324378032 a3_x4
  +5.6599350909197002 a3_x5
  +4.8869920304691288 a3_x6
  +21.678337067529544 a3_z1
  +5.900585939248967 a3_z2
  +6.0616245234979713 a4_x1
  +4.5273516228701549 a4_x2
  +9.793261850532609 a4_x3
  +5.1742521510836195 a4_x4
  +5.4489998276629183 a4_x5
  +4.6550473123840108 a4_x6
  +25.907898635489875 a4_z1
  +20.492987297835271 a4_z2
  +1000000 short_1
  +1000000 surp_1
  +1000000 short_2
  +1000000 surp_2
  +1000000 short_3
  +1000000 surp_3

s.t.

a1_local_1: 
+1.2525172836979446 a1_x1
+1.2804747506447107 a1_x6
+0.78096034263581249 a1_x5
<= 174.32419763247339

a1_local_2: 
+1.0143985275906613 a1_x5
+1.3465585234592654 a1_x2
+0.74263389416676262 a1_x4
<= 206.29586015328482

a1_local_3: 
+1.115026233823976 a1_x4
+1.2014616684302912 a1_x2
+0.83231952069390547 a1_x6
<= 160.01364310848211

a1_local_4: 
+0.86562711615788268 a1_x3
+0.72180867815834371 a1_x4
+1.3854086688891667 a1_x1
<= 205.199582771314

a1_local_5: 
+0.71489685301351291 a1_x4
+1.0621280775666027 a1_x6
+1.3988031920754562 a1_x3
<= 216.53091627173325

a1_local_6: 
+1.3543704301830983 a1_x2
+1.0152486711624951 a1_x4
+0.73835043774900577 a1_x3
<= 137.81320759539864

a1_local_7: 
+0.80412196758250187 a1_x2
+0.66194989686676675 a1_x4
+1.5106883538064424 a1_x3
<= 116.02611898833614

a1_local_8: 
+0.77556941176978289 a1_x6
+1.0035399772926472 a1_x4
+1.2893752445936282 a1_x3
<= 157.64709663044465

a1_act_1: 
+0.10000000000000001 a1_x1
-10 a1_z1
<= 0

a1_act_2: 
+0.10000000000000001 a1_x2
-10 a1_z2
<= 0

a2_local_1: 
+0.78316029972216339 a2_x1
+0.73716610651001835 a2_x3
+1.3565463620327336 a2_x6
<= 167.29322501769883

a2_local_2: 
+0.66420568852408512 a2_x2
+1.5055577169507159 a2_x3
+1.138042667738252 a2_x5
<= 125.93514372915793

a2_local_3: 
+0.58587208999272189 a2_x6
+0.5859154583270364 a2_x5
+0.52869010244594272 a2_x1
<= 86.731515642372116

a2_local_4: 
+1.5548926250266668 a2_x6
+0.64313122585094873 a2_x4
+1.4470071225202901 a2_x2
<= 195.86404912045774

a2_local_5: 
+0.9959662184490915 a2_x1
+0.83638838772266189 a2_x2
+1.1956167908103357 a2_x3
<= 181.90044748342993

a2_local_6: 
+1.3657571821053707 a2_x4
+0.73219457536255372 a2_x6
+0.86553422277625192 a2_x1
<= 143.40332768780303

a2_local_7: 
+0.81285224979467585 a2_x5
+1.2415828942631681 a2_x1
+0.80542346759171635 a2_x6
<= 189.44640642149733

a2_local_8: 
+0.84257420294121366 a2_x1
+0.97244211947817594 a2_x2
+1.186839089672165 a2_x6
<= 121.79726170506385

a2_act_1: 
+0.10000000000000001 a2_x1
-10 a2_z1
<= 0

a2_act_2: 
+0.10000000000000001 a2_x2
-10 a2_z2
<= 0

a3_local_1: 
+1.049591126442696 a3_x2
+1.2082369882977411 a3_x4
+0.82765219877010909 a3_x6
<= 113.57395477003017

a3_local_2: 
+2.6391975283965978 a3_x2
+1.1960511263803879 a3_x4
+1.1037785413994583 a3_x6
<= 308.41292892646072

a3_local_3: 
+0.80783852159737746 a3_x6
+1.2378711503168385 a3_x3
+0.94971067697734624 a3_x2
<= 186.02777344797278

a3_local_4: 
+1.4402939962488768 a3_x3
+1.4924252835179557 a3_x2
+0.67005029400385974 a3_x5
<= 177.26513062053959

a3_local_5: 
+2.7138063801306949 a3_x4
+2.4539153449018896 a3_x2
+1.2692839804334004 a3_x6
<= 214.90267794552847

a3_local_6: 
+0.8268657401500672 a3_x3
+1.2093861813872115 a3_x5
+1.1765794833100729 a3_x1
<= 161.06609342247424

a3_local_7: 
+0.80466499375644918 a3_x2
+1.2833772731155855 a3_x3
+0.77919410055653737 a3_x5
<= 107.91363937623389

a3_local_8: 
+1.777323456401223 a3_x2
+1.4602351318981666 a3_x5
+2.3928189644550297 a3_x3
<= 276.67509926791621

a3_act_1: 
+0.10000000000000001 a3_x1
-10 a3_z1
<= 0

a3_act_2: 
+0.10000000000000001 a3_x2
-10 a3_z2
<= 0

a4_local_1: 
+0.62341560719084987 a4_x4
+1.6040663539144671 a4_x5
+0.8397565401596635 a4_x1
<= 120.26456270653667

a4_local_2: 
+0.7128199291498345 a4_x6
+1.4028788465449882 a4_x4
+0.75048723574986886 a4_x1
<= 180.62887553039738

a4_local_3: 
+1.1310970543526231 a4_x1
+0.88933429642485806 a4_x3
+0.8840974310311015 a4_x4
<= 178.48961248259087

a4_local_4: 
+1.0578510830173622 a4_x3
+1.0453415360570699 a4_x6
+0.94531263998676407 a4_x5
<= 205.71225341977558

a4_local_5: 
+1.4713994267336421 a4_x4
+1.1974945483834223 a4_x5
+0.67962511187047214 a4_x6
<= 163.34060945231482

a4_local_6: 
+0.85324394562225325 a4_x5
+1.1594425820320184 a4_x3
+1.1719977682006528 a4_x2
<= 184.23176422769328

a4_local_7: 
+0.83018279602318357 a4_x6
+0.64176927340222001 a4_x3
+1.558192393192473 a4_x4
<= 97.928872969313687

a4_local_8: 
+0.79669556493233529 a4_x6
+1.0626200880852856 a4_x4
+1.2551845949900975 a4_x1
<= 128.35968451596028

a4_act_1: 
+0.10000000000000001 a4_x1
-10 a4_z1
<= 0

a4_act_2: 
+0.10000000000000001 a4_x2
-10 a4_z2
<= 0

coupling_1: 
+0.10587961773999871 a1_x1
+0.40487025860042652 a2_x1
+1.3638006056095222 a3_x1
+9.4446884239385049 a4_x1
+0.84137909034871661 short_1
-0.84137909034871661 surp_1
= 798.28617611632285

coupling_2: 
+0.086468046198776682 a1_x2
+0.34642699638990654 a2_x2
+2.4257464411200007 a3_x2
+11.564965833750362 a4_x2
+0.97983451253548548 short_2
-0.97983451253548548 surp_2
= 969.89111382462147

coupling_3: 
+0.090187892219249402 a1_x3
+0.46733455316275263 a2_x3
+1.7329618964894233 a3_x3
+11.087962867221366 a4_x3
+1.0903858847285874 short_3
-1.0903858847285874 surp_3
= 880.0599959277497

bounds
  0 <= a1_x1 <= 100
  0 <= a1_x2 <= 100
  0 <= a1_x3 <= 100
  0 <= a1_x4 <= 100
  0 <= a1_x5 <= 100
  0 <= a1_x6 <= 100
  0 <= a2_x1 <= 100
  0 <= a2_x2 <= 100
  0 <= a2_x3 <= 100
  0 <= a2_x4 <= 100
  0 <= a2_x5 <= 100
  0 <= a2_x6 <= 100
  0 <= a3_x1 <= 100
  0 <= a3_x2 <= 100
  0 <= a3_x3 <= 100
  0 <= a3_x4 <= 100
  0 <= a3_x5 <= 100
  0 <= a3_x6 <= 100
  0 <= a4_x1 <= 100
  0 <= a4_x2 <= 100
  0 <= a4_x3 <= 100
  0 <= a4_x4 <= 100
  0 <= a4_x5 <= 100
  0 <= a4_x6 <= 100
  0 <= short_1 <= +inf
  0 <= surp_1 <= +inf
  0 <= short_2 <= +inf
  0 <= surp_2 <= +inf
  0 <= short_3 <= +inf
  0 <= surp_3 <= +inf
 0 <= a1_z1 <= 1
 0 <= a1_z2 <= 1
 0 <= a2_z1 <= 1
 0 <= a2_z2 <= 1
 0 <= a3_z1 <= 1
 0 <= a3_z2 <= 1
 0 <= a4_z1 <= 1
 0 <= a4_z2 <= 1

binary
  a1_z1
  a1_z2
  a2_z1
  a2_z2
  a3_z1
  a3_z2
  a4_z1
  a4_z2
end
