min
obj: 
  +1.5869078218103445 a1_x1
  +1.8591431952918778 a1_x2
  +3.3231109040519993 a1_x3
  +9.2087059181463786 a1_x4
  +9.6203246603591985 a1_x5
  +2.6522167369866532 a1_x6
  +45.971215901918207 a1_z1
  +15.231591264695247 a1_z2
  +9.6966969925339086 a2_x1
  +9.5099240901526567 a2_x2
  +7.5753998333245365 a2_x3
  +7.2545869758953661 a2_x4
  +4.0776176539598987 a2_x5
  +7.0823179577413251 a2_x6
  +41.740356324700421 a2_z1
  +13.295788449057502 a2_z2
  +8.20725746769123 a3_x1
  +8.7650426689296079 a3_x2
  +7.7797720123238729 a3_x3
  +6.0483854765360672 a3_x4
  +6.4868155236610479 a3_x5
  +7.5914186799784584 a3_x6
  +13.335393596501099 a3_z1
  +17.076428731733131 a3_z2
  +4.0749166189662294 a4_x1
  +3.9578684115063361 a4_x2
  +4.7726522238702849 a4_x3
  +6.6226528859876028 a4_x4
  +9.5073045520096944 a4_x5
  +5.1085987408368467 a4_x6
  +30.995431749404506 a4_z1
  +14.100841079092167 a4_z2
  +1000000 short_1
  +1000000 surp_1
  +1000000 short_2
  +1000000 surp_2
  +1000000 short_3
  +1000000 surp_3

s.t.

a1_local_1: 
+0.91555290746555551 a1_x4
+1.1866305975125664 a1_x1
+0.8427222440549027 a1_x3
<= 130.56099750115044

a1_local_2: 
+1.2901250319684305 a1_x3
+1.1403046099927359 a1_x5
+0.7751186708424942 a1_x2
<= 159.02825482882679

a1_local_3: 
+0.89385193114482797 a1_x1
+1.2976635478856184 a1_x2
+0.77061577450439711 a1_x5
<= 185.74620976182047

a1_local_4: 
+0.84475758585644267 a1_x3
+1.1837715538075546 a1_x5
+1.1829456198009576 a1_x6
<= 211.23300369770558

a1_local_5: 
+0.9376067805769297 a1_x4
+1.0665451879354779 a1_x5
+1.0411286842594876 a1_x6
<= 164.20180645309395

a1_local_6: 
+0.92965033855685097 a1_x4
+0.97740032361727947 a1_x6
+1.0756732488823237 a1_x1
<= 193.84297508175339

a1_local_7: 
+1.0727317804515359 a1_x5
+0.93219947262033975 a1_x2
+0.9409717175613137 a1_x4
<= 107.03108870249423

a1_local_8: 
+1.0508014256141551 a1_x2
+0.84858322144575626 a1_x6
+1.1784348013578099 a1_x3
<= 112.81499936443521

a1_act_1: 
+0.10000000000000001 a1_x1
-10 a1_z1
<= 0

a1_act_2: 
+0.10000000000000001 a1_x2
-10 a1_z2
<= 0

a2_local_1: 
+0.6791521694381516 a2_x5
+1.2061947802310959 a2_x3
+1.4724240678304525 a2_x6
<= 109.52131906706701

a2_local_2: 
+0.6032488459139066 a2_x5
+0.51995823675303232 a2_x1
+0.47969357296189841 a2_x4
<= 98.91467548444102

a2_local_3: 
+1.2919563570357357 a2_x6
+0.77401995396686607 a2_x1
+1.0476758507008763 a2_x3
<= 169.63785243635704

a2_local_4: 
+0.65050579285849552 a2_x4
+1.5372653264250482 a2_x2
+1.2546061477204333 a2_x5
<= 157.53195180918649

a2_local_5: 
+0.50756335340291669 a2_x5
+0.63772816619695083 a2_x3
+0.56737692429587161 a2_x1
<= 93.620666540820096

a2_local_6: 
+1.4319625378006038 a2_x6
+0.59606155638378677 a2_x2
+1.677679074065513 a2_x1
<= 187.17741540376434

a2_local_7: 
+0.55093367411952043 a2_x2
+0.48717608762904308 a2_x1
+0.52877324142735838 a2_x3
<= 50.424914967933553

a2_local_8: 
+1.0972566160580313 a2_x6
+0.91506752041633355 a2_x3
+0.91136383719659642 a2_x5
<= 139.67781946418825

a2_act_1: 
+0.10000000000000001 a2_x1
-10 a2_z1
<= 0

a2_act_2: 
+0.10000000000000001 a2_x2
-10 a2_z2
<= 0

a3_local_1: 
+1.3796967055698732 a3_x2
+1.1834753568355139 a3_x3
+0.72479697600419923 a3_x1
<= 109.97268653781578

a3_local_2: 
+1.8185131263389167 a3_x6
+2.9702312318121686 a3_x2
+1.1518802201101357 a3_x3
<= 289.69174989580659

a3_local_3: 
+2.062567030304606 a3_x4
+1.599202588053247 a3_x2
+1.4147555487126271 a3_x3
<= 175.71865977017734

a3_local_4: 
+1.8347221140956378 a3_x4
+2.0454142921986151 a3_x1
+1.4615507424998275 a3_x3
<= 300.65008793115783

a3_local_5: 
+1.3202334265307392 a3_x3
+1.3275027410575371 a3_x4
+1.6113097670037695 a3_x6
<= 142.87692597092621

a3_local_6: 
+1.2169345762837114 a3_x3
+0.82173686202080909 a3_x4
+1.0545458330870501 a3_x5
<= 197.39486610868121

a3_local_7: 
+1.6330626450460324 a3_x5
+2.0834546074664329 a3_x6
+2.3233390543202463 a3_x2
<= 302.99663783438342

a3_local_8: 
+0.93987587291272379 a3_x4
+1.0691643888494093 a3_x6
+0.93530986481523093 a3_x5
<= 99.03894322703357

a3_act_1: 
+0.10000000000000001 a3_x1
-10 a3_z1
<= 0

a3_act_2: 
+0.10000000000000001 a3_x2
-10 a3_z2
<= 0

a4_local_1: 
+1.4478113571607971 a4_x4
+0.69069771766470389 a4_x6
+1.3870050257213944 a4_x5
<= 141.86684223548065

a4_local_2: 
+0.81706054229146818 a4_x5
+1.2238995132422783 a4_x4
+1.125387736191483 a4_x2
<= 100.13513844071893

a4_local_3: 
+1.2291412385063345 a4_x4
+1.489616492701165 a4_x2
+0.67131372732499128 a4_x1
<= 149.79730658773997

a4_local_4: 
+1.2554410253266526 a4_x6
+1.4233918798750622 a4_x1
+0.70254721425541267 a4_x5
<= 226.63912402927255

a4_local_5: 
+1.1075390609561564 a4_x3
+0.6038046095165206 a4_x6
+1.6561648987753204 a4_x1
<= 197.68163396889173

a4_local_6: 
+1.1832323776055926 a4_x5
+0.84514252561581837 a4_x2
+0.8687009509278516 a4_x1
<= 154.71330148587344

a4_local_7: 
+1.4449072343140343 a4_x2
+0.69208595282225649 a4_x4
+0.70247493631898905 a4_x1
<= 177.99762287925819

a4_local_8: 
+1.3990402867095142 a4_x6
+0.71477569981344813 a4_x5
+0.96984013205581643 a4_x4
<= 119.31782010296237

a4_act_1: 
+0.10000000000000001 a4_x1
-10 a4_z1
<= 0

a4_act_2: 
+0.10000000000000001 a4_x2
-10 a4_z2
<= 0

coupling_1: 
+0.11865619577802999 a1_x1
+0.25452634272546781 a2_x1
+1.5376438167218385 a3_x1
+8.4277099349341942 a4_x1
+0.85206177196040533 short_1
-0.85206177196040533 surp_1
= 599.30938567524095

coupling_2: 
+0.09726631120995835 a1_x2
+0.418914080769278 a2_x2
+2.3014560225440639 a3_x2
+10.281051965067405 a4_x2
+1.03071068263569 short_2
-1.03071068263569 surp_2
= 580.22655047640865

coupling_3: 
+0.10457154707990739 a1_x3
+0.30277599397866811 a2_x3
+2.3125026357807688 a3_x3
+9.5628306927108913 a4_x3
+0.71754553194331239 short_3
-0.71754553194331239 surp_3
= 540.16091639546676

bounds
  0 <= a1_x1 <= 100
  0 <= a1_x2 <= 100
  0 <= a1_x3 <= 100
  0 <= a1_x4 <= 100
  0 <= a1_x5 <= 100
  0 <= a1_x6 <= 100
  0 <= a2_x1 <= 100
  0 <= a2_x2 <= 100
  0 <= a2_x3 <= 100
  0 <= a2_x4 <= 100
  0 <= a2_x5 <= 100
  0 <= a2_x6 <= 100
  0 <= a3_x1 <= 100
  0 <= a3_x2 <= 100
  0 <= a3_x3 <= 100
  0 <= a3_x4 <= 100
  0 <= a3_x5 <= 100
  0 <= a3_x6 <= 100
  0 <= a4_x1 <= 100
  0 <= a4_x2 <= 100
  0 <= a4_x3 <= 100
  0 <= a4_x4 <= 100
  0 <= a4_x5 <= 100
  0 <= a4_x6 <= 100
  0 <= short_1 <= +inf
  0 <= surp_1 <= +inf
  0 <= short_2 <= +inf
  0 <= surp_2 <= +inf
  0 <= short_3 <= +inf
  0 <= surp_3 <= +inf
 0 <= a1_z1 <= 1
 0 <= a1_z2 <= 1
 0 <= a2_z1 <= 1
 0 <= a2_z2 <= 1
 0 <= a3_z1 <= 1
 0 <= a3_z2 <= 1
 0 <= a4_z1 <= 1
 0 <= a4_z2 <= 1

binary
  a1_z1
  a1_z2
  a2_z1
  a2_z2
  a3_z1
  a3_z2
  a4_z1
  a4_z2
end
