min
obj: 
  +3.043052453503527 a1_x1
  +8.5242104678500681 a1_x2
  +7.6930756521091874 a1_x3
  +6.9189962156082423 a1_x4
  +9.2097073421305335 a1_x5
  +1.6783613276554563 a1_x6
  +29.957301038510835 a1_z1
  +31.080729858907144 a1_z2
  +8.695776775262491 a2_x1
  +6.9077742042221582 a2_x2
  +5.0875445936298673 a2_x3
  +7.5917023578038236 a2_x4
  +8.2794490372741638 a2_x5
  +1.0351287904006585 a2_x6
  +28.928861886453006 a2_z1
  +23.934213589769115 a2_z2
  +5.1403805558345264 a3_x1
  +3.338751629164217 a3_x2
  +6.1106898664601106 a3_x3
  +6.5508211726549801 a3_x4
  +5.1951326468311683 a3_x5
  +3.9370151452755238 a3_x6
  +16.85304582879688 a3_z1
  +38.539597563502319 a3_z2
  +1.4163415069349607 a4_x1
  +8.5438219758017482 a4_x2
  +7.1495610706401269 a4_x3
  +5.5659057933768521 a4_x4
  +2.526471255000704 a4_x5
  +2.3501129539553487 a4_x6
  +43.904023055410626 a4_z1
  +7.4539102618189466 a4_z2
  +1000000 short_1
  +1000000 surp_1
  +1000000 short_2
  +1000000 surp_2
  +1000000 short_3
  +1000000 surp_3

s.t.

a1_local_1: 
+0.050697184382356465 a1_x4
+0.063070814300599062 a1_x3
+0.13587378415029253 a1_x1
<= 15.507791307576047

a1_local_2: 
+0.066164660390064384 a1_x6
+0.11527811145222584 a1_x4
+0.070176638952812759 a1_x2
<= 11.248339228263182

a1_local_3: 
+0.14402458914565058 a1_x3
+0.085063838979128073 a1_x1
+0.056510120820102885 a1_x4
<= 11.996111016040327

a1_local_4: 
+0.11941568485196918 a1_x3
+0.066990276680099339 a1_x1
+0.12564030974360768 a1_x2
<= 15.483620191602446

a1_local_5: 
+0.06566406272578594 a1_x3
+0.11289596560646827 a1_x2
+0.12007661146972991 a1_x4
<= 11.795229950525709

a1_local_6: 
+0.077678333966014645 a1_x3
+0.14644029138318368 a1_x5
+0.10218749081166199 a1_x4
<= 11.336873851693557

a1_local_7: 
+0.13717009937621619 a1_x5
+0.11557767113027038 a1_x6
+0.087832444884740138 a1_x1
<= 15.048104713057798

a1_local_8: 
+0.090391888862948452 a1_x2
+0.073252222234778952 a1_x3
+0.081837805538173353 a1_x6
<= 12.24719639241868

a1_act_1: 
+1 a1_x1
-100 a1_z1
<= 0

a1_act_2: 
+1 a1_x2
-100 a1_z2
<= 0

a2_local_1: 
+0.24026449497753916 a2_x6
+0.2945042390359015 a2_x3
+0.33278404550840773 a2_x1
<= 29.32101885387651

a2_local_2: 
+0.32430602841509387 a2_x4
+0.40380059267734619 a2_x1
+0.61929698947330036 a2_x5
<= 70.795357540623158

a2_local_3: 
+0.40249111583787184 a2_x6
+0.47796984006598681 a2_x5
+0.64586124938231404 a2_x3
<= 93.621030339727895

a2_local_4: 
+0.38560099038809897 a2_x4
+0.60129482230625231 a2_x3
+0.40957543212242459 a2_x6
<= 68.299738591350007

a2_local_5: 
+0.57172464644889898 a2_x6
+0.51949070718464119 a2_x2
+0.38900374194358983 a2_x5
<= 84.410789649329715

a2_local_6: 
+0.44799715800580298 a2_x2
+0.38103395351105929 a2_x1
+0.47180071158067677 a2_x4
<= 54.000738992284127

a2_local_7: 
+0.38064717660259567 a2_x6
+0.66515308649609706 a2_x2
+0.63256764105431829 a2_x5
<= 76.503236746947607

a2_local_8: 
+0.65693477383290733 a2_x2
+0.3411979747605165 a2_x4
+0.47486991345575968 a2_x5
<= 64.093358192450566

a2_act_1: 
+1 a2_x1
-100 a2_z1
<= 0

a2_act_2: 
+1 a2_x2
-100 a2_z2
<= 0

a3_local_1: 
+1.945264489339636 a3_x6
+2.9768105506377127 a3_x5
+2.6409757548551429 a3_x2
<= 504.50834023500204

a3_local_2: 
+2.9725383456370547 a3_x4
+1.397479758986512 a3_x3
+2.0829744537452011 a3_x1
<= 277.77464570560687

a3_local_3: 
+2.5430008412743157 a3_x2
+2.4652169759932088 a3_x4
+2.893186031159813 a3_x3
<= 427.48770666306444

a3_local_4: 
+2.3324375170314688 a3_x5
+2.9881096310188671 a3_x2
+2.6838852719412869 a3_x1
<= 531.58576005981888

a3_local_5: 
+1.9966817617251076 a3_x6
+2.3426966681583719 a3_x2
+1.1914863803889355 a3_x3
<= 384.65622932144277

a3_local_6: 
+2.8349962526655741 a3_x1
+2.9564023398282466 a3_x4
+1.1890465647012307 a3_x3
<= 394.92695564798333

a3_local_7: 
+3.0143891812270733 a3_x2
+2.5673142675332143 a3_x6
+2.3036797623221292 a3_x5
<= 551.09225879074268

a3_local_8: 
+1.8150225255199999 a3_x2
+1.4286734887697272 a3_x3
+2.0419155011298442 a3_x4
<= 240.79839950986829

a3_act_1: 
+1 a3_x1
-100 a3_z1
<= 0

a3_act_2: 
+1 a3_x2
-100 a3_z2
<= 0

a4_local_1: 
+7.7004214379245361 a4_x4
+6.398123295929528 a4_x5
+11.065667947026361 a4_x6
<= 928.38201816159813

a4_local_2: 
+12.576350377333414 a4_x3
+14.629530018541871 a4_x1
+10.104540539742004 a4_x2
<= 2474.4882097822833

a4_local_3: 
+5.6516529911070421 a4_x4
+7.2032831130866697 a4_x6
+11.70082334498427 a4_x2
<= 761.21878957919648

a4_local_4: 
+9.8679356709185164 a4_x2
+8.9652566412003267 a4_x3
+7.0870243523321186 a4_x1
<= 1538.227275771806

a4_local_5: 
+7.1916633369188059 a4_x4
+13.014117074196287 a4_x5
+8.4731537185675077 a4_x2
<= 1969.6571947595799

a4_local_6: 
+12.703666453410992 a4_x6
+5.2733861341418899 a4_x5
+9.6916414774672841 a4_x3
<= 1900.0106948836451

a4_local_7: 
+5.2163364395311369 a4_x4
+12.24832470688753 a4_x3
+13.032917768911807 a4_x5
<= 2002.1774025067687

a4_local_8: 
+9.7925406698896484 a4_x1
+5.7615560200627964 a4_x6
+13.663715836365405 a4_x4
<= 1613.9903016250153

a4_act_1: 
+1 a4_x1
-100 a4_z1
<= 0

a4_act_2: 
+1 a4_x2
-100 a4_z2
<= 0

coupling_1: 
+23.570392399642891 a1_x1
+42.727170484797803 a2_x1
+191.72794822995513 a3_x1
+2048.8383097901919 a4_x1
+164.26021024460852 short_1
-164.26021024460852 surp_1
= 46553.273948074027

coupling_2: 
+0.00015751516927128286 a1_x2
+0.00088835336527734563 a2_x2
+0.0059759092744819326 a3_x2
+0.025660397510464093 a4_x2
+0.0020997807452648076 short_2
-0.0020997807452648076 surp_2
= 1.0856022825704497

coupling_3: 
+0.00011362463287758933 a1_x3
+0.00076909222836397495 a2_x3
+0.0040349188693131356 a3_x3
+0.0097227127719927073 a4_x3
+0.0017535794986970105 short_3
-0.0017535794986970105 surp_3
= 0.30510037211375451

bounds
  0 <= a1_x1 <= 100
  0 <= a1_x2 <= 100
  0 <= a1_x3 <= 100
  0 <= a1_x4 <= 100
  0 <= a1_x5 <= 100
  0 <= a1_x6 <= 100
  0 <= a2_x1 <= 100
  0 <= a2_x2 <= 100
  0 <= a2_x3 <= 100
  0 <= a2_x4 <= 100
  0 <= a2_x5 <= 100
  0 <= a2_x6 <= 100
  0 <= a3_x1 <= 100
  0 <= a3_x2 <= 100
  0 <= a3_x3 <= 100
  0 <= a3_x4 <= 100
  0 <= a3_x5 <= 100
  0 <= a3_x6 <= 100
  0 <= a4_x1 <= 100
  0 <= a4_x2 <= 100
  0 <= a4_x3 <= 100
  0 <= a4_x4 <= 100
  0 <= a4_x5 <= 100
  0 <= a4_x6 <= 100
  0 <= short_1 <= +inf
  0 <= surp_1 <= +inf
  0 <= short_2 <= +inf
  0 <= surp_2 <= +inf
  0 <= short_3 <= +inf
  0 <= surp_3 <= +inf
 0 <= a1_z1 <= 1
 0 <= a1_z2 <= 1
 0 <= a2_z1 <= 1
 0 <= a2_z2 <= 1
 0 <= a3_z1 <= 1
 0 <= a3_z2 <= 1
 0 <= a4_z1 <= 1
 0 <= a4_z2 <= 1

binary
  a1_z1
  a1_z2
  a2_z1
  a2_z2
  a3_z1
  a3_z2
  a4_z1
  a4_z2
end
