min
obj: 
  +7.7820756929973847 a1_x1
  +2.6204029212029933 a1_x2
  +1.0229393332967094 a1_x3
  +7.1910932224071349 a1_x4
  +4.2632745770435907 a1_x5
  +6.0246265469097295 a1_x6
  +42.771027111197313 a1_z1
  +28.114118371176183 a1_z2
  +1.0942907269569377 a2_x1
  +2.3925011221889392 a2_x2
  +1.8354708126815493 a2_x3
  +3.2680190161516656 a2_x4
  +8.5745129304172316 a2_x5
  +5.2855415708546367 a2_x6
  +40.375428510282923 a2_z1
  +37.679921062184903 a2_z2
  +8.2763747483341881 a3_x1
  +6.9098336189226917 a3_x2
  +7.224692972136415 a3_x3
  +2.7635056217757095 a3_x4
  +4.5804152664090756 a3_x5
  +5.5391766018428115 a3_x6
  +12.640130628939682 a3_z1
  +24.719908715545547 a3_z2
  +3.7933549198548668 a4_x1
  +7.8772143187643042 a4_x2
  +7.8222341244321543 a4_x3
  +1.2624357252124174 a4_x4
  +2.9341291076023293 a4_x5
  +4.8680356039416175 a4_x6
  +47.52172151037577 a4_z1
  +34.587285029007681 a4_z2
  +1000000 short_1
  +1000000 surp_1
  +1000000 short_2
  +1000000 surp_2
  +1000000 short_3
  +1000000 surp_3

s.t.

a1_local_1: 
+0.95481444815371719 a1_x4
+1.4670520101606459 a1_x6
+0.68163909191637817 a1_x3
<= 155.13401229239372

a1_local_2: 
+0.71963475570136226 a1_x6
+1.3895938072437752 a1_x2
+0.97420037318314245 a1_x4
<= 204.89764998789005

a1_local_3: 
+1.1633000613165918 a1_x2
+1.1665244502122574 a1_x5
+0.85724735543952213 a1_x4
<= 210.97803295142535

a1_local_4: 
+1.3559316972520228 a1_x2
+0.73750027529161966 a1_x1
+1.1545234604436829 a1_x3
<= 187.65403366586182

a1_local_5: 
+1.6177757801592965 a1_x3
+0.61813263139687602 a1_x2
+1.0568130285346162 a1_x6
<= 143.78767098743145

a1_local_6: 
+1.0322148212935391 a1_x4
+1.1999253139699959 a1_x5
+0.83338520186015941 a1_x2
<= 112.51439425005971

a1_local_7: 
+0.7512838092901406 a1_x1
+1.3673342509007429 a1_x5
+0.73135006991980311 a1_x3
<= 187.9576931246628

a1_local_8: 
+0.92785192085900026 a1_x1
+1.0585134982600271 a1_x5
+1.0777581826572127 a1_x4
<= 97.840017888575204

a1_act_1: 
+0.10000000000000001 a1_x1
-10 a1_z1
<= 0

a1_act_2: 
+0.10000000000000001 a1_x2
-10 a1_z2
<= 0

a2_local_1: 
+0.96681237961033717 a2_x2
+1.1164257192170761 a2_x3
+0.89571566006314962 a2_x4
<= 207.64422064588067

a2_local_2: 
+0.81365107293509698 a2_x1
+1.4168245273331919 a2_x4
+0.70580370448713436 a2_x5
<= 181.13372029620197

a2_local_3: 
+0.81206693121382056 a2_x5
+0.80785673412339298 a2_x2
+1.2378432434373432 a2_x6
<= 96.155872040029891

a2_local_4: 
+0.69285574422466212 a2_x5
+0.96068947586547837 a2_x4
+1.4433018825860309 a2_x6
<= 140.50547961287529

a2_local_5: 
+0.95609291175455691 a2_x1
+1.2158725853464412 a2_x3
+0.82245459931565756 a2_x2
<= 201.66466457504472

a2_local_6: 
+1.1306515624270177 a2_x5
+0.96951781799049441 a2_x6
+0.8844457773121851 a2_x1
<= 89.870045651971751

a2_local_7: 
+0.68646956292704464 a2_x5
+0.5749411295992285 a2_x6
+0.57722434682487278 a2_x3
<= 104.96995319922827

a2_local_8: 
+0.95080818726687999 a2_x5
+1.0644818752845662 a2_x2
+0.93942416796215722 a2_x4
<= 105.57285381076377

a2_act_1: 
+0.10000000000000001 a2_x1
-10 a2_z1
<= 0

a2_act_2: 
+0.10000000000000001 a2_x2
-10 a2_z2
<= 0

a3_local_1: 
+1.2966254030874389 a3_x1
+1.2832863123614708 a3_x5
+0.77123276901629856 a3_x3
<= 187.72295671711132

a3_local_2: 
+1.551747806071595 a3_x1
+1.5254807944214481 a3_x3
+1.3522290600030547 a3_x5
<= 260.22166155310362

a3_local_3: 
+2.880149427887587 a3_x5
+2.4696708120643129 a3_x2
+1.2405416626936259 a3_x4
<= 314.81143937118065

a3_local_4: 
+1.3755049623833697 a3_x6
+0.98307829076727815 a3_x3
+0.72700573778176458 a3_x4
<= 190.62357902605143

a3_local_5: 
+0.92457207616445081 a3_x2
+1.0815814426804438 a3_x4
+0.99077038187629918 a3_x1
<= 162.91886696417191

a3_local_6: 
+1.3303076174166091 a3_x6
+1.102545377291037 a3_x4
+3.1559455143568962 a3_x5
<= 291.96444252692385

a3_local_7: 
+1.1898002606393445 a3_x6
+2.8483863980792616 a3_x5
+1.3407037243423456 a3_x3
<= 285.21316397020775

a3_local_8: 
+2.4601287539546615 a3_x4
+2.5035530880514627 a3_x6
+1.1520010184749956 a3_x2
<= 373.15970652914547

a3_act_1: 
+0.10000000000000001 a3_x1
-10 a3_z1
<= 0

a3_act_2: 
+0.10000000000000001 a3_x2
-10 a3_z2
<= 0

a4_local_1: 
+0.67063518076602002 a4_x2
+1.4911236819663556 a4_x3
+1.122258913937652 a4_x4
<= 180.96317765110575

a4_local_2: 
+1.0736735451062873 a4_x4
+0.77026570777014092 a4_x6
+1.298253303908494 a4_x1
<= 119.50879265831225

a4_local_3: 
+1.2919950909132234 a4_x3
+0.77399674892972548 a4_x2
+1.1640023101721078 a4_x5
<= 209.0727569971892

a4_local_4: 
+0.98880498936821359 a4_x2
+1.1985636053515982 a4_x1
+0.8343320250464723 a4_x5
<= 116.74389641354141

a4_local_5: 
+1.1398545341782134 a4_x6
+1.5377741940402769 a4_x2
+0.65029053282045668 a4_x3
<= 213.20567654941246

a4_local_6: 
+0.70813553775724336 a4_x5
+1.4121590383207272 a4_x6
+0.91381062462241525 a4_x2
<= 122.28896128297737

a4_local_7: 
+1.1022737767982005 a4_x6
+1.1355353794836796 a4_x5
+0.88064186996506744 a4_x3
<= 146.24416803062752

a4_local_8: 
+0.87988340984292235 a4_x5
+1.1365142117846285 a4_x6
+1.0440234387397498 a4_x4
<= 99.224503724441789

a4_act_1: 
+0.10000000000000001 a4_x1
-10 a4_z1
<= 0

a4_act_2: 
+0.10000000000000001 a4_x2
-10 a4_z2
<= 0

coupling_1: 
+0.0052307853036268094 a1_x1
+0.024371096999023598 a2_x1
+0.20266393132429014 a3_x1
+0.97377113594760389 a4_x1
+0.070978145409935245 short_1
-0.070978145409935245 surp_1
= 78.240068285182275

coupling_2: 
+0.0041880004012229098 a1_x2
+0.043558409138850097 a2_x2
+0.12280704977896896 a3_x2
+0.98444455110223872 a4_x2
+0.083284092045328523 short_2
-0.083284092045328523 surp_2
= 80.827314444521463

coupling_3: 
+0.014927094775879928 a1_x3
+0.070250199948693776 a2_x3
+0.33950151108297644 a3_x3
+0.92200144623322766 a4_x3
+0.12143753201735524 short_3
-0.12143753201735524 surp_3
= 68.976214792865591

bounds
  0 <= a1_x1 <= 100
  0 <= a1_x2 <= 100
  0 <= a1_x3 <= 100
  0 <= a1_x4 <= 100
  0 <= a1_x5 <= 100
  0 <= a1_x6 <= 100
  0 <= a2_x1 <= 100
  0 <= a2_x2 <= 100
  0 <= a2_x3 <= 100
  0 <= a2_x4 <= 100
  0 <= a2_x5 <= 100
  0 <= a2_x6 <= 100
  0 <= a3_x1 <= 100
  0 <= a3_x2 <= 100
  0 <= a3_x3 <= 100
  0 <= a3_x4 <= 100
  0 <= a3_x5 <= 100
  0 <= a3_x6 <= 100
  0 <= a4_x1 <= 100
  0 <= a4_x2 <= 100
  0 <= a4_x3 <= 100
  0 <= a4_x4 <= 100
  0 <= a4_x5 <= 100
  0 <= a4_x6 <= 100
  0 <= short_1 <= +inf
  0 <= surp_1 <= +inf
  0 <= short_2 <= +inf
  0 <= surp_2 <= +inf
  0 <= short_3 <= +inf
  0 <= surp_3 <= +inf
 0 <= a1_z1 <= 1
 0 <= a1_z2 <= 1
 0 <= a2_z1 <= 1
 0 <= a2_z2 <= 1
 0 <= a3_z1 <= 1
 0 <= a3_z2 <= 1
 0 <= a4_z1 <= 1
 0 <= a4_z2 <= 1

binary
  a1_z1
  a1_z2
  a2_z1
  a2_z2
  a3_z1
  a3_z2
  a4_z1
  a4_z2
end
