min
obj: 
  +1.5770974257819579 a1_x1
  +5.2436233239928463 a1_x2
  +8.0695966456126804 a1_x3
  +3.4781022885686368 a1_x4
  +9.412058306823841 a1_x5
  +8.3165688602967034 a1_x6
  +34.001400959855452 a1_z1
  +10.410503430419741 a1_z2
  +7.418259317223229 a2_x1
  +8.2806614137575387 a2_x2
  +6.0649431138157652 a2_x3
  +8.6541766135972331 a2_x4
  +4.3292904508020413 a2_x5
  +7.270244042047584 a2_x6
  +22.659258388720176 a2_z1
  +14.3292458598275 a2_z2
  +6.5706299309399387 a3_x1
  +3.4667216339522406 a3_x2
  +8.7306868906336064 a3_x3
  +5.7873163324378032 a3_x4
  +5.6599350909197002 a3_x5
  +4.8869920304691288 a3_x6
  +21.678337067529544 a3_z1
  +5.900585939248967 a3_z2
  +6.0616245234979713 a4_x1
  +4.5273516228701549 a4_x2
  +9.793261850532609 a4_x3
  +5.1742521510836195 a4_x4
  +5.4489998276629183 a4_x5
  +4.6550473123840108 a4_x6
  +25.907898635489875 a4_z1
  +20.492987297835271 a4_z2
  +1000000 short_1
  +1000000 surp_1
  +1000000 short_2
  +1000000 surp_2
  +1000000 short_3
  +1000000 surp_3

s.t.

a1_local_1: 
+0.13596352847283127 a1_x1
+0.13899837350269162 a1_x6
+0.08477497689183433 a1_x5
<= 18.923278198867663

a1_local_2: 
+0.068309729952000603 a1_x5
+0.09067742765808201 a1_x2
+0.050009063877707829 a1_x4
<= 13.891990291781159

a1_local_3: 
+0.095733733688663766 a1_x4
+0.10315489260569351 a1_x2
+0.071461148554972473 a1_x6
<= 13.738424291027584

a1_local_4: 
+0.088454130087827654 a1_x3
+0.073758039142452117 a1_x4
+0.14156802199848759 a1_x1
<= 20.968324870626201

a1_local_5: 
+0.069880301739105033 a1_x4
+0.10382173348933013 a1_x6
+0.1367313182647463 a1_x3
<= 21.16563487603938

a1_local_6: 
+0.10902814260508552 a1_x2
+0.081728509743204988 a1_x4
+0.059437931473845698 a1_x3
<= 11.094097830047918

a1_local_7: 
+0.077255037158126524 a1_x2
+0.063596028887263664 a1_x4
+0.14513754083666613 a1_x3
<= 11.147067851790112

a1_local_8: 
+0.089489294982925197 a1_x6
+0.11579374288391542 a1_x4
+0.14877492569468567 a1_x3
<= 18.190154639248796

a1_act_1: 
+1 a1_x1
-100 a1_z1
<= 0

a1_act_2: 
+1 a1_x2
-100 a1_z2
<= 0

a2_local_1: 
+0.35591206084755517 a2_x1
+0.33500971416455477 a2_x3
+0.6164909170161047 a2_x6
<= 76.027444832183363

a2_local_2: 
+0.29269258050181168 a2_x2
+0.66344745442923447 a2_x3
+0.50149622458314169 a2_x5
<= 55.495282306088185

a2_local_3: 
+0.58587208999272189 a2_x6
+0.5859154583270364 a2_x5
+0.52869010244594272 a2_x1
<= 86.731515642372116

a2_local_4: 
+0.6729332981243239 a2_x6
+0.2783371725949218 a2_x4
+0.62624213382597171 a2_x2
<= 84.76690829783422

a2_local_5: 
+0.40102108830444927 a2_x1
+0.3367678293467038 a2_x2
+0.48140944719235146 a2_x3
<= 73.241355039593643

a2_local_6: 
+0.61882933212723013 a2_x4
+0.33175991017694112 a2_x6
+0.39217656844989979 a2_x1
<= 64.976546827354596

a2_local_7: 
+0.34044433983619371 a2_x5
+0.52000824122231959 a2_x1
+0.33733296645497685 a2_x6
<= 79.345239906511182

a2_local_8: 
+0.33852471556580299 a2_x1
+0.39070231529925448 a2_x2
+0.47684152191124934 a2_x6
<= 48.935017511184256

a2_act_1: 
+1 a2_x1
-100 a2_z1
<= 0

a2_act_2: 
+1 a2_x2
-100 a2_z2
<= 0

a3_local_1: 
+2.2987999818069902 a3_x2
+2.6462639562616586 a3_x4
+1.812712409187005 a3_x6
<= 248.74810636401423

a3_local_2: 
+2.6391975283965978 a3_x2
+1.1960511263803879 a3_x4
+1.1037785413994583 a3_x6
<= 308.41292892646072

a3_local_3: 
+2.02963673409872 a3_x6
+3.1100630777004161 a3_x3
+2.3860804173432015 a3_x2
<= 467.38152793953833

a3_local_4: 
+3.0118265618048152 a3_x3
+3.1208393023334913 a3_x2
+1.4011550964468753 a3_x5
<= 370.68253445145024

a3_local_5: 
+2.7138063801306949 a3_x4
+2.4539153449018896 a3_x2
+1.2692839804334004 a3_x6
<= 214.90267794552847

a3_local_6: 
+2.0965325101501837 a3_x3
+3.0664197625898821 a3_x5
+2.9832378072498047 a3_x1
<= 408.38588992914202

a3_local_7: 
+1.8724245385765756 a3_x2
+2.9863696284524175 a3_x3
+1.8131547482700108 a3_x5
<= 251.11089457474523

a3_local_8: 
+1.777323456401223 a3_x2
+1.4602351318981666 a3_x5
+2.3928189644550297 a3_x3
<= 276.67509926791621

a3_act_1: 
+1 a3_x1
-100 a3_z1
<= 0

a3_act_2: 
+1 a3_x2
-100 a3_z2
<= 0

a4_local_1: 
+5.4958064319463364 a4_x4
+14.140868601021491 a4_x5
+7.40298982162893 a4_x1
<= 1060.2088713115213

a4_local_2: 
+6.6404099881629639 a4_x6
+13.068785430691463 a4_x4
+6.9913069661309981 a4_x1
<= 1682.6827367933643

a4_local_3: 
+11.070484916385777 a4_x1
+8.7042591759120835 a4_x3
+8.6530039461971526 a4_x4
<= 1746.9469619041645

a4_local_4: 
+11.424015401583041 a4_x3
+11.288921474436343 a4_x6
+10.208682802230182 a4_x5
<= 2221.5413767490554

a4_local_5: 
+14.973328683873206 a4_x4
+12.186004115751995 a4_x5
+6.9160351682621783 a4_x6
<= 1662.1949066427189

a4_local_6: 
+8.9233748435442646 a4_x5
+12.125653890802933 a4_x3
+12.25695822995239 a4_x2
<= 1926.7281048121163

a4_local_7: 
+6.838614729163889 a4_x6
+5.2865619798879413 a4_x3
+12.835579708471339 a4_x4
<= 806.68719745387989

a4_local_8: 
+8.6558493735763165 a4_x6
+11.545036559333454 a4_x4
+13.637189998905585 a4_x1
<= 1394.5880254828492

a4_act_1: 
+1 a4_x1
-100 a4_z1
<= 0

a4_act_2: 
+1 a4_x2
-100 a4_z2
<= 0

coupling_1: 
+0.00078761603989975623 a1_x1
+0.0030117440595140372 a2_x1
+0.010145023708347535 a3_x1
+0.070257035804723394 a4_x1
+0.0062588407602889359 short_1
-0.0062588407602889359 surp_1
= 5.9382817029375614

coupling_2: 
+0.95137825492814365 a1_x2
+3.8116174213971132 a2_x2
+26.689656092675207 a3_x2
+127.24535243832865 a4_x2
+10.780783071140641 short_2
-10.780783071140641 surp_2
= 10671.37926557934

coupling_3: 
+2.0060486540454798 a1_x3
+10.394919188065797 a2_x3
+38.546259308438714 a3_x3
+246.62948028347657 a4_x3
+24.253445585937623 short_3
-24.253445585937623 surp_3
= 19575.168316588315

bounds
  0 <= a1_x1 <= 100
  0 <= a1_x2 <= 100
  0 <= a1_x3 <= 100
  0 <= a1_x4 <= 100
  0 <= a1_x5 <= 100
  0 <= a1_x6 <= 100
  0 <= a2_x1 <= 100
  0 <= a2_x2 <= 100
  0 <= a2_x3 <= 100
  0 <= a2_x4 <= 100
  0 <= a2_x5 <= 100
  0 <= a2_x6 <= 100
  0 <= a3_x1 <= 100
  0 <= a3_x2 <= 100
  0 <= a3_x3 <= 100
  0 <= a3_x4 <= 100
  0 <= a3_x5 <= 100
  0 <= a3_x6 <= 100
  0 <= a4_x1 <= 100
  0 <= a4_x2 <= 100
  0 <= a4_x3 <= 100
  0 <= a4_x4 <= 100
  0 <= a4_x5 <= 100
  0 <= a4_x6 <= 100
  0 <= short_1 <= +inf
  0 <= surp_1 <= +inf
  0 <= short_2 <= +inf
  0 <= surp_2 <= +inf
  0 <= short_3 <= +inf
  0 <= surp_3 <= +inf
 0 <= a1_z1 <= 1
 0 <= a1_z2 <= 1
 0 <= a2_z1 <= 1
 0 <= a2_z2 <= 1
 0 <= a3_z1 <= 1
 0 <= a3_z2 <= 1
 0 <= a4_z1 <= 1
 0 <= a4_z2 <= 1

binary
  a1_z1
  a1_z2
  a2_z1
  a2_z2
  a3_z1
  a3_z2
  a4_z1
  a4_z2
end
