min
obj: 
  +4.6820518769511636 a1_x1
  +5.7129162548306427 a1_x2
  +9.0056358908477314 a1_x3
  +9.0172471176233611 a1_x4
  +9.406385688684578 a1_x5
  +5.7753562095118767 a1_x6
  +36.440798325108226 a1_z1
  +20.355895911925103 a1_z2
  +7.5922132430360731 a2_x1
  +9.5705581106952309 a2_x2
  +1.2604999258751248 a2_x3
  +5.3940318901522675 a2_x4
  +5.1816392623674004 a2_x5
  +3.5951202349319828 a2_x6
  +41.62149658815251 a2_z1
  +8.2240572055779673 a2_z2
  +7.862026295743088 a3_x1
  +4.4443242856945142 a3_x2
  +6.878356128261002 a3_x3
  +6.0922718983064614 a3_x4
  +7.9699820931728009 a3_x5
  +3.3886243612057902 a3_x6
  +44.384252789712569 a3_z1
  +46.436857763791892 a3_z2
  +5.3272595951622712 a4_x1
  +2.1426688948262615 a4_x2
  +3.7175386403807593 a4_x3
  +7.4752828100284079 a4_x4
  +1.4623010448148774 a4_x5
  +9.334818787187654 a4_x6
  +27.5499217848452 a4_z1
  +29.024926983261683 a4_z2
  +1000000 short_1
  +1000000 surp_1
  +1000000 short_2
  +1000000 surp_2
  +1000000 short_3
  +1000000 surp_3

s.t.

a1_local_1: 
+0.71433844523206802 a1_x4
+0.58447109877792236 a1_x2
+0.38485597352355055 a1_x6
<= 73.865137022017976

a1_local_2: 
+0.63507832848342716 a1_x5
+0.70513762142893022 a1_x4
+0.3153671694013927 a1_x1
<= 87.462344294708458

a1_local_3: 
+0.73282679124353733 a1_x6
+0.5793327867679644 a1_x2
+0.35684508713356999 a1_x1
<= 88.193063718139683

a1_local_4: 
+0.69073629674759374 a1_x5
+0.45689189619863813 a1_x2
+0.56047583671683188 a1_x6
<= 61.887982276581596

a1_local_5: 
+0.67415338813499182 a1_x6
+0.65482511177276703 a1_x2
+0.34164496521666204 a1_x1
<= 89.007603634038986

a1_local_6: 
+0.72264038807664044 a1_x5
+0.49351272606175878 a1_x4
+0.48397939908175214 a1_x2
<= 68.392650472563801

a1_local_7: 
+0.69642447315368716 a1_x1
+0.4088071890392585 a1_x4
+0.58980474343839362 a1_x3
<= 109.98056815811319

a1_local_8: 
+0.49110413697685434 a1_x5
+0.62941656160882153 a1_x6
+0.60220554515609359 a1_x4
<= 65.25421556277567

a1_act_1: 
+0.0099995000374968751 a1_x1
-0.99995000374968757 a1_z1
<= 0

a1_act_2: 
+0.0099995000374968751 a1_x2
-0.99995000374968757 a1_z2
<= 0

a2_local_1: 
+0.25102925704945767 a2_x3
+0.33820536481278862 a2_x4
+0.48778173978046802 a2_x5
<= 61.405033237604428

a2_local_2: 
+0.34879777266074241 a2_x3
+0.50042309546837249 a2_x2
+0.61519349163932335 a2_x5
<= 92.492674538946247

a2_local_3: 
+0.60342108183584997 a2_x4
+0.6324144696609183 a2_x6
+0.26871087639233177 a2_x5
<= 102.48774774115475

a2_local_4: 
+0.42255881376663601 a2_x1
+0.49578885918991755 a2_x4
+0.62453989901379936 a2_x5
<= 107.13806446876518

a2_local_5: 
+0.40013175235992732 a2_x2
+0.62033792694412293 a2_x5
+0.43079246751818473 a2_x1
<= 47.902703124622057

a2_local_6: 
+0.55822557528389682 a2_x5
+0.41867061427744201 a2_x4
+0.34489115079170474 a2_x3
<= 88.617560546859508

a2_local_7: 
+0.54884622668452887 a2_x3
+0.62289241071838297 a2_x5
+0.55747005670582528 a2_x6
<= 55.597239595371562

a2_local_8: 
+0.4765672126921966 a2_x2
+0.29935784194281662 a2_x6
+0.41502606140354453 a2_x4
<= 74.810906079532927

a2_act_1: 
+0.0099995000374968751 a2_x1
-0.99995000374968757 a2_z1
<= 0

a2_act_2: 
+0.0099995000374968751 a2_x2
-0.99995000374968757 a2_z2
<= 0

a3_local_1: 
+0.47165918475742163 a3_x2
+0.69047543130792333 a3_x6
+0.54843531267971923 a3_x5
<= 116.90425546168949

a3_local_2: 
+0.45912010802469044 a3_x4
+0.71509657562696161 a3_x5
+0.52711062779457396 a3_x3
<= 82.575269832625196

a3_local_3: 
+0.57103836926224261 a3_x4
+0.63428405376980923 a3_x5
+0.52115153263101566 a3_x1
<= 97.519879195786302

a3_local_4: 
+0.6741001276582903 a3_x3
+0.31894913582251783 a3_x4
+0.66622853935353565 a3_x5
<= 67.676638339284523

a3_local_5: 
+0.51714418357569147 a3_x5
+0.44727244801312255 a3_x3
+0.72973231437437402 a3_x2
<= 85.451339276243431

a3_local_6: 
+0.43747467947771446 a3_x1
+0.59762406601363394 a3_x3
+0.67190875908653169 a3_x5
<= 91.6329264496147

a3_local_7: 
+0.34973093666598259 a3_x6
+0.71086290622709902 a3_x4
+0.61021488058641848 a3_x1
<= 114.64537337574724

a3_local_8: 
+0.62124283604109276 a3_x4
+0.52052328412134752 a3_x3
+0.5857583540634711 a3_x5
<= 56.205868108235052

a3_act_1: 
+0.0099995000374968751 a3_x1
-0.99995000374968757 a3_z1
<= 0

a3_act_2: 
+0.0099995000374968751 a3_x2
-0.99995000374968757 a3_z2
<= 0

a4_local_1: 
+0.40619392836994889 a4_x1
+0.63037479663045715 a4_x4
+0.66153919636594372 a4_x6
<= 58.102038659642545

a4_local_2: 
+0.67935752393686377 a4_x3
+0.54322306387818675 a4_x5
+0.49333767091229602 a4_x2
<= 77.83465502821285

a4_local_3: 
+0.61601167301985948 a4_x5
+0.4225041683882424 a4_x1
+0.66484573127743962 a4_x3
<= 96.15577422615624

a4_local_4: 
+0.70787620322294353 a4_x3
+0.5930679661127447 a4_x1
+0.38364263120977915 a4_x5
<= 87.315149705663487

a4_local_5: 
+0.52441771081369926 a4_x6
+0.53802423647095932 a4_x4
+0.65993634962378023 a4_x2
<= 90.344570108916898

a4_local_6: 
+0.73208625377010117 a4_x1
+0.53810842559023664 a4_x4
+0.41771885204004833 a4_x5
<= 69.510720372642766

a4_local_7: 
+0.71213741234336159 a4_x2
+0.59501038812936247 a4_x5
+0.37258951133794221 a4_x4
<= 66.015852474322827

a4_local_8: 
+0.58309573455085484 a4_x5
+0.44485242451755302 a4_x6
+0.67978355728088469 a4_x2
<= 98.894411062553601

a4_act_1: 
+0.0099995000374968751 a4_x1
-0.99995000374968757 a4_z1
<= 0

a4_act_2: 
+0.0099995000374968751 a4_x2
-0.99995000374968757 a4_z2
<= 0

coupling_1: 
+0.0091055720652928728 a1_x1
+0.056095986389832153 a2_x1
+0.11580358730184089 a3_x1
+0.98296264793279775 a4_x1
+0.092585881227331801 short_1
-0.092585881227331801 surp_1
= 28.503014319373076

coupling_2: 
+0.0090580483587306849 a1_x2
+0.041923148134081739 a2_x2
+0.18380742088337032 a3_x2
+0.97748742130991673 a4_x2
+0.066684235841583062 short_2
-0.066684235841583062 surp_2
= 93.296019249656325

coupling_3: 
+0.0094488175466113274 a1_x3
+0.041471049672407709 a2_x3
+0.2309442384902452 a3_x3
+0.94925517917297608 a4_x3
+0.14793619470481389 short_3
-0.14793619470481389 surp_3
= 47.678993176995732

bounds
  0 <= a1_x1 <= 100
  0 <= a1_x2 <= 100
  0 <= a1_x3 <= 100
  0 <= a1_x4 <= 100
  0 <= a1_x5 <= 100
  0 <= a1_x6 <= 100
  0 <= a2_x1 <= 100
  0 <= a2_x2 <= 100
  0 <= a2_x3 <= 100
  0 <= a2_x4 <= 100
  0 <= a2_x5 <= 100
  0 <= a2_x6 <= 100
  0 <= a3_x1 <= 100
  0 <= a3_x2 <= 100
  0 <= a3_x3 <= 100
  0 <= a3_x4 <= 100
  0 <= a3_x5 <= 100
  0 <= a3_x6 <= 100
  0 <= a4_x1 <= 100
  0 <= a4_x2 <= 100
  0 <= a4_x3 <= 100
  0 <= a4_x4 <= 100
  0 <= a4_x5 <= 100
  0 <= a4_x6 <= 100
  0 <= short_1 <= +inf
  0 <= surp_1 <= +inf
  0 <= short_2 <= +inf
  0 <= surp_2 <= +inf
  0 <= short_3 <= +inf
  0 <= surp_3 <= +inf
 0 <= a1_z1 <= 1
 0 <= a1_z2 <= 1
 0 <= a2_z1 <= 1
 0 <= a2_z2 <= 1
 0 <= a3_z1 <= 1
 0 <= a3_z2 <= 1
 0 <= a4_z1 <= 1
 0 <= a4_z2 <= 1

binary
  a1_z1
  a1_z2
  a2_z1
  a2_z2
  a3_z1
  a3_z2
  a4_z1
  a4_z2
end
