min
obj: 
  +4.0092711480649195 a1_x1
  +1.9679731558453351 a1_x2
  +5.1245063990813229 a1_x3
  +5.3289660462088069 a1_x4
  +7.7326436197250805 a1_x5
  +5.1395422066191525 a1_x6
  +7.4601303692563201 a1_z1
  +49.872667351617643 a1_z2
  +4.2007388618696755 a2_x1
  +7.5341317217871078 a2_x2
  +3.4571921689270946 a2_x3
  +4.7657113746642423 a2_x4
  +9.3861788498988687 a2_x5
  +1.7288685547688603 a2_x6
  +29.540804107775944 a2_z1
  +23.537170412908246 a2_z2
  +8.2162616662184611 a3_x1
  +4.9087522557742478 a3_x2
  +9.9244206014586318 a3_x3
  +6.7861238771840311 a3_x4
  +8.6736711514090779 a3_x5
  +9.6443958243312533 a3_x6
  +44.884441558292828 a3_z1
  +12.682768889922908 a3_z2
  +8.6978778464740216 a4_x1
  +4.1276908151999692 a4_x2
  +7.0223714932865171 a4_x3
  +1.0610858298808366 a4_x4
  +7.0927412879620659 a4_x5
  +7.9355051703127861 a4_x6
  +37.985653916409667 a4_z1
  +17.373101516361629 a4_z2
  +1000000 short_1
  +1000000 surp_1
  +1000000 short_2
  +1000000 surp_2
  +1000000 short_3
  +1000000 surp_3

s.t.

a1_local_1: 
+1.5342020906071259 a1_x3
+0.65180461304434323 a1_x6
+1.0370685380770173 a1_x4
<= 121.8339849395759

a1_local_2: 
+1.1127864586592253 a1_x2
+1.343515009364272 a1_x5
+0.7443162101130395 a1_x3
<= 99.996033310445796

a1_local_3: 
+1.2850624035155884 a1_x4
+0.77817232631214373 a1_x2
+1.0486261349960222 a1_x5
<= 174.39566554251988

a1_local_4: 
+1.4453356761077845 a1_x3
+0.69188079733349495 a1_x6
+0.86628748776881193 a1_x5
<= 175.24498812792297

a1_local_5: 
+0.65595763508653193 a1_x1
+1.5244886963897952 a1_x6
+1.4636198825631901 a1_x3
<= 253.37658705215719

a1_local_6: 
+1.4572489264575241 a1_x1
+1.4505932406887987 a1_x3
+0.68622455768825563 a1_x2
<= 250.18711513563522

a1_local_7: 
+0.66069759356104607 a1_x1
+1.5135517515814949 a1_x5
+0.91044694277086724 a1_x4
<= 120.70295413703423

a1_local_8: 
+1.2550546428624705 a1_x3
+0.79677805718422456 a1_x1
+0.9722932121729323 a1_x6
<= 108.76778960936669

a1_act_1: 
+0.10000000000000001 a1_x1
-10 a1_z1
<= 0

a1_act_2: 
+0.10000000000000001 a1_x2
-10 a1_z2
<= 0

a2_local_1: 
+0.52863920803033648 a2_x6
+0.58282630080425946 a2_x5
+0.58178625970216458 a2_x3
<= 93.859900384313619

a2_local_2: 
+1.2036805221840321 a2_x4
+1.3058411628274287 a2_x5
+0.76578992029534698 a2_x3
<= 101.15459810589847

a2_local_3: 
+0.69243414210764209 a2_x1
+0.55541336608486103 a2_x5
+0.55357487177182529 a2_x6
<= 72.494496161263783

a2_local_4: 
+0.90666536941904263 a2_x1
+1.251049191607748 a2_x4
+0.79932908050952045 a2_x5
<= 189.93990861834061

a2_local_5: 
+0.98905561698035471 a2_x5
+1.1631249513075976 a2_x1
+0.8597528570561479 a2_x3
<= 199.79752018033113

a2_local_6: 
+0.41197549470920708 a2_x6
+0.47158739250967924 a2_x2
+0.6135710773661317 a2_x4
<= 68.55212241923067

a2_local_7: 
+1.056106209673163 a2_x6
+0.94687446285300569 a2_x4
+0.94897629678036366 a2_x3
<= 162.89717282780779

a2_local_8: 
+1.3222288064857903 a2_x3
+1.06598415727492 a2_x5
+0.7562987548711726 a2_x4
<= 122.29730658392012

a2_act_1: 
+0.10000000000000001 a2_x1
-10 a2_z1
<= 0

a2_act_2: 
+0.10000000000000001 a2_x2
-10 a2_z2
<= 0

a3_local_1: 
+1.217105640054708 a3_x1
+0.93316711007291309 a3_x2
+0.82162136719295042 a3_x5
<= 109.27943141639862

a3_local_2: 
+0.81824039485710365 a3_x6
+1.194199452226804 a3_x2
+1.2221347250579564 a3_x3
<= 201.75420785209309

a3_local_3: 
+2.8157524259435864 a3_x1
+1.0997098889836723 a3_x6
+2.1834505093381087 a3_x3
<= 219.93496435199501

a3_local_4: 
+1.0882002815035219 a3_x1
+0.7213968490922904 a3_x2
+1.3861995672122307 a3_x3
<= 105.36195632304532

a3_local_5: 
+1.2382143136559542 a3_x6
+0.8076146342125522 a3_x5
+1.0784151054942495 a3_x3
<= 209.70372275543352

a3_local_6: 
+1.1227433893721994 a3_x5
+2.3178100548140197 a3_x3
+1.7802180548678113 a3_x4
<= 206.59271575704875

a3_local_7: 
+1.5454223601961996 a3_x1
+1.1938067986470524 a3_x5
+2.408969109726506 a3_x2
<= 266.66187145961834

a3_local_8: 
+0.86788193626099075 a3_x1
+0.81069305837257788 a3_x3
+1.233512473891716 a3_x6
<= 179.25845410838815

a3_act_1: 
+0.10000000000000001 a3_x1
-10 a3_z1
<= 0

a3_act_2: 
+0.10000000000000001 a3_x2
-10 a3_z2
<= 0

a4_local_1: 
+0.87153560648869466 a4_x3
+1.1474000517648062 a4_x5
+1.1125015849824367 a4_x2
<= 178.9540336187201

a4_local_2: 
+1.1797500785450012 a4_x6
+0.8476371548398719 a4_x4
+0.8691569344303397 a4_x5
<= 114.58289428619065

a4_local_3: 
+1.0942402044502175 a4_x6
+0.91387612695370946 a4_x3
+0.95683690475189276 a4_x2
<= 195.71115316432102

a4_local_4: 
+0.72176562294919289 a4_x3
+0.71620093032760879 a4_x6
+1.3962562147784061 a4_x5
<= 104.95433676534132

a4_local_5: 
+0.79051140347389837 a4_x1
+1.3589296617212787 a4_x6
+0.73587325979282603 a4_x3
<= 113.66169983994573

a4_local_6: 
+0.83436693204328771 a4_x6
+0.94198930832259742 a4_x3
+1.198513461638625 a4_x4
<= 173.74920279111552

a4_local_7: 
+0.99167645099652624 a4_x6
+0.97330624719013015 a4_x4
+1.0274258517161821 a4_x5
<= 99.315702386605253

a4_local_8: 
+1.1794754987999085 a4_x2
+1.2086339014672749 a4_x4
+0.82738039929709506 a4_x1
<= 99.234546196623597

a4_act_1: 
+0.10000000000000001 a4_x1
-10 a4_z1
<= 0

a4_act_2: 
+0.10000000000000001 a4_x2
-10 a4_z2
<= 0

coupling_1: 
+0.070182843806045392 a1_x1
+0.76079183555181851 a2_x1
+3.0911381119319485 a3_x1
+14.248496438297112 a4_x1
+1.1677461660753488 short_1
-1.1677461660753488 surp_1
= 1348.5597791340801

coupling_2: 
+0.095935129498944866 a1_x2
+0.57306284690973941 a2_x2
+2.7098489990880545 a3_x2
+10.423710326163667 a4_x2
+1.5230995389366377 short_2
-1.5230995389366377 surp_2
= 340.03142456598835

coupling_3: 
+0.073657455720324921 a1_x3
+0.31883531208928029 a2_x3
+1.2825386097357734 a3_x3
+8.6423441016536433 a4_x3
+0.81685093377368523 short_3
-0.81685093377368523 surp_3
= 512.68090594828743

bounds
  0 <= a1_x1 <= 100
  0 <= a1_x2 <= 100
  0 <= a1_x3 <= 100
  0 <= a1_x4 <= 100
  0 <= a1_x5 <= 100
  0 <= a1_x6 <= 100
  0 <= a2_x1 <= 100
  0 <= a2_x2 <= 100
  0 <= a2_x3 <= 100
  0 <= a2_x4 <= 100
  0 <= a2_x5 <= 100
  0 <= a2_x6 <= 100
  0 <= a3_x1 <= 100
  0 <= a3_x2 <= 100
  0 <= a3_x3 <= 100
  0 <= a3_x4 <= 100
  0 <= a3_x5 <= 100
  0 <= a3_x6 <= 100
  0 <= a4_x1 <= 100
  0 <= a4_x2 <= 100
  0 <= a4_x3 <= 100
  0 <= a4_x4 <= 100
  0 <= a4_x5 <= 100
  0 <= a4_x6 <= 100
  0 <= short_1 <= +inf
  0 <= surp_1 <= +inf
  0 <= short_2 <= +inf
  0 <= surp_2 <= +inf
  0 <= short_3 <= +inf
  0 <= surp_3 <= +inf
 0 <= a1_z1 <= 1
 0 <= a1_z2 <= 1
 0 <= a2_z1 <= 1
 0 <= a2_z2 <= 1
 0 <= a3_z1 <= 1
 0 <= a3_z2 <= 1
 0 <= a4_z1 <= 1
 0 <= a4_z2 <= 1

binary
  a1_z1
  a1_z2
  a2_z1
  a2_z2
  a3_z1
  a3_z2
  a4_z1
  a4_z2
end
