min
obj: 
  +4.6820518769511636 a1_x1
  +5.7129162548306427 a1_x2
  +9.0056358908477314 a1_x3
  +9.0172471176233611 a1_x4
  +9.406385688684578 a1_x5
  +5.7753562095118767 a1_x6
  +36.440798325108226 a1_z1
  +20.355895911925103 a1_z2
  +7.5922132430360731 a2_x1
  +9.5705581106952309 a2_x2
  +1.2604999258751248 a2_x3
  +5.3940318901522675 a2_x4
  +5.1816392623674004 a2_x5
  +3.5951202349319828 a2_x6
  +41.62149658815251 a2_z1
  +8.2240572055779673 a2_z2
  +7.862026295743088 a3_x1
  +4.4443242856945142 a3_x2
  +6.878356128261002 a3_x3
  +6.0922718983064614 a3_x4
  +7.9699820931728009 a3_x5
  +3.3886243612057902 a3_x6
  +44.384252789712569 a3_z1
  +46.436857763791892 a3_z2
  +5.3272595951622712 a4_x1
  +2.1426688948262615 a4_x2
  +3.7175386403807593 a4_x3
  +7.4752828100284079 a4_x4
  +1.4623010448148774 a4_x5
  +9.334818787187654 a4_x6
  +27.5499217848452 a4_z1
  +29.024926983261683 a4_z2
  +1000000 short_1
  +1000000 surp_1
  +1000000 short_2
  +1000000 surp_2
  +1000000 short_3
  +1000000 surp_3

s.t.

a1_local_1: 
+0.1295758023750051 a1_x4
+0.10601880956378679 a1_x2
+0.069810076583414316 a1_x6
<= 13.398599026905639

a1_local_2: 
+0.10700466556347484 a1_x5
+0.11880899091204906 a1_x4
+0.05313637228352748 a1_x1
<= 14.736574184481871

a1_local_3: 
+0.12510684960142152 a1_x6
+0.09890263386845205 a1_x2
+0.060919940674206891 a1_x1
<= 15.056158549759063

a1_local_4: 
+0.12445424349400601 a1_x5
+0.082321047218287091 a1_x2
+0.10098440835338417 a1_x6
<= 11.150741682273186

a1_local_5: 
+0.12053650721507331 a1_x6
+0.11708067214223417 a1_x2
+0.061085046132833012 a1_x1
<= 15.914279815919915

a1_local_6: 
+0.12462886668514833 a1_x5
+0.085112779134138269 a1_x4
+0.083468631150077396 a1_x2
<= 11.795214685793496

a1_local_7: 
+0.14761759920281536 a1_x1
+0.086652807460299297 a1_x4
+0.12501795037520813 a1_x3
<= 23.312028879374992

a1_local_8: 
+0.096086537733216279 a1_x5
+0.12314793063897081 a1_x6
+0.11782398371553562 a1_x4
<= 12.767254791461022

a1_act_1: 
+1 a1_x1
-100 a1_z1
<= 0

a1_act_2: 
+1 a1_x2
-100 a1_z2
<= 0

a2_local_1: 
+0.25102925704945767 a2_x3
+0.33820536481278862 a2_x4
+0.48778173978046802 a2_x5
<= 61.405033237604428

a2_local_2: 
+0.34879777266074241 a2_x3
+0.50042309546837249 a2_x2
+0.61519349163932335 a2_x5
<= 92.492674538946247

a2_local_3: 
+0.60342108183584997 a2_x4
+0.6324144696609183 a2_x6
+0.26871087639233177 a2_x5
<= 102.48774774115475

a2_local_4: 
+0.42255881376663601 a2_x1
+0.49578885918991755 a2_x4
+0.62453989901379936 a2_x5
<= 107.13806446876518

a2_local_5: 
+0.40013175235992732 a2_x2
+0.62033792694412293 a2_x5
+0.43079246751818473 a2_x1
<= 47.902703124622057

a2_local_6: 
+0.55822557528389682 a2_x5
+0.41867061427744201 a2_x4
+0.34489115079170474 a2_x3
<= 88.617560546859508

a2_local_7: 
+0.27015029997506507 a2_x3
+0.30659693631178969 a2_x5
+0.27439507775419025 a2_x6
<= 27.365790679122785

a2_local_8: 
+0.4765672126921966 a2_x2
+0.29935784194281662 a2_x6
+0.41502606140354453 a2_x4
<= 74.810906079532927

a2_act_1: 
+1 a2_x1
-100 a2_z1
<= 0

a2_act_2: 
+1 a2_x2
-100 a2_z2
<= 0

a3_local_1: 
+1.9789193162325518 a3_x2
+2.8969968412721587 a3_x6
+2.3010454774120843 a3_x5
<= 490.48994858841638

a3_local_2: 
+2.0595087988815712 a3_x4
+3.2077612455052988 a3_x5
+2.3644988684933255 a3_x3
<= 370.41395447041901

a3_local_3: 
+1.873135227481185 a3_x4
+2.080595401812972 a3_x5
+1.7094951008076016 a3_x1
<= 319.88729818161971

a3_local_4: 
+3.1872969044108532 a3_x3
+1.5080631964914084 a3_x4
+3.1500782658034159 a3_x5
<= 319.99035607523012

a3_local_5: 
+1.7887476652276182 a3_x5
+1.5470686367818622 a3_x3
+2.5240677842550991 a3_x2
<= 295.56724889390847

a3_local_6: 
+1.427090241879986 a3_x1
+1.9495150529372376 a3_x3
+2.1918398446987744 a3_x5
<= 298.91662604855543

a3_local_7: 
+1.1650654479032094 a3_x6
+2.3681113776681495 a3_x4
+2.0328206590617306 a3_x1
<= 381.92035441695481

a3_local_8: 
+3.1980245557876317 a3_x4
+2.6795419567126917 a3_x3
+3.0153580715558017 a3_x5
<= 289.33572503620309

a3_act_1: 
+1 a3_x1
-100 a3_z1
<= 0

a3_act_2: 
+1 a3_x2
-100 a3_z2
<= 0

a4_local_1: 
+8.961025545954282 a4_x1
+13.906669355693829 a4_x4
+14.594185742939478 a4_x6
<= 1281.7863989017696

a4_local_2: 
+12.885433039160661 a4_x3
+10.303358935906308 a4_x5
+9.3571783637545245 a4_x2
<= 1476.2966481628519

a4_local_3: 
+13.271102850498561 a4_x5
+9.1022565302329284 a4_x1
+14.323163774225067 a4_x3
<= 2071.5405654066208

a4_local_4: 
+13.391259458899514 a4_x3
+11.219372786962161 a4_x1
+7.2575656458492723 a4_x5
<= 1651.785748804072

a4_local_5: 
+9.7147721903564772 a4_x6
+9.9668313682538479 a4_x4
+12.225237943971806 a4_x2
<= 1673.621807856169

a4_local_6: 
+11.216032220672144 a4_x1
+8.2441671436308344 a4_x4
+6.3997214529514315 a4_x5
<= 1064.9489392359544

a4_local_7: 
+13.473484533009843 a4_x2
+11.257466778863412 a4_x5
+7.0493122972634907 a4_x4
<= 1249.0055315579848

a4_local_8: 
+7.981739669844905 a4_x5
+6.0893881289209881 a4_x6
+9.3052565205892552 a4_x2
<= 1353.7218626919823

a4_act_1: 
+1 a4_x1
-100 a4_z1
<= 0

a4_act_2: 
+1 a4_x2
-100 a4_z2
<= 0

coupling_1: 
+36.232722503558598 a1_x1
+223.21610260747678 a2_x1
+460.80347434922703 a3_x1
+3911.3866321112564 a4_x1
+368.4160114490785 short_1
-368.4160114490785 surp_1
= 113418.66287404804

coupling_2: 
+0.25628517395041833 a1_x2
+1.1861585284799585 a2_x2
+5.2005812917820951 a3_x2
+27.656678777089557 a4_x2
+1.8867398699564573 short_2
-1.8867398699564573 surp_2
= 2639.6841323146059

coupling_3: 
+0.0038116255442430256 a1_x3
+0.016729300941429513 a2_x3
+0.093162234785755624 a3_x3
+0.38292678116515427 a4_x3
+0.059677031107157358 short_3
-0.059677031107157358 surp_3
= 19.23356731365843

bounds
  0 <= a1_x1 <= 100
  0 <= a1_x2 <= 100
  0 <= a1_x3 <= 100
  0 <= a1_x4 <= 100
  0 <= a1_x5 <= 100
  0 <= a1_x6 <= 100
  0 <= a2_x1 <= 100
  0 <= a2_x2 <= 100
  0 <= a2_x3 <= 100
  0 <= a2_x4 <= 100
  0 <= a2_x5 <= 100
  0 <= a2_x6 <= 100
  0 <= a3_x1 <= 100
  0 <= a3_x2 <= 100
  0 <= a3_x3 <= 100
  0 <= a3_x4 <= 100
  0 <= a3_x5 <= 100
  0 <= a3_x6 <= 100
  0 <= a4_x1 <= 100
  0 <= a4_x2 <= 100
  0 <= a4_x3 <= 100
  0 <= a4_x4 <= 100
  0 <= a4_x5 <= 100
  0 <= a4_x6 <= 100
  0 <= short_1 <= +inf
  0 <= surp_1 <= +inf
  0 <= short_2 <= +inf
  0 <= surp_2 <= +inf
  0 <= short_3 <= +inf
  0 <= surp_3 <= +inf
 0 <= a1_z1 <= 1
 0 <= a1_z2 <= 1
 0 <= a2_z1 <= 1
 0 <= a2_z2 <= 1
 0 <= a3_z1 <= 1
 0 <= a3_z2 <= 1
 0 <= a4_z1 <= 1
 0 <= a4_z2 <= 1

binary
  a1_z1
  a1_z2
  a2_z1
  a2_z2
  a3_z1
  a3_z2
  a4_z1
  a4_z2
end
