min
obj: 
  +9.9278906915658744 a1_x1
  +4.1029321056614965 a1_x2
  +3.3290118192963942 a1_x3
  +9.1017647242801925 a1_x4
  +1.0276781995025082 a1_x5
  +7.5015228430107515 a1_x6
  +48.476105885704612 a1_z1
  +46.462393702811802 a1_z2
  +6.9375805284658387 a2_x1
  +8.736124438174345 a2_x2
  +2.0422875685559534 a2_x3
  +7.9141637375248139 a2_x4
  +8.8510497644699591 a2_x5
  +5.3589026031734779 a2_x6
  +22.325512980558837 a2_z1
  +43.599104627831977 a2_z2
  +2.4447445858231625 a3_x1
  +8.7712175698219141 a3_x2
  +5.7628145052800139 a3_x3
  +8.5270938060320436 a3_x4
  +1.138926571582954 a3_x5
  +2.911442950069294 a3_x6
  +15.137864115812766 a3_z1
  +21.64888772902043 a3_z2
  +4.3135462509833289 a4_x1
  +3.737467766634015 a4_x2
  +6.3047039607963935 a4_x3
  +7.2324424815448989 a4_x4
  +3.5312943582825165 a4_x5
  +2.1943254476366931 a4_x6
  +13.983355852863056 a4_z1
  +25.767819676338174 a4_z2
  +1000000 short_1
  +1000000 surp_1
  +1000000 short_2
  +1000000 surp_2
  +1000000 short_3
  +1000000 surp_3

s.t.

a1_local_1: 
+0.64487030906653131 a1_x4
+0.62715795005958974 a1_x6
+0.43682398075367795 a1_x1
<= 68.134168933867841

a1_local_2: 
+0.59341904434827575 a1_x4
+0.5147065682893962 a1_x3
+0.61881417757234058 a1_x5
<= 87.107505350964786

a1_local_3: 
+0.42156404829575272 a1_x4
+0.52924120877758885 a1_x3
+0.7363338211138567 a1_x2
<= 90.781971010484583

a1_local_4: 
+0.57098764821340897 a1_x4
+0.72026599000039826 a1_x5
+0.39394163176347174 a1_x2
<= 110.40222656755898

a1_local_5: 
+0.71095354765033913 a1_x2
+0.30548502185222126 a1_x1
+0.63342241396034038 a1_x6
<= 83.122942605836528

a1_local_6: 
+0.35918304043566252 a1_x3
+0.72825087008787803 a1_x5
+0.58364219662361816 a1_x4
<= 114.47712533380439

a1_local_7: 
+0.41594824736734476 a1_x6
+0.46230644877178773 a1_x4
+0.78310906196777752 a1_x3
<= 55.679404113317027

a1_local_8: 
+0.68853074985386409 a1_x1
+0.37708187307670143 a1_x3
+0.61946320915986786 a1_x4
<= 102.51776184459271

a1_act_1: 
+0.0099995000374968751 a1_x1
-0.99995000374968757 a1_z1
<= 0

a1_act_2: 
+0.0099995000374968751 a1_x2
-0.99995000374968757 a1_z2
<= 0

a2_local_1: 
+0.37638435500179446 a2_x3
+0.36353975853708448 a2_x1
+0.66538706543969173 a2_x6
<= 84.522108501267084

a2_local_2: 
+0.3813026756641269 a2_x4
+0.68075693279386518 a2_x1
+0.60481592760766745 a2_x5
<= 58.60734399874783

a2_local_3: 
+0.24068378150122088 a2_x2
+0.56767769955076086 a2_x5
+0.65302783320504876 a2_x1
<= 75.43398085824164

a2_local_4: 
+0.46623041508531538 a2_x2
+0.45020832245519266 a2_x1
+0.40198168356660757 a2_x4
<= 73.4307824285181

a2_local_5: 
+0.47763629274461006 a2_x4
+0.64121848835429274 a2_x5
+0.65950491884133822 a2_x2
<= 68.975934691239729

a2_local_6: 
+0.49459263848049295 a2_x1
+0.57264794537031583 a2_x2
+0.37460116245623287 a2_x3
<= 94.191975620459047

a2_local_7: 
+0.51088020975890436 a2_x1
+0.57675983587326018 a2_x2
+0.6838858274412688 a2_x4
<= 113.09614929843849

a2_local_8: 
+0.29516976511677206 a2_x6
+0.6865660214053636 a2_x3
+0.5701469983080405 a2_x5
<= 69.869351813403114

a2_act_1: 
+0.0099995000374968751 a2_x1
-0.99995000374968757 a2_z1
<= 0

a2_act_2: 
+0.0099995000374968751 a2_x2
-0.99995000374968757 a2_z2
<= 0

a3_local_1: 
+0.67563906867660961 a3_x4
+0.26028406235977941 a3_x6
+0.68975651918578773 a3_x3
<= 69.658563737751805

a3_local_2: 
+0.60465004494781671 a3_x6
+0.59636928788082266 a3_x4
+0.52796022162386802 a3_x3
<= 68.987907125488434

a3_local_3: 
+0.67841394787247566 a3_x2
+0.49594632786713544 a3_x1
+0.54202560382991682 a3_x4
<= 79.043389908317792

a3_local_4: 
+0.42270316114413714 a3_x5
+0.45427196029214906 a3_x3
+0.7841932310668599 a3_x2
<= 96.628838911708144

a3_local_5: 
+0.32061076179745068 a3_x1
+0.43538706840208607 a3_x2
+0.84121747490639776 a3_x5
<= 55.61432534281893

a3_local_6: 
+0.65576841122668794 a3_x6
+0.56129592973246711 a3_x4
+0.50489075066096312 a3_x2
<= 101.0012707758729

a3_local_7: 
+0.78080195138319797 a3_x2
+0.4795159479683162 a3_x3
+0.40051562810986185 a3_x5
<= 86.885049796609493

a3_local_8: 
+0.34060344929533881 a3_x5
+0.45625349258386411 a3_x2
+0.82208396215541357 a3_x3
<= 92.272891454939895

a3_act_1: 
+0.0099995000374968751 a3_x1
-0.99995000374968757 a3_z1
<= 0

a3_act_2: 
+0.0099995000374968751 a3_x2
-0.99995000374968757 a3_z2
<= 0

a4_local_1: 
+0.36699818472717499 a4_x1
+0.74207918488138003 a4_x4
+0.56091961614187191 a4_x6
<= 71.694710181219094

a4_local_2: 
+0.61634848862001823 a4_x6
+0.61544738491702677 a4_x3
+0.49126271685790696 a4_x4
<= 115.25127274621157

a4_local_3: 
+0.4367624102631863 a4_x1
+0.8269800902123553 a4_x2
+0.35403746605897052 a4_x5
<= 56.950894292545797

a4_local_4: 
+0.61978555737435792 a4_x4
+0.51614602404951671 a4_x5
+0.59115069544747401 a4_x1
<= 62.896359517940567

a4_local_5: 
+0.35193122180860059 a4_x4
+0.77168593554715248 a4_x6
+0.52975959830381714 a4_x2
<= 112.59720457191493

a4_local_6: 
+0.65918409742660733 a4_x6
+0.60633725015088269 a4_x2
+0.44478249153865651 a4_x3
<= 86.392049368642873

a4_local_7: 
+0.71214253670041727 a4_x6
+0.62590084556639336 a4_x3
+0.31796405290719365 a4_x4
<= 103.08470283908017

a4_local_8: 
+0.55491793394775091 a4_x2
+0.54548558684238679 a4_x4
+0.62810155319850647 a4_x3
<= 78.595428204025239

a4_act_1: 
+0.0099995000374968751 a4_x1
-0.99995000374968757 a4_z1
<= 0

a4_act_2: 
+0.0099995000374968751 a4_x2
-0.99995000374968757 a4_z2
<= 0

coupling_1: 
+0.017995150691709923 a1_x1
+0.04875427148518361 a2_x1
+0.38518179158031751 a3_x1
+0.71926314671285196 a4_x1
+0.13643400326328378 short_1
-0.13643400326328378 surp_1
= 52.091793011804818

coupling_2: 
+0.015671535033258254 a1_x2
+0.12185343997756272 a2_x2
+0.37026543079323088 a3_x2
+1.7294236378791181 a4_x2
+0.2411506461846929 short_2
-0.2411506461846929 surp_2
= 105.89847335439914

coupling_3: 
+0.013355559074276829 a1_x3
+0.029515715917720748 a2_x3
+0.20218170880782946 a3_x3
+0.9642198329024404 a4_x3
+0.11906536443654443 short_3
-0.11906536443654443 surp_3
= 81.605168585802957

bounds
  0 <= a1_x1 <= 100
  0 <= a1_x2 <= 100
  0 <= a1_x3 <= 100
  0 <= a1_x4 <= 100
  0 <= a1_x5 <= 100
  0 <= a1_x6 <= 100
  0 <= a2_x1 <= 100
  0 <= a2_x2 <= 100
  0 <= a2_x3 <= 100
  0 <= a2_x4 <= 100
  0 <= a2_x5 <= 100
  0 <= a2_x6 <= 100
  0 <= a3_x1 <= 100
  0 <= a3_x2 <= 100
  0 <= a3_x3 <= 100
  0 <= a3_x4 <= 100
  0 <= a3_x5 <= 100
  0 <= a3_x6 <= 100
  0 <= a4_x1 <= 100
  0 <= a4_x2 <= 100
  0 <= a4_x3 <= 100
  0 <= a4_x4 <= 100
  0 <= a4_x5 <= 100
  0 <= a4_x6 <= 100
  0 <= short_1 <= +inf
  0 <= surp_1 <= +inf
  0 <= short_2 <= +inf
  0 <= surp_2 <= +inf
  0 <= short_3 <= +inf
  0 <= surp_3 <= +inf
 0 <= a1_z1 <= 1
 0 <= a1_z2 <= 1
 0 <= a2_z1 <= 1
 0 <= a2_z2 <= 1
 0 <= a3_z1 <= 1
 0 <= a3_z2 <= 1
 0 <= a4_z1 <= 1
 0 <= a4_z2 <= 1

binary
  a1_z1
  a1_z2
  a2_z1
  a2_z2
  a3_z1
  a3_z2
  a4_z1
  a4_z2
end
