min
obj: 
  +2.8670230128866887 a1_x1
  +4.6121734767481746 a1_x2
  +8.3726653944305163 a1_x3
  +3.8874111784256438 a1_x4
  +3.5735214707131471 a1_x5
  +7.9063268225890937 a1_x6
  +32.521673256282952 a1_z1
  +46.9551209495583 a1_z2
  +6.1895710982011405 a2_x1
  +7.6567171580139357 a2_x2
  +8.2043744709301158 a2_x3
  +3.6188691473828523 a2_x4
  +5.2859257046209569 a2_x5
  +3.3947769180807601 a2_x6
  +12.605481383042026 a2_z1
  +31.130882329794158 a2_z2
  +1.0038469274140069 a3_x1
  +6.9874663911383514 a3_x2
  +2.0892016241128126 a3_x3
  +9.3610808006140438 a3_x4
  +4.8509819599704116 a3_x5
  +1.7243146015797635 a3_x6
  +35.019467218819287 a3_z1
  +33.012677472845496 a3_z2
  +2.5033216672460403 a4_x1
  +6.4216192335644386 a4_x2
  +2.3877334915960096 a4_x3
  +7.475862409648836 a4_x4
  +7.4106096914751971 a4_x5
  +8.5860247699785965 a4_x6
  +17.162878658753439 a4_z1
  +23.317265071624306 a4_z2
  +1000000 short_1
  +1000000 surp_1
  +1000000 short_2
  +1000000 surp_2
  +1000000 short_3
  +1000000 surp_3

s.t.

a1_local_1: 
+0.39177291867941216 a1_x3
+0.68779036958806894 a1_x1
+0.61111241821069417 a1_x2
<= 101.67816044536777

a1_local_2: 
+0.48694897149036165 a1_x6
+0.69838775780659323 a1_x4
+0.52453335347750607 a1_x3
<= 66.970577928210815

a1_local_3: 
+0.47040300645458738 a1_x5
+0.63568217323300102 a1_x6
+0.61206959257281701 a1_x4
<= 63.024802297610613

a1_local_4: 
+0.61056793419217059 a1_x3
+0.70428887678463692 a1_x6
+0.36219328510305021 a1_x4
<= 56.53076579746952

a1_local_5: 
+0.72564219502028815 a1_x4
+0.57689771923724265 a1_x5
+0.37500990166261705 a1_x2
<= 61.430858365910112

a1_local_6: 
+0.61705341369718358 a1_x5
+0.59840647661207103 a1_x4
+0.51103304530468407 a1_x2
<= 83.984197294081994

a1_local_7: 
+0.57331027592428341 a1_x2
+0.73011262331751592 a1_x3
+0.37182103866246907 a1_x6
<= 104.23383534068189

a1_local_8: 
+0.66788022824517301 a1_x2
+0.64196471180922843 a1_x5
+0.37658639050139564 a1_x1
<= 88.057536219291563

a1_act_1: 
+0.0099995000374968751 a1_x1
-0.99995000374968757 a1_z1
<= 0

a1_act_2: 
+0.0099995000374968751 a1_x2
-0.99995000374968757 a1_z2
<= 0

a2_local_1: 
+0.63988352588496811 a2_x4
+0.53762771409426813 a2_x3
+0.63805236758035289 a2_x1
<= 97.833039363380507

a2_local_2: 
+0.43438668290792909 a2_x6
+0.25654329375471274 a2_x2
+0.51304202949093014 a2_x5
<= 47.084218033821507

a2_local_3: 
+0.66540499150489674 a2_x6
+0.55237007187951215 a2_x4
+0.40854450639927925 a2_x5
<= 97.843652416807359

a2_local_4: 
+0.69308902132071393 a2_x3
+0.43374738377742261 a2_x4
+0.50261180441065423 a2_x1
<= 106.01916186529681

a2_local_5: 
+0.36956895117403649 a2_x5
+0.35902910665669163 a2_x4
+0.50031562820236541 a2_x3
<= 82.767890575537081

a2_local_6: 
+0.33937885670187712 a2_x6
+0.6659469865753288 a2_x4
+0.60656319352996069 a2_x3
<= 90.307614047381875

a2_local_7: 
+0.31442704344611638 a2_x6
+0.32994533333758369 a2_x3
+0.36454916372252538 a2_x5
<= 37.601475203326125

a2_local_8: 
+0.2384429695329385 a2_x5
+0.39023415239372405 a2_x3
+0.31807388865787833 a2_x4
<= 39.841712010904047

a2_act_1: 
+0.0099995000374968751 a2_x1
-0.99995000374968757 a2_z1
<= 0

a2_act_2: 
+0.0099995000374968751 a2_x2
-0.99995000374968757 a2_z2
<= 0

a3_local_1: 
+0.54521162174487614 a3_x4
+0.62866008780688754 a3_x2
+0.55455457938146979 a3_x6
<= 57.400348309609683

a3_local_2: 
+0.47130421698944397 a3_x4
+0.81952103305188728 a3_x6
+0.32597179545711441 a3_x3
<= 60.371497618184257

a3_local_3: 
+0.63710162769497636 a3_x4
+0.53136446152404904 a3_x2
+0.55834874855923988 a3_x3
<= 54.229711385758073

a3_local_4: 
+0.56378721533952558 a3_x2
+0.73437186999541926 a3_x4
+0.37794435090252942 a3_x3
<= 86.903985393625931

a3_local_5: 
+0.52454001781291226 a3_x4
+0.64377892316446506 a3_x6
+0.55714133557117407 a3_x1
<= 65.023707917771418

a3_local_6: 
+0.51078968068259356 a3_x3
+0.59372936482145622 a3_x4
+0.621755051010351 a3_x1
<= 58.957358150830878

a3_local_7: 
+0.57222014825871059 a3_x4
+0.46253952721860947 a3_x1
+0.67721583537832641 a3_x6
<= 99.771504824588035

a3_local_8: 
+0.5826447143810386 a3_x2
+0.57275626582281391 a3_x3
+0.57660679562813355 a3_x1
<= 67.145302088158857

a3_act_1: 
+0.0099995000374968751 a3_x1
-0.99995000374968757 a3_z1
<= 0

a3_act_2: 
+0.0099995000374968751 a3_x2
-0.99995000374968757 a3_z2
<= 0

a4_local_1: 
+0.51524792990526491 a4_x1
+0.64131569030573032 a4_x4
+0.56853650374978015 a4_x5
<= 54.23048862845453

a4_local_2: 
+0.53026022173153775 a4_x6
+0.62207193170176522 a4_x2
+0.57606476114934746 a4_x3
<= 67.391399161106463

a4_local_3: 
+0.58327998912470014 a4_x1
+0.56845349214182617 a4_x4
+0.58021123873848957 a4_x5
<= 84.750177642220137

a4_local_4: 
+0.34456449555223517 a4_x2
+0.68318818009549687 a4_x6
+0.64383943571564217 a4_x5
<= 58.377444217350728

a4_local_5: 
+0.48190778861468747 a4_x2
+0.41976839610883476 a4_x5
+0.76912897286522652 a4_x1
<= 90.464514476328176

a4_local_6: 
+0.4792023676445244 a4_x5
+0.67714376241244656 a4_x6
+0.55842762813975999 a4_x4
<= 119.39779443726691

a4_local_7: 
+0.36463701504745766 a4_x1
+0.58561286276784918 a4_x5
+0.72394573154216779 a4_x2
<= 56.275021459294905

a4_local_8: 
+0.58138333225100192 a4_x1
+0.5389315825962836 a4_x6
+0.60954587215482503 a4_x5
<= 85.527877319478392

a4_act_1: 
+0.0099995000374968751 a4_x1
-0.99995000374968757 a4_z1
<= 0

a4_act_2: 
+0.0099995000374968751 a4_x2
-0.99995000374968757 a4_z2
<= 0

coupling_1: 
+0.0079411710807684808 a1_x1
+0.062243377997094514 a2_x1
+0.30819076280716928 a3_x1
+1.3126165746746863 a4_x1
+0.1210209812682166 short_1
-0.1210209812682166 surp_1
= 100.48218323089701

coupling_2: 
+0.0056129795575276713 a1_x2
+0.030009030377407139 a2_x2
+0.14393835506615793 a3_x2
+0.98238624868068747 a4_x2
+0.081446181310820209 short_2
-0.081446181310820209 surp_2
= 46.290183762924407

coupling_3: 
+0.015361279463054225 a1_x3
+0.056025544326204553 a2_x3
+0.28516083122223312 a3_x3
+0.92752754097174805 a4_x3
+0.1658329438799144 short_3
-0.1658329438799144 surp_3
= 56.860443668939766

bounds
  0 <= a1_x1 <= 100
  0 <= a1_x2 <= 100
  0 <= a1_x3 <= 100
  0 <= a1_x4 <= 100
  0 <= a1_x5 <= 100
  0 <= a1_x6 <= 100
  0 <= a2_x1 <= 100
  0 <= a2_x2 <= 100
  0 <= a2_x3 <= 100
  0 <= a2_x4 <= 100
  0 <= a2_x5 <= 100
  0 <= a2_x6 <= 100
  0 <= a3_x1 <= 100
  0 <= a3_x2 <= 100
  0 <= a3_x3 <= 100
  0 <= a3_x4 <= 100
  0 <= a3_x5 <= 100
  0 <= a3_x6 <= 100
  0 <= a4_x1 <= 100
  0 <= a4_x2 <= 100
  0 <= a4_x3 <= 100
  0 <= a4_x4 <= 100
  0 <= a4_x5 <= 100
  0 <= a4_x6 <= 100
  0 <= short_1 <= +inf
  0 <= surp_1 <= +inf
  0 <= short_2 <= +inf
  0 <= surp_2 <= +inf
  0 <= short_3 <= +inf
  0 <= surp_3 <= +inf
 0 <= a1_z1 <= 1
 0 <= a1_z2 <= 1
 0 <= a2_z1 <= 1
 0 <= a2_z2 <= 1
 0 <= a3_z1 <= 1
 0 <= a3_z2 <= 1
 0 <= a4_z1 <= 1
 0 <= a4_z2 <= 1

binary
  a1_z1
  a1_z2
  a2_z1
  a2_z2
  a3_z1
  a3_z2
  a4_z1
  a4_z2
end
