min
obj: 
  +4.0092711480649195 a1_x1
  +1.9679731558453351 a1_x2
  +5.1245063990813229 a1_x3
  +5.3289660462088069 a1_x4
  +7.7326436197250805 a1_x5
  +5.1395422066191525 a1_x6
  +7.4601303692563201 a1_z1
  +49.872667351617643 a1_z2
  +4.2007388618696755 a2_x1
  +7.5341317217871078 a2_x2
  +3.4571921689270946 a2_x3
  +4.7657113746642423 a2_x4
  +9.3861788498988687 a2_x5
  +1.7288685547688603 a2_x6
  +29.540804107775944 a2_z1
  +23.537170412908246 a2_z2
  +8.2162616662184611 a3_x1
  +4.9087522557742478 a3_x2
  +9.9244206014586318 a3_x3
  +6.7861238771840311 a3_x4
  +8.6736711514090779 a3_x5
  +9.6443958243312533 a3_x6
  +44.884441558292828 a3_z1
  +12.682768889922908 a3_z2
  +8.6978778464740216 a4_x1
  +4.1276908151999692 a4_x2
  +7.0223714932865171 a4_x3
  +1.0610858298808366 a4_x4
  +7.0927412879620659 a4_x5
  +7.9355051703127861 a4_x6
  +37.985653916409667 a4_z1
  +17.373101516361629 a4_z2
  +1000000 short_1
  +1000000 surp_1
  +1000000 short_2
  +1000000 surp_2
  +1000000 short_3
  +1000000 surp_3

s.t.

a1_local_1: 
+0.78148208496250926 a1_x3
+0.33201208048706399 a1_x6
+0.52825536371465331 a1_x4
<= 62.059018921159918

a1_local_2: 
+0.58670733409151166 a1_x2
+0.70835702872030959 a1_x5
+0.39243448368583234 a1_x3
<= 52.72207049858072

a1_local_3: 
+0.70141876087231581 a1_x4
+0.42474565233078199 a1_x2
+0.57236601289947653 a1_x5
<= 95.189456396584447

a1_local_4: 
+0.79345230999920169 a1_x3
+0.37982485727240278 a1_x6
+0.47556966845555809 a1_x5
<= 96.205015170132526

a1_local_5: 
+0.29643645414095615 a1_x1
+0.68893782062029729 a1_x6
+0.6614303500560671 a1_x3
<= 114.504432924499

a1_local_6: 
+0.67227183458255102 a1_x1
+0.66920137077852326 a1_x3
+0.31657559251331524 a1_x2
<= 115.41868230434541

a1_local_7: 
+0.35035242415218681 a1_x1
+0.80260096360918498 a1_x5
+0.48278864123371185 a1_x4
<= 64.005943106757897

a1_local_8: 
+0.70654102497080074 a1_x3
+0.44855129487686723 a1_x1
+0.54735867207663391 a1_x6
<= 61.231521664377041

a1_act_1: 
+0.0099995000374968751 a1_x1
-0.99995000374968757 a1_z1
<= 0

a1_act_2: 
+0.0099995000374968751 a1_x2
-0.99995000374968757 a1_z2
<= 0

a2_local_1: 
+0.52863920803033648 a2_x6
+0.58282630080425946 a2_x5
+0.58178625970216458 a2_x3
<= 93.859900384313619

a2_local_2: 
+0.5199405771150909 a2_x4
+0.56406978040085598 a2_x5
+0.33078981155633108 a2_x3
<= 43.694634205424748

a2_local_3: 
+0.69243414210764209 a2_x1
+0.55541336608486103 a2_x5
+0.55357487177182529 a2_x6
<= 72.494496161263783

a2_local_4: 
+0.32500183314932224 a2_x1
+0.44844911292136991 a2_x4
+0.286526236930849 a2_x5
<= 68.085558984932064

a2_local_5: 
+0.38478334937367176 a2_x5
+0.45250348597243334 a2_x1
+0.33447925302892162 a2_x3
<= 77.729459993621987

a2_local_6: 
+0.41197549470920708 a2_x6
+0.47158739250967924 a2_x2
+0.6135710773661317 a2_x4
<= 68.55212241923067

a2_local_7: 
+0.51003588959090784 a2_x6
+0.4572835142609406 a2_x4
+0.4582985738516272 a2_x3
<= 78.669553965397981

a2_local_8: 
+0.51195943521713549 a2_x3
+0.4127429718910357 a2_x5
+0.29283455442810263 a2_x4
<= 47.352817984421577

a2_act_1: 
+0.0099995000374968751 a2_x1
-0.99995000374968757 a2_z1
<= 0

a2_act_2: 
+0.0099995000374968751 a2_x2
-0.99995000374968757 a2_z2
<= 0

a3_local_1: 
+0.69953121069518209 a3_x1
+0.53633760029317357 a3_x2
+0.47222670802813865 a3_x5
<= 62.808330227898978

a3_local_2: 
+0.43189630367180148 a3_x6
+0.63034082954767845 a3_x2
+0.64508605742162761 a3_x3
<= 106.49302719498323

a3_local_3: 
+0.75510023010438287 a3_x1
+0.29490916266949996 a3_x6
+0.5855358471262736 a3_x3
<= 58.979951738668213

a3_local_4: 
+0.57146074104190003 a3_x1
+0.37883649267024916 a3_x2
+0.72795297462758346 a3_x3
<= 55.330091952192646

a3_local_5: 
+0.6766708424050234 a3_x6
+0.44135273582621337 a3_x5
+0.58934228901173613 a3_x3
<= 114.60083538641484

a3_local_6: 
+0.35861113214213275 a3_x5
+0.7403227627214527 a3_x3
+0.56861257715619817 a3_x4
<= 65.986981879608081

a3_local_7: 
+0.49835127935034818 a3_x1
+0.38496605246954746 a3_x5
+0.77681860225916621 a3_x2
<= 85.990269209633823

a3_local_8: 
+0.50684948942356089 a3_x1
+0.47345076046357515 a3_x3
+0.72038043594168899 a3_x6
<= 104.68826708287506

a3_act_1: 
+0.0099995000374968751 a3_x1
-0.99995000374968757 a3_z1
<= 0

a3_act_2: 
+0.0099995000374968751 a3_x2
-0.99995000374968757 a3_z2
<= 0

a4_local_1: 
+0.47876737216214971 a4_x3
+0.63031011413906779 a4_x5
+0.61113907039801108 a4_x2
<= 98.306198594265936

a4_local_2: 
+0.69690273659467517 a4_x6
+0.50071677348457855 a4_x4
+0.51342895173338832 a4_x5
<= 67.686482117863804

a4_local_3: 
+0.63729999423649852 a4_x6
+0.5322535655990599 a4_x3
+0.55727449183795075 a4_x2
<= 113.98476886188539

a4_local_4: 
+0.41786782847028686 a4_x3
+0.41464613717888876 a4_x6
+0.80836567149536542 a4_x5
<= 60.76354899457381

a4_local_5: 
+0.45540817434513825 a4_x1
+0.78287001754602537 a4_x6
+0.42393151612862451 a4_x3
<= 65.479722353915307

a4_local_6: 
+0.4801284659409642 a4_x6
+0.54205873239743174 a4_x3
+0.68967310142187344 a4_x4
<= 99.982315922170073

a4_local_7: 
+0.57385155974912394 a4_x6
+0.56322130822241245 a4_x4
+0.59453859869459436 a4_x5
<= 57.470832008627433

a4_local_8: 
+0.62719280563484514 a4_x2
+0.64269795211341441 a4_x4
+0.43996423367032289 a4_x1
<= 52.768534410666497

a4_act_1: 
+0.0099995000374968751 a4_x1
-0.99995000374968757 a4_z1
<= 0

a4_act_2: 
+0.0099995000374968751 a4_x2
-0.99995000374968757 a4_z2
<= 0

coupling_1: 
+0.0047766007847392421 a1_x1
+0.051779020080217959 a2_x1
+0.21038094113136652 a3_x1
+0.9697438231002804 a4_x1
+0.079476079206287284 short_1
-0.079476079206287284 surp_1
= 91.782141474363684

coupling_2: 
+0.0087223022011039542 a1_x2
+0.052102158584428591 a2_x2
+0.24637608780905484 a3_x2
+0.94771072907727016 a4_x2
+0.13847830852319395 short_2
-0.13847830852319395 surp_2
= 30.915232599639669

coupling_3: 
+0.0083520342510690505 a1_x3
+0.036152802468917701 a2_x3
+0.14542732018200652 a3_x3
+0.97995719836706574 a4_x3
+0.092622897576042695 short_3
-0.092622897576042695 surp_3
= 58.132994745400339

bounds
  0 <= a1_x1 <= 100
  0 <= a1_x2 <= 100
  0 <= a1_x3 <= 100
  0 <= a1_x4 <= 100
  0 <= a1_x5 <= 100
  0 <= a1_x6 <= 100
  0 <= a2_x1 <= 100
  0 <= a2_x2 <= 100
  0 <= a2_x3 <= 100
  0 <= a2_x4 <= 100
  0 <= a2_x5 <= 100
  0 <= a2_x6 <= 100
  0 <= a3_x1 <= 100
  0 <= a3_x2 <= 100
  0 <= a3_x3 <= 100
  0 <= a3_x4 <= 100
  0 <= a3_x5 <= 100
  0 <= a3_x6 <= 100
  0 <= a4_x1 <= 100
  0 <= a4_x2 <= 100
  0 <= a4_x3 <= 100
  0 <= a4_x4 <= 100
  0 <= a4_x5 <= 100
  0 <= a4_x6 <= 100
  0 <= short_1 <= +inf
  0 <= surp_1 <= +inf
  0 <= short_2 <= +inf
  0 <= surp_2 <= +inf
  0 <= short_3 <= +inf
  0 <= surp_3 <= +inf
 0 <= a1_z1 <= 1
 0 <= a1_z2 <= 1
 0 <= a2_z1 <= 1
 0 <= a2_z2 <= 1
 0 <= a3_z1 <= 1
 0 <= a3_z2 <= 1
 0 <= a4_z1 <= 1
 0 <= a4_z2 <= 1

binary
  a1_z1
  a1_z2
  a2_z1
  a2_z2
  a3_z1
  a3_z2
  a4_z1
  a4_z2
end
