min
obj: 
  +4.61217347674817457 a1_x1
  +8.37266539443051627 a1_x2
  +3.88741117842564377 a1_x3
  +3.57352147071314707 a1_x4
  +7.90632682258909369 a1_x5
  +6.50433465125659094 a1_x6
  +46.95512094955829951 a1_z1
  +19.80665349763778238 a1_z2
  +7.65671715801393571 a2_x1
  +8.20437447093011585 a2_x2
  +3.61886914738285226 a2_x3
  +5.28592570462095690 a2_x4
  +3.39477691808076010 a2_x5
  +2.52109627660840552 a2_x6
  +31.13088232979415793 a2_z1
  +23.01056128172705328 a2_z2
  +6.98746639113835144 a3_x1
  +2.08920162411281263 a3_x2
  +9.36108080061404380 a3_x3
  +4.85098195997041159 a3_x4
  +1.72431460157976346 a3_x5
  +7.00389344376385736 a3_x6
  +33.01267747284549614 a3_z1
  +8.00105962872783749 a3_z2
  +6.42161923356443864 a4_x1
  +2.38773349159600956 a4_x2
  +7.47586240964883597 a4_x3
  +7.41060969147519710 a4_x4
  +8.58602476997859654 a4_x5
  +3.43257573175068753 a4_x6
  +23.31726507162430551 a4_z1
  +25.04248719439813797 a4_z2
  +1000000.00000000000000000 short_1
  +1000000.00000000000000000 surp_1
  +1000000.00000000000000000 short_2
  +1000000.00000000000000000 surp_2
  +1000000.00000000000000000 short_3
  +1000000.00000000000000000 surp_3

s.t.

a1_local_1: 
+0.60491706249635813 a1_x1
+0.53747819862680402 a1_x6
+0.58753087876439580 a1_x2
<= 105.296606

a1_local_2: 
+0.69990565180277420 a1_x4
+0.52567338781966111 a1_x6
+0.48352824934302868 a1_x2
<= 64.041070

a1_local_3: 
+0.68480817352744194 a1_x2
+0.65937079473179183 a1_x1
+0.31027072134633354 a1_x5
<= 63.578077

a1_local_4: 
+0.83831251093083770 a1_x1
+0.43111736147704838 a1_x2
+0.33372137277960195 a1_x4
<= 50.610814

a1_local_5: 
+0.71735581896345657 a1_x2
+0.46631409027284154 a1_x6
+0.51764060719024030 a1_x3
<= 59.645268

a1_local_6: 
+0.66379590026935587 a1_x4
+0.56687494810541716 a1_x6
+0.48788092399280786 a1_x1
<= 94.077542

a1_local_7: 
+0.57495837050331111 a1_x1
+0.29280635847224790 a1_x5
+0.76399431190709699 a1_x6
<= 90.475159

a1_local_8: 
+0.72807576124488504 a1_x2
+0.42710045878697117 a1_x1
+0.53618176394916661 a1_x4
<= 89.751506

a1_act_1: 
+0.00999950003749688 a1_x1
-0.99995000374968757 a1_z1
<= 0.000000

a1_act_2: 
+0.00999950003749688 a1_x2
-0.99995000374968757 a1_z2
<= 0.000000

a2_local_1: 
+0.55000769588701415 a2_x4
+0.65274483317761234 a2_x2
+0.52097573573534994 a2_x6
<= 64.385082

a2_local_2: 
+0.38539420555962073 a2_x2
+0.77072147348119990 a2_x6
+0.50740488432418263 a2_x5
<= 80.883647

a2_local_3: 
+0.61342462127822051 a2_x2
+0.45370173344210607 a2_x1
+0.64642476057256659 a2_x3
<= 57.231946

a2_local_4: 
+0.47073279505237031 a2_x3
+0.54546924861211754 a2_x2
+0.69345074409125496 a2_x4
<= 104.011308

a2_local_5: 
+0.39597494269970190 a2_x2
+0.55180053242489535 a2_x5
+0.73397548812584312 a2_x6
<= 102.824326

a2_local_6: 
+0.63592466277164217 a2_x6
+0.57921801895802827 a2_x5
+0.51000618603416004 a2_x1
<= 79.349884

a2_local_7: 
+0.56428785505780743 a2_x5
+0.62346893523003222 a2_x4
+0.54117067865636315 a2_x3
<= 89.477350

a2_local_8: 
+0.62323891974483137 a2_x6
+0.50799251052266936 a2_x4
+0.59457283672244166 a2_x3
<= 51.803635

a2_act_1: 
+0.00999950003749688 a2_x1
-0.99995000374968757 a2_z1
<= 0.000000

a2_act_2: 
+0.00999950003749688 a2_x2
-0.99995000374968757 a2_z2
<= 0.000000

a3_local_1: 
+0.69867525853724732 a3_x2
+0.61631646677939156 a3_x1
+0.36332753251643030 a3_x6
<= 100.473653

a3_local_2: 
+0.84481953524521014 a3_x3
+0.33603450019529907 a3_x5
+0.41636614601401351 a3_x6
<= 91.312376

a3_local_3: 
+0.60803495757039128 a3_x4
+0.63891280321225108 a3_x5
+0.47125780658131899 a3_x3
<= 108.726670

a3_local_4: 
+0.65910351258831212 a3_x1
+0.33920750429114421 a3_x5
+0.67120848380091425 a3_x6
<= 77.248993

a3_local_5: 
+0.67419358963411669 a3_x3
+0.58346289921379813 a3_x5
+0.45280685610676602 a3_x1
<= 61.269172

a3_local_6: 
+0.64842294956242208 a3_x3
+0.67903032588375101 a3_x4
+0.34418816802873337 a3_x6
<= 51.474237

a3_local_7: 
+0.46443408613077608 a3_x2
+0.67998970706036743 a3_x3
+0.56737551756471338 a3_x1
<= 91.371187

a3_local_8: 
+0.63053091360848323 a3_x1
+0.63476985121754992 a3_x3
+0.44665199313257431 a3_x5
<= 62.796875

a3_act_1: 
+0.00999950003749688 a3_x1
-0.99995000374968757 a3_z1
<= 0.000000

a3_act_2: 
+0.00999950003749688 a3_x2
-0.99995000374968757 a3_z2
<= 0.000000

a4_local_1: 
+0.72176661556773447 a4_x4
+0.63985752156253584 a4_x2
+0.26388502184047380 a4_x6
<= 113.599268

a4_local_2: 
+0.57207320132353545 a4_x5
+0.52976383483313794 a4_x6
+0.62616493963677766 a4_x2
<= 82.252170

a4_local_3: 
+0.62486109271384593 a4_x1
+0.63778555968925610 a4_x3
+0.45030899909320127 a4_x6
<= 87.710642

a4_local_4: 
+0.67511563291984955 a4_x5
+0.63623183305244890 a4_x1
+0.37340050454967488 a4_x6
<= 83.351738

a4_local_5: 
+0.33117753441898878 a4_x5
+0.60680660870351311 a4_x1
+0.72256984460320561 a4_x6
<= 109.753630

a4_local_6: 
+0.58071136016027669 a4_x6
+0.47890165351710923 a4_x1
+0.65835212647896879 a4_x5
<= 81.475134

a4_local_7: 
+0.60114033138653344 a4_x2
+0.74314108284476987 a4_x6
+0.29389051187269016 a4_x1
<= 86.502215

a4_local_8: 
+0.54067744072133683 a4_x2
+0.61152048386410252 a4_x3
+0.57767690183149889 a4_x6
<= 62.703212

a4_act_1: 
+0.00999950003749688 a4_x1
-0.99995000374968757 a4_z1
<= 0.000000

a4_act_2: 
+0.00999950003749688 a4_x2
-0.99995000374968757 a4_z2
<= 0.000000

coupling_1: 
+0.00000095763564902 a1_x1
+0.00010215511140572 a2_x1
+0.00937371405422211 a3_x1
+0.99995531361448153 a4_x1
+0.00086424024719540 short_1
-0.00086424024719540 surp_1
= 41.213708

coupling_2: 
+0.00000057134817354 a1_x2
+0.00006581011949070 a2_x2
+0.00680065251492525 a3_x2
+0.99997618579784986 a4_x2
+0.00082904500998839 short_2
-0.00082904500998839 surp_2
= 40.111101

coupling_3: 
+0.00000075241208926 a1_x3
+0.00011605186103290 a2_x3
+0.00911893535787474 a3_x3
+0.99995684523602479 a4_x3
+0.00125283976534092 short_3
-0.00125283976534092 surp_3
= 23.775431

bounds
  0.000000 <= a1_x1 <= 100.000000
  0.000000 <= a1_x2 <= 100.000000
  0.000000 <= a1_x3 <= 100.000000
  0.000000 <= a1_x4 <= 100.000000
  0.000000 <= a1_x5 <= 100.000000
  0.000000 <= a1_x6 <= 100.000000
  0.000000 <= a2_x1 <= 100.000000
  0.000000 <= a2_x2 <= 100.000000
  0.000000 <= a2_x3 <= 100.000000
  0.000000 <= a2_x4 <= 100.000000
  0.000000 <= a2_x5 <= 100.000000
  0.000000 <= a2_x6 <= 100.000000
  0.000000 <= a3_x1 <= 100.000000
  0.000000 <= a3_x2 <= 100.000000
  0.000000 <= a3_x3 <= 100.000000
  0.000000 <= a3_x4 <= 100.000000
  0.000000 <= a3_x5 <= 100.000000
  0.000000 <= a3_x6 <= 100.000000
  0.000000 <= a4_x1 <= 100.000000
  0.000000 <= a4_x2 <= 100.000000
  0.000000 <= a4_x3 <= 100.000000
  0.000000 <= a4_x4 <= 100.000000
  0.000000 <= a4_x5 <= 100.000000
  0.000000 <= a4_x6 <= 100.000000
  0.000000 <= short_1 <= +inf
  0.000000 <= surp_1 <= +inf
  0.000000 <= short_2 <= +inf
  0.000000 <= surp_2 <= +inf
  0.000000 <= short_3 <= +inf
  0.000000 <= surp_3 <= +inf
 0 <= a1_z1 <= 1
 0 <= a1_z2 <= 1
 0 <= a2_z1 <= 1
 0 <= a2_z2 <= 1
 0 <= a3_z1 <= 1
 0 <= a3_z2 <= 1
 0 <= a4_z1 <= 1
 0 <= a4_z2 <= 1

binary
  a1_z1
  a1_z2
  a2_z1
  a2_z2
  a3_z1
  a3_z2
  a4_z1
  a4_z2
end
