min
obj: 
  +2.62040292120299334 a1_x1
  +1.02293933329670939 a1_x2
  +7.19109322240713489 a1_x3
  +4.26327457704359070 a1_x4
  +6.02462654690972954 a1_x5
  +8.55420542223946256 a1_x6
  +28.11411837117618262 a1_z1
  +36.33719979534413369 a1_z2
  +2.39250112218893918 a2_x1
  +1.83547081268154932 a2_x2
  +3.26801901615166557 a2_x3
  +8.57451293041723162 a2_x4
  +5.28554157085463672 a2_x5
  +8.07508570205658316 a2_x6
  +37.67992106218490278 a2_z1
  +30.78606331188496270 a2_z2
  +6.90983361892269166 a3_x1
  +7.22469297213641504 a3_x2
  +2.76350562177570946 a3_x3
  +4.58041526640907559 a3_x4
  +5.53917660184281146 a3_x5
  +2.52802612578793617 a3_x6
  +24.71990871554554658 a3_z1
  +39.06095262734275053 a3_z2
  +7.87721431876430422 a4_x1
  +7.82223412443215427 a4_x2
  +1.26243572521241743 a4_x3
  +2.93412910760232926 a4_x4
  +4.86803560394161750 a4_x5
  +9.50434430207515391 a4_x6
  +34.58728502900768120 a4_z1
  +29.50594267162487938 a4_z2
  +1000000.00000000000000000 short_1
  +1000000.00000000000000000 surp_1
  +1000000.00000000000000000 short_2
  +1000000.00000000000000000 surp_2
  +1000000.00000000000000000 short_3
  +1000000.00000000000000000 surp_3

s.t.

a1_local_1: 
+0.00136253716212662 a1_x3
+0.00063307816455165 a1_x5
+0.00099966759186930 a1_x4
<= 0.195991

a1_local_2: 
+0.00138336210761800 a1_x6
+0.00096983152520084 a1_x5
+0.00141128078700892 a1_x4
<= 0.199465

a1_local_3: 
+0.00144901562289024 a1_x4
+0.00106484249900393 a1_x3
+0.00140495195714016 a1_x1
<= 0.273511

a1_local_4: 
+0.00055163413817396 a1_x4
+0.00086355839508214 a1_x2
+0.00119440123592818 a1_x5
<= 0.109107

a1_local_5: 
+0.00057194387692118 a1_x2
+0.00097784473755249 a1_x4
+0.00084170843634640 a1_x3
<= 0.077689

a1_local_6: 
+0.00128964608771894 a1_x6
+0.00089569905112335 a1_x1
+0.00066757840725946 a1_x4
<= 0.175650

a1_local_7: 
+0.00146989897913951 a1_x2
+0.00078620916609129 a1_x5
+0.00139877013131163 a1_x1
<= 0.192272

a1_local_8: 
+0.00119977494284662 a1_x3
+0.00122158788161470 a1_x4
+0.00054827081577142 a1_x5
<= 0.090333

a1_act_1: 
+1.00000000000000000 a1_x1
-100.00000000000000000 a1_z1
<= 0.000000

a1_act_2: 
+1.00000000000000000 a1_x2
-100.00000000000000000 a1_z2
<= 0.000000

a2_local_1: 
+0.09178893879364121 a2_x1
+0.07364286623179833 a2_x5
+0.14925935198404403 a2_x6
<= 14.785880

a2_local_2: 
+0.10924654695846470 a2_x5
+0.05442213630423625 a2_x2
+0.12922044490356263 a2_x4
<= 16.938944

a2_local_3: 
+0.08635543450346202 a2_x4
+0.13231862361115043 a2_x5
+0.05911801514041488 a2_x1
<= 9.381677

a2_local_4: 
+0.07138037223397058 a2_x6
+0.10723904884267449 a2_x1
+0.08842623235375111 a2_x3
<= 14.413982

a2_local_5: 
+0.10759052044235046 a2_x4
+0.07277762443781331 a2_x5
+0.14336704443739506 a2_x3
<= 10.028838

a2_local_6: 
+0.05581109805203494 a2_x5
+0.05091385540658788 a2_x3
+0.05027775014747050 a2_x1
<= 10.650632

a2_local_7: 
+0.12386731143346950 a2_x3
+0.12435921567305015 a2_x1
+0.11772809849782935 a2_x4
<= 14.390415

a2_local_8: 
+0.05752113415954320 a2_x6
+0.05076342289399990 a2_x1
+0.06432577364039414 a2_x3
<= 10.760432

a2_act_1: 
+1.00000000000000000 a2_x1
-100.00000000000000000 a2_z1
<= 0.000000

a2_act_2: 
+1.00000000000000000 a2_x2
-100.00000000000000000 a2_z2
<= 0.000000

a3_local_1: 
+14.80299873907730301 a3_x2
+8.89634495226159316 a3_x1
+11.50439145397434970 a3_x3
<= 1879.993081

a3_local_2: 
+7.08065462127734602 a3_x6
+6.27649130539688382 a3_x5
+12.18699339164463602 a3_x2
<= 980.125077

a3_local_3: 
+11.46319646397712155 a3_x3
+5.75808432919016511 a3_x6
+9.44211501665819064 a3_x4
<= 1412.634517

a3_local_4: 
+10.69798773293026173 a3_x1
+7.91137240808054809 a3_x4
+12.94466709485894818 a3_x3
<= 1525.815532

a3_local_5: 
+14.19606152916235686 a3_x1
+13.00414073999897724 a3_x2
+11.09050749711782657 a3_x3
<= 1827.894004

a3_local_6: 
+5.11756231178546628 a3_x5
+14.64860145892930987 a3_x1
+10.56025087741949697 a3_x2
<= 1900.112662

a3_local_7: 
+13.22103849913922602 a3_x5
+6.22299543609049799 a3_x6
+10.75613387049087777 a3_x3
<= 1374.618421

a3_local_8: 
+11.62046405785646108 a3_x2
+5.34711506366408873 a3_x6
+12.75421261378933835 a3_x4
<= 1260.647144

a3_act_1: 
+1.00000000000000000 a3_x1
-100.00000000000000000 a3_z1
<= 0.000000

a3_act_2: 
+1.00000000000000000 a3_x2
-100.00000000000000000 a3_z2
<= 0.000000

a4_local_1: 
+1307.43596039827821187 a4_x5
+984.01070193230896166 a4_x4
+1127.60504020932239655 a4_x6
<= 111369.646398

a4_local_2: 
+809.52130996422863518 a4_x6
+1364.41711560527573965 a4_x4
+700.83918711679098124 a4_x2
<= 110237.017281

a4_local_3: 
+572.34232897860499634 a4_x1
+860.73719826550427570 a4_x6
+1368.21312428858914245 a4_x5
<= 178443.948604

a4_local_4: 
+1075.48491261303206556 a4_x3
+748.65572510366132519 a4_x5
+715.87907857141590284 a4_x4
<= 145057.584255

a4_local_5: 
+1367.30892418768553398 a4_x2
+578.20455843654701766 a4_x1
+1351.64399904079687076 a4_x5
<= 107052.617163

a4_local_6: 
+1419.43142212943666891 a4_x6
+918.51659711587683432 a4_x5
+757.61965385007488294 a4_x4
<= 213499.012346

a4_local_7: 
+1369.26733843696320037 a4_x6
+1061.90804019818642701 a4_x1
+922.41033128097774352 a4_x4
<= 129603.732186

a4_local_8: 
+1430.76696642229308054 a4_x6
+1314.32958147866224863 a4_x1
+560.54617785610548708 a4_x2
<= 130501.111331

a4_act_1: 
+1.00000000000000000 a4_x1
-100.00000000000000000 a4_z1
<= 0.000000

a4_act_2: 
+1.00000000000000000 a4_x2
-100.00000000000000000 a4_z2
<= 0.000000

coupling_1: 
+0.81630292888660705 a1_x1
+146.24669920265984047 a2_x1
+15139.09242746076961339 a3_x1
+1377036.91412209486588836 a4_x1
+1103.48793882156974178 short_1
-1103.48793882156974178 surp_1
= 78703326.546744

coupling_2: 
+0.55489683768349296 a1_x2
+124.34000439705491203 a2_x2
+7552.58288692579390045 a3_x2
+1304357.96549080312252045 a4_x2
+1103.48793882156974178 short_2
-1103.48793882156974178 surp_2
= 91816869.275459

coupling_3: 
+1.32284058474995270 a1_x3
+135.64067692413155441 a2_x3
+13752.94025133684772300 a3_x3
+1431934.11657024128362536 a4_x3
+1103.48793882156974178 short_3
-1103.48793882156974178 surp_3
= 51405343.267370

bounds
  0.000000 <= a1_x1 <= 100.000000
  0.000000 <= a1_x2 <= 100.000000
  0.000000 <= a1_x3 <= 100.000000
  0.000000 <= a1_x4 <= 100.000000
  0.000000 <= a1_x5 <= 100.000000
  0.000000 <= a1_x6 <= 100.000000
  0.000000 <= a2_x1 <= 100.000000
  0.000000 <= a2_x2 <= 100.000000
  0.000000 <= a2_x3 <= 100.000000
  0.000000 <= a2_x4 <= 100.000000
  0.000000 <= a2_x5 <= 100.000000
  0.000000 <= a2_x6 <= 100.000000
  0.000000 <= a3_x1 <= 100.000000
  0.000000 <= a3_x2 <= 100.000000
  0.000000 <= a3_x3 <= 100.000000
  0.000000 <= a3_x4 <= 100.000000
  0.000000 <= a3_x5 <= 100.000000
  0.000000 <= a3_x6 <= 100.000000
  0.000000 <= a4_x1 <= 100.000000
  0.000000 <= a4_x2 <= 100.000000
  0.000000 <= a4_x3 <= 100.000000
  0.000000 <= a4_x4 <= 100.000000
  0.000000 <= a4_x5 <= 100.000000
  0.000000 <= a4_x6 <= 100.000000
  0.000000 <= short_1 <= +inf
  0.000000 <= surp_1 <= +inf
  0.000000 <= short_2 <= +inf
  0.000000 <= surp_2 <= +inf
  0.000000 <= short_3 <= +inf
  0.000000 <= surp_3 <= +inf
 0 <= a1_z1 <= 1
 0 <= a1_z2 <= 1
 0 <= a2_z1 <= 1
 0 <= a2_z2 <= 1
 0 <= a3_z1 <= 1
 0 <= a3_z2 <= 1
 0 <= a4_z1 <= 1
 0 <= a4_z2 <= 1

binary
  a1_z1
  a1_z2
  a2_z1
  a2_z2
  a3_z1
  a3_z2
  a4_z1
  a4_z2
end
