min
obj: 
  +1.96797315584533505 a1_x1
  +5.12450639908132288 a1_x2
  +5.32896604620880687 a1_x3
  +7.73264361972508052 a1_x4
  +5.13954220661915251 a1_x5
  +1.49202607385126407 a1_x6
  +49.87266735161764331 a1_z1
  +13.86958179616855702 a1_z2
  +7.53413172178710777 a2_x1
  +3.45719216892709458 a2_x2
  +4.76571137466424233 a2_x3
  +9.38617884989886875 a2_x4
  +1.72886855476886026 a2_x5
  +5.90816082155518885 a2_x6
  +23.53717041290824596 a2_z1
  +38.77106799595807018 a2_z2
  +4.90875225577424779 a3_x1
  +9.92442060145863181 a3_x2
  +6.78612387718403109 a3_x3
  +8.67367115140907785 a3_x4
  +9.64439582433125331 a3_x5
  +8.97688831165856627 a3_x6
  +12.68276888992290807 a3_z1
  +43.15224448184653028 a3_z2
  +4.12769081519996917 a4_x1
  +7.02237149328651711 a4_x2
  +1.06108582988083655 a4_x3
  +7.09274128796206593 a4_x4
  +7.93550517031278613 a4_x5
  +7.59713078328193436 a4_x6
  +17.37310151636162914 a4_z1
  +10.31092367888116890 a4_z2
  +1000000.00000000000000000 short_1
  +1000000.00000000000000000 surp_1
  +1000000.00000000000000000 short_2
  +1000000.00000000000000000 surp_2
  +1000000.00000000000000000 short_3
  +1000000.00000000000000000 surp_3

s.t.

a1_local_1: 
+0.00057198717635448 a1_x3
+0.00091007319204166 a1_x6
+0.00069501350264971 a1_x2
<= 0.149230

a1_local_2: 
+0.00137165651533319 a1_x4
+0.00075990679073451 a1_x6
+0.00053106824499471 a1_x2
<= 0.150943

a1_local_3: 
+0.00050509108310423 a1_x4
+0.00068063549985982 a1_x5
+0.00115105609728471 a1_x2
<= 0.079599

a1_local_4: 
+0.00067027707669015 a1_x2
+0.00083923798306408 a1_x1
+0.00120867119197437 a1_x4
<= 0.182323

a1_local_5: 
+0.00139469433760676 a1_x5
+0.00133900787028047 a1_x2
+0.00148828199166615 a1_x4
<= 0.237264

a1_local_6: 
+0.00134019985148571 a1_x4
+0.00063400133442160 a1_x6
+0.00149027873082372 a1_x1
<= 0.226731

a1_local_7: 
+0.00144266300039824 a1_x5
+0.00086780522488828 a1_x4
+0.00072824018048371 a1_x3
<= 0.124375

a1_local_8: 
+0.00082977239447814 a1_x6
+0.00101255557871499 a1_x3
+0.00064916717066795 a1_x2
<= 0.110188

a1_act_1: 
+1.00000000000000000 a1_x1
-100.00000000000000000 a1_z1
<= 0.000000

a1_act_2: 
+1.00000000000000000 a1_x2
-100.00000000000000000 a1_z2
<= 0.000000

a2_local_1: 
+0.12556612007156542 a2_x3
+0.12534205000862420 a2_x6
+0.11357936269191610 a2_x4
<= 21.490563

a2_local_2: 
+0.12152515024942710 a2_x6
+0.07126650451260695 a2_x4
+0.05220990419812517 a2_x3
<= 16.360121

a2_local_3: 
+0.11966018232006029 a2_x2
+0.11926409072751723 a2_x3
+0.07560729922026854 a2_x4
<= 19.187023

a2_local_4: 
+0.09661543255918249 a2_x6
+0.06173020644481158 a2_x5
+0.13558260516545734 a2_x2
<= 16.915678

a2_local_5: 
+0.09748892075393664 a2_x4
+0.07206137058214608 a2_x5
+0.14083826064939098 a2_x3
<= 19.829498

a2_local_6: 
+0.10160042378045352 a2_x2
+0.13218988138778309 a2_x5
+0.08947225839644928 a2_x1
<= 19.638572

a2_local_7: 
+0.09851874663034602 a2_x4
+0.09873743458980849 a2_x3
+0.11295693375746879 a2_x5
<= 11.939904

a2_local_8: 
+0.08892277767089021 a2_x6
+0.06308929224999342 a2_x4
+0.07223076070863661 a2_x3
<= 13.919262

a2_act_1: 
+1.00000000000000000 a2_x1
-100.00000000000000000 a2_z1
<= 0.000000

a2_act_2: 
+1.00000000000000000 a2_x2
-100.00000000000000000 a2_z2
<= 0.000000

a3_local_1: 
+10.86348053284619297 a3_x1
+9.56491889986744503 a3_x3
+6.69274266700017861 a3_x4
<= 1617.581438

a3_local_2: 
+14.10091743838510148 a3_x1
+14.43077270257595401 a3_x6
+13.09356596611837453 a3_x5
<= 2890.162966

a3_local_3: 
+5.10440114092016284 a3_x6
+10.13467950288990060 a3_x2
+6.51533481003997128 a3_x3
<= 1520.124632

a3_local_4: 
+7.67094135991859183 a3_x1
+14.74009154130527932 a3_x6
+5.74222926909835785 a3_x2
<= 1925.178772

a3_local_5: 
+8.79094424100997784 a3_x4
+11.73862713657534762 a3_x6
+14.28035703786653166 a3_x3
<= 1776.748245

a3_local_6: 
+10.75832126886017903 a3_x6
+8.26304024487029487 a3_x3
+7.39282502569218103 a3_x1
<= 1234.664316

a3_local_7: 
+5.54116030609117871 a3_x6
+11.18144412022466838 a3_x5
+10.44928135769432664 a3_x1
<= 1366.604795

a3_local_8: 
+8.99678477807080057 a3_x4
+13.68908507857137025 a3_x6
+12.88917151749967260 a3_x5
<= 2284.372676

a3_act_1: 
+1.00000000000000000 a3_x1
-100.00000000000000000 a3_z1
<= 0.000000

a3_act_2: 
+1.00000000000000000 a3_x2
-100.00000000000000000 a3_z2
<= 0.000000

a4_local_1: 
+1398.76533369214280356 a4_x4
+1356.22152740670321691 a4_x1
+1178.68928640730291590 a4_x5
<= 183815.798179

a4_local_2: 
+997.68668171715728477 a4_x4
+1023.01591294340573768 a4_x1
+738.96208419132710787 a4_x6
<= 121355.111382

a4_local_3: 
+746.29685314550351904 a4_x3
+781.37982810660719224 a4_x5
+1400.20438415133594390 a4_x1
<= 123613.310535

a4_local_4: 
+762.43721813661011311 a4_x3
+1486.39531048171784278 a4_x5
+675.77705913144484384 a4_x6
<= 200272.444917

a4_local_5: 
+1331.98133804996950857 a4_x4
+721.28048774247542951 a4_x5
+734.82944176643843548 a4_x6
<= 146329.803787

a4_local_6: 
+720.33024760355181115 a4_x5
+916.49182315632288010 a4_x2
+1210.14128512957108796 a4_x1
<= 137530.000139

a4_local_7: 
+1216.74451572023576773 a4_x2
+1284.40023270564029190 a4_x3
+579.73047238009962712 a4_x1
<= 145899.664265

a4_local_8: 
+1479.65011818404332189 a4_x1
+1012.90680669878213394 a4_x2
+521.53522777517889608 a4_x4
<= 102601.038258

a4_act_1: 
+1.00000000000000000 a4_x1
-100.00000000000000000 a4_z1
<= 0.000000

a4_act_2: 
+1.00000000000000000 a4_x2
-100.00000000000000000 a4_z2
<= 0.000000

coupling_1: 
+0.00001444149842803 a1_x1
+0.00126414868455803 a2_x1
+0.12553999841407923 a3_x1
+14.44134636092991819 a4_x1
+0.01028872432063203 short_1
-0.01028872432063203 surp_1
= 624.544695

coupling_2: 
+0.00000648053574206 a1_x2
+0.00083400533816511 a2_x2
+0.08496596653586964 a3_x2
+7.04134425901660777 a4_x2
+0.01028872432063203 short_2
-0.01028872432063203 surp_2
= 175.580159

coupling_3: 
+0.00001465563928654 a1_x3
+0.00092775955162898 a2_x3
+0.08652039016231305 a3_x3
+7.49817954794751262 a4_x3
+0.01028872432063203 short_3
-0.01028872432063203 surp_3
= 405.683564

bounds
  0.000000 <= a1_x1 <= 100.000000
  0.000000 <= a1_x2 <= 100.000000
  0.000000 <= a1_x3 <= 100.000000
  0.000000 <= a1_x4 <= 100.000000
  0.000000 <= a1_x5 <= 100.000000
  0.000000 <= a1_x6 <= 100.000000
  0.000000 <= a2_x1 <= 100.000000
  0.000000 <= a2_x2 <= 100.000000
  0.000000 <= a2_x3 <= 100.000000
  0.000000 <= a2_x4 <= 100.000000
  0.000000 <= a2_x5 <= 100.000000
  0.000000 <= a2_x6 <= 100.000000
  0.000000 <= a3_x1 <= 100.000000
  0.000000 <= a3_x2 <= 100.000000
  0.000000 <= a3_x3 <= 100.000000
  0.000000 <= a3_x4 <= 100.000000
  0.000000 <= a3_x5 <= 100.000000
  0.000000 <= a3_x6 <= 100.000000
  0.000000 <= a4_x1 <= 100.000000
  0.000000 <= a4_x2 <= 100.000000
  0.000000 <= a4_x3 <= 100.000000
  0.000000 <= a4_x4 <= 100.000000
  0.000000 <= a4_x5 <= 100.000000
  0.000000 <= a4_x6 <= 100.000000
  0.000000 <= short_1 <= +inf
  0.000000 <= surp_1 <= +inf
  0.000000 <= short_2 <= +inf
  0.000000 <= surp_2 <= +inf
  0.000000 <= short_3 <= +inf
  0.000000 <= surp_3 <= +inf
 0 <= a1_z1 <= 1
 0 <= a1_z2 <= 1
 0 <= a2_z1 <= 1
 0 <= a2_z2 <= 1
 0 <= a3_z1 <= 1
 0 <= a3_z2 <= 1
 0 <= a4_z1 <= 1
 0 <= a4_z2 <= 1

binary
  a1_z1
  a1_z2
  a2_z1
  a2_z2
  a3_z1
  a3_z2
  a4_z1
  a4_z2
end
