min
obj: 
  +1.85914319529187777 a1_x1
  +3.32311090405199927 a1_x2
  +9.20870591814637862 a1_x3
  +9.62032466035919853 a1_x4
  +2.65221673698665317 a1_x5
  +9.19424318038364063 a1_x6
  +15.23159126469524693 a1_z1
  +37.87053616888882601 a1_z2
  +9.50992409015265672 a2_x1
  +7.57539983332453648 a2_x2
  +7.25458697589536605 a2_x3
  +4.07761765395989872 a2_x4
  +7.08231795774132511 a2_x5
  +8.34807126494008500 a2_x6
  +13.29578844905750223 a2_z1
  +34.63921833196101829 a2_z2
  +8.76504266892960793 a3_x1
  +7.77977201232387294 a3_x2
  +6.04838547653606717 a3_x3
  +6.48681552366104786 a3_x4
  +7.59141867997845843 a3_x5
  +2.66707871930021945 a3_x6
  +17.07642873173313092 a3_z1
  +32.16693189471635606 a3_z2
  +3.95786841150633606 a4_x1
  +4.77265222387028487 a4_x2
  +6.62265288598760282 a4_x3
  +9.50730455200969438 a4_x4
  +5.10859874083684673 a4_x5
  +6.19908634988090146 a4_x6
  +14.10084107909216655 a4_z1
  +36.13532285979064795 a4_z2
  +1000000.00000000000000000 short_1
  +1000000.00000000000000000 surp_1
  +1000000.00000000000000000 short_2
  +1000000.00000000000000000 surp_2
  +1000000.00000000000000000 short_3
  +1000000.00000000000000000 surp_3

s.t.

a1_local_1: 
+0.64217508433350889 a1_x5
+0.45606040268985232 a1_x4
+0.61613315943846125 a1_x3
<= 61.201219

a1_local_2: 
+0.69617846452001120 a1_x2
+0.47322524293868906 a1_x4
+0.53980868368726564 a1_x3
<= 115.097453

a1_local_3: 
+0.60081817168806717 a1_x1
+0.35679507331936433 a1_x6
+0.71534243563795197 a1_x3
<= 69.397213

a1_local_4: 
+0.56570818785161292 a1_x3
+0.56531348531914016 a1_x6
+0.60032900106022757 a1_x5
<= 103.134515

a1_local_5: 
+0.59849190138408193 a1_x2
+0.58422942869783401 a1_x3
+0.54816367867733506 a1_x5
<= 57.525147

a1_local_6: 
+0.55633618212553704 a1_x4
+0.61227312293390845 a1_x3
+0.56179326748434810 a1_x2
<= 113.055333

a1_local_7: 
+0.61042867510448773 a1_x6
+0.61617297127101400 a1_x4
+0.49770242322619834 a1_x5
<= 115.159757

a1_local_8: 
+0.54283426556040593 a1_x3
+0.75383860267237257 a1_x4
+0.37021388582069598 a1_x2
<= 114.435087

a1_act_1: 
+0.00999950003749688 a1_x1
-0.99995000374968757 a1_z1
<= 0.000000

a1_act_2: 
+0.00999950003749688 a1_x2
-0.99995000374968757 a1_z2
<= 0.000000

a2_local_1: 
+0.60263711553627808 a2_x5
+0.73565016830327434 a2_x1
+0.30926903636393838 a2_x3
<= 106.010487

a2_local_2: 
+0.56051942051105386 a2_x3
+0.51711376901831951 a2_x1
+0.64684722239615466 a2_x2
<= 103.232469

a2_local_3: 
+0.45906282976003393 a2_x4
+0.62136517053484563 a2_x6
+0.63495404808451472 a2_x2
<= 56.466885

a2_local_4: 
+0.69823877586255578 a2_x5
+0.56985261146242583 a2_x2
+0.43327890912368783 a2_x3
<= 92.518195

a2_local_5: 
+0.63861542181410968 a2_x2
+0.56816630194893958 a2_x1
+0.51899652826474008 a2_x5
<= 57.358890

a2_local_6: 
+0.28162261257256371 a2_x4
+0.79265699798367484 a2_x3
+0.54072505733996812 a2_x2
<= 112.801565

a2_local_7: 
+0.63793935172220295 a2_x1
+0.69240931032943254 a2_x4
+0.33705004152703366 a2_x6
<= 83.669091

a2_local_8: 
+0.52855387079303429 a2_x4
+0.52641457936556391 a2_x5
+0.66597184347469018 a2_x1
<= 106.753808

a2_act_1: 
+0.00999950003749688 a2_x1
-0.99995000374968757 a2_z1
<= 0.000000

a2_act_2: 
+0.00999950003749688 a2_x2
-0.99995000374968757 a2_z2
<= 0.000000

a3_local_1: 
+0.77695571402146901 a3_x3
+0.47583175159447944 a3_x2
+0.41221834338602537 a3_x1
<= 96.493873

a3_local_2: 
+0.77979534648255466 a3_x3
+0.30241108023066765 a3_x5
+0.54814848002879057 a3_x1
<= 95.866072

a3_local_3: 
+0.63630279733364248 a3_x1
+0.56291361702021181 a3_x6
+0.52749124151838211 a3_x5
<= 98.309013

a3_local_4: 
+0.57773816832688896 a3_x4
+0.41282279688239415 a3_x5
+0.70412779183361940 a3_x3
<= 57.563283

a3_local_5: 
+0.54344592295898020 a3_x5
+0.65962931481753506 a3_x2
+0.51918753437713783 a3_x3
<= 59.644155

a3_local_6: 
+0.42660488367981059 a3_x1
+0.54746771533748928 a3_x4
+0.71992178317070343 a3_x6
<= 84.273385

a3_local_7: 
+0.54867801238597669 a3_x2
+0.61185160927183080 a3_x6
+0.56972804648853725 a3_x3
<= 103.275951

a3_local_8: 
+0.71747981080351420 a3_x4
+0.62765459816003211 a3_x3
+0.30211326766284552 a3_x1
<= 71.929205

a3_act_1: 
+0.00999950003749688 a3_x1
-0.99995000374968757 a3_z1
<= 0.000000

a3_act_2: 
+0.00999950003749688 a3_x2
-0.99995000374968757 a3_z2
<= 0.000000

a4_local_1: 
+0.39877525037721628 a4_x4
+0.80078920526418740 a4_x1
+0.44689478450630810 a4_x2
<= 57.786611

a4_local_2: 
+0.67577792912305945 a4_x5
+0.62138450550508584 a4_x4
+0.39649147131855045 a4_x1
<= 54.977211

a4_local_3: 
+0.80611437834912802 a4_x1
+0.36328521510830480 a4_x2
+0.46712253371306284 a4_x4
<= 64.923634

a4_local_4: 
+0.63025010675943849 a4_x6
+0.31107417644316260 a4_x3
+0.71134918266623792 a4_x4
<= 71.425081

a4_local_5: 
+0.26310618070075398 a4_x6
+0.72166925237012958 a4_x3
+0.64028792574950244 a4_x5
<= 50.748352

a4_local_6: 
+0.47891534164462463 a4_x4
+0.49226515065902821 a4_x1
+0.72685288537919202 a4_x5
<= 84.692241

a4_local_7: 
+0.37713455303123267 a4_x1
+0.38279576408675503 a4_x2
+0.84334864196675485 a4_x3
<= 82.104108

a4_local_8: 
+0.51651382982070893 a4_x2
+0.70082942250654712 a4_x3
+0.49198738210759357 a4_x4
<= 112.308314

a4_act_1: 
+0.00999950003749688 a4_x1
-0.99995000374968757 a4_z1
<= 0.000000

a4_act_2: 
+0.00999950003749688 a4_x2
-0.99995000374968757 a4_z2
<= 0.000000

coupling_1: 
+0.00000056809595236 a1_x1
+0.00007393976012002 a2_x1
+0.00873102444358393 a3_x1
+0.99996110190783194 a4_x1
+0.00088272759929626 short_1
-0.00088272759929626 surp_1
= 78.075697

coupling_2: 
+0.00000094602151028 a1_x2
+0.00008778025887408 a2_x2
+0.01038981735008177 a3_x2
+0.99994501551851611 a4_x2
+0.00100247913642025 short_2
-0.00100247913642025 surp_2
= 44.758266

coupling_3: 
+0.00000092474951786 a1_x3
+0.00009742185940291 a2_x3
+0.00607711777315849 a3_x3
+0.99998108252132067 a4_x3
+0.00066848604501137 short_3
-0.00066848604501137 surp_3
= 70.393577

bounds
  0.000000 <= a1_x1 <= 100.000000
  0.000000 <= a1_x2 <= 100.000000
  0.000000 <= a1_x3 <= 100.000000
  0.000000 <= a1_x4 <= 100.000000
  0.000000 <= a1_x5 <= 100.000000
  0.000000 <= a1_x6 <= 100.000000
  0.000000 <= a2_x1 <= 100.000000
  0.000000 <= a2_x2 <= 100.000000
  0.000000 <= a2_x3 <= 100.000000
  0.000000 <= a2_x4 <= 100.000000
  0.000000 <= a2_x5 <= 100.000000
  0.000000 <= a2_x6 <= 100.000000
  0.000000 <= a3_x1 <= 100.000000
  0.000000 <= a3_x2 <= 100.000000
  0.000000 <= a3_x3 <= 100.000000
  0.000000 <= a3_x4 <= 100.000000
  0.000000 <= a3_x5 <= 100.000000
  0.000000 <= a3_x6 <= 100.000000
  0.000000 <= a4_x1 <= 100.000000
  0.000000 <= a4_x2 <= 100.000000
  0.000000 <= a4_x3 <= 100.000000
  0.000000 <= a4_x4 <= 100.000000
  0.000000 <= a4_x5 <= 100.000000
  0.000000 <= a4_x6 <= 100.000000
  0.000000 <= short_1 <= +inf
  0.000000 <= surp_1 <= +inf
  0.000000 <= short_2 <= +inf
  0.000000 <= surp_2 <= +inf
  0.000000 <= short_3 <= +inf
  0.000000 <= surp_3 <= +inf
 0 <= a1_z1 <= 1
 0 <= a1_z2 <= 1
 0 <= a2_z1 <= 1
 0 <= a2_z2 <= 1
 0 <= a3_z1 <= 1
 0 <= a3_z2 <= 1
 0 <= a4_z1 <= 1
 0 <= a4_z2 <= 1

binary
  a1_z1
  a1_z2
  a2_z1
  a2_z2
  a3_z1
  a3_z2
  a4_z1
  a4_z2
end
