min
obj: 
  +1.85914319529187777 a1_x1
  +3.32311090405199927 a1_x2
  +9.20870591814637862 a1_x3
  +9.62032466035919853 a1_x4
  +2.65221673698665317 a1_x5
  +9.19424318038364063 a1_x6
  +15.23159126469524693 a1_z1
  +37.87053616888882601 a1_z2
  +9.50992409015265672 a2_x1
  +7.57539983332453648 a2_x2
  +7.25458697589536605 a2_x3
  +4.07761765395989872 a2_x4
  +7.08231795774132511 a2_x5
  +8.34807126494008500 a2_x6
  +13.29578844905750223 a2_z1
  +34.63921833196101829 a2_z2
  +8.76504266892960793 a3_x1
  +7.77977201232387294 a3_x2
  +6.04838547653606717 a3_x3
  +6.48681552366104786 a3_x4
  +7.59141867997845843 a3_x5
  +2.66707871930021945 a3_x6
  +17.07642873173313092 a3_z1
  +32.16693189471635606 a3_z2
  +3.95786841150633606 a4_x1
  +4.77265222387028487 a4_x2
  +6.62265288598760282 a4_x3
  +9.50730455200969438 a4_x4
  +5.10859874083684673 a4_x5
  +6.19908634988090146 a4_x6
  +14.10084107909216655 a4_z1
  +36.13532285979064795 a4_z2
  +1000000.00000000000000000 short_1
  +1000000.00000000000000000 surp_1
  +1000000.00000000000000000 short_2
  +1000000.00000000000000000 surp_2
  +1000000.00000000000000000 short_3
  +1000000.00000000000000000 surp_3

s.t.

a1_local_1: 
+1.18663059751256639 a1_x5
+0.84272224405490281 a1_x4
+1.13850953885975370 a1_x3
<= 113.089468

a1_local_2: 
+1.21290375604193224 a1_x2
+0.82446772468023277 a1_x4
+0.94047146436761941 a1_x3
<= 200.526359

a1_local_3: 
+1.18925953027628895 a1_x1
+0.70624019261684512 a1_x6
+1.41594886619902049 a1_x3
<= 137.364848

a1_local_4: 
+0.97107579677322953 a1_x3
+0.97039826357777581 a1_x6
+1.03050472938099125 a1_x5
<= 177.037267

a1_local_5: 
+1.04489827236373656 a1_x2
+1.01999762953961337 a1_x3
+0.95703096315570624 a1_x5
<= 100.432314

a1_local_6: 
+0.95322638536518689 a1_x4
+1.04906873682152013 a1_x3
+0.96257655513364360 a1_x2
<= 193.709001

a1_local_7: 
+1.10229725778337184 a1_x6
+1.11267016811752928 a1_x4
+0.89873893329219889 a1_x5
<= 207.952689

a1_local_8: 
+1.02754704685920806 a1_x3
+1.42696340140722255 a1_x4
+0.70078882122262853 a1_x2
<= 216.617563

a1_act_1: 
+0.10000000000000001 a1_x1
-10.00000000000000000 a1_z1
<= 0.000000

a1_act_2: 
+0.10000000000000001 a1_x2
-10.00000000000000000 a1_z2
<= 0.000000

a2_local_1: 
+1.26343232982890941 a2_x5
+1.54229499331672626 a2_x1
+0.64838439101036460 a2_x3
<= 222.251623

a2_local_2: 
+0.96916284171168166 a2_x3
+0.89411255262679934 a2_x1
+1.11842742511791782 a2_x2
<= 178.493500

a2_local_3: 
+0.85028578090460427 a2_x4
+1.15090557327702214 a2_x6
+1.17607517667309169 a2_x2
<= 104.589146

a2_local_4: 
+1.26945762044187749 a2_x5
+1.03604062844553124 a2_x2
+0.78773799447666193 a2_x3
<= 168.205966

a2_local_5: 
+1.10927052851462604 a2_x2
+0.98690089922469182 a2_x1
+0.90149334566659300 a2_x5
<= 99.631991

a2_local_6: 
+0.59606155638378677 a2_x4
+1.67767907406551298 a2_x3
+1.14445859410784201 a2_x2
<= 238.747435

a2_local_7: 
+1.32053753704684662 a2_x1
+1.43329061426030102 a2_x4
+0.69769521271586976 a2_x6
<= 173.195421

a2_local_8: 
+0.89268321571713571 a2_x4
+0.88907013168472648 a2_x5
+1.12477066134824377 a2_x1
<= 180.298240

a2_act_1: 
+0.10000000000000001 a2_x1
-10.00000000000000000 a2_z1
<= 0.000000

a2_act_2: 
+0.10000000000000001 a2_x2
-10.00000000000000000 a2_z2
<= 0.000000

a3_local_1: 
+1.37288599796300481 a3_x3
+0.84079792111834628 a3_x2
+0.72839259886380359 a3_x1
<= 170.505325

a3_local_2: 
+1.60580006006262077 a3_x3
+0.62274253493364762 a3_x5
+1.12877932155389971 a3_x1
<= 197.413007

a3_local_3: 
+1.09830836105948548 a3_x1
+0.97163289980533862 a3_x6
+0.91049111110776559 a3_x5
<= 169.689041

a3_local_4: 
+1.07157724102662577 a3_x4
+0.76569549662475067 a3_x5
+1.30600219592263889 a3_x3
<= 106.767231

a3_local_5: 
+0.92863325637435412 a3_x5
+1.12716591060933902 a3_x2
+0.88718084053784585 a3_x3
<= 101.919149

a3_local_6: 
+0.76978643567623550 a3_x1
+0.98787716071662590 a3_x4
+1.29906160157463457 a3_x6
<= 152.066962

a3_local_7: 
+0.94696891904956715 a3_x2
+1.05600086748745481 a3_x6
+0.98329938535233496 a3_x3
<= 178.245006

a3_local_8: 
+1.54106140295752714 a3_x4
+1.34812751668928832 a3_x3
+0.64890341039030008 a3_x1
<= 154.495387

a3_act_1: 
+0.10000000000000001 a3_x1
-10.00000000000000000 a3_z1
<= 0.000000

a3_act_2: 
+0.10000000000000001 a3_x2
-10.00000000000000000 a3_z2
<= 0.000000

a4_local_1: 
+0.70567542439175346 a4_x4
+1.41708208254798662 a4_x1
+0.79082808277754690 a4_x2
<= 102.259583

a4_local_2: 
+1.30552465173857013 a4_x5
+1.20044286027214264 a4_x4
+0.76597557822312845 a4_x1
<= 106.209602

a4_local_3: 
+1.48961649270116547 a4_x1
+0.67131372732499139 a4_x2
+0.86319441635113625 a4_x4
<= 119.972200

a4_local_4: 
+1.33979863034028468 a4_x6
+0.66128787772163233 a4_x3
+1.51220071271433154 a4_x4
<= 151.836906

a4_local_5: 
+0.60380460951652060 a4_x6
+1.65616489877532036 a4_x3
+1.46940220087430773 a4_x5
<= 116.462824

a4_local_6: 
+0.81171975453084677 a4_x4
+0.83434651703754115 a4_x1
+1.23195227714764033 a4_x5
<= 143.545966

a4_local_7: 
+0.66872042334298254 a4_x1
+0.67875866413331765 a4_x2
+1.49539323922683010 a4_x3
<= 145.583834

a4_local_8: 
+0.87962752140740263 a4_x2
+1.19351857057303312 a4_x3
+0.83785876873275567 a4_x4
<= 191.262031

a4_act_1: 
+0.10000000000000001 a4_x1
-10.00000000000000000 a4_z1
<= 0.000000

a4_act_2: 
+0.10000000000000001 a4_x2
-10.00000000000000000 a4_z2
<= 0.000000

coupling_1: 
+0.00000056809595236 a1_x1
+0.00007393976012002 a2_x1
+0.00873102444358393 a3_x1
+0.99996110190783194 a4_x1
+0.00088272759929626 short_1
-0.00088272759929626 surp_1
= 78.075697

coupling_2: 
+0.00000094602151028 a1_x2
+0.00008778025887408 a2_x2
+0.01038981735008177 a3_x2
+0.99994501551851611 a4_x2
+0.00100247913642025 short_2
-0.00100247913642025 surp_2
= 44.758266

coupling_3: 
+0.00000092474951786 a1_x3
+0.00009742185940291 a2_x3
+0.00607711777315849 a3_x3
+0.99998108252132067 a4_x3
+0.00066848604501137 short_3
-0.00066848604501137 surp_3
= 70.393577

bounds
  0.000000 <= a1_x1 <= 100.000000
  0.000000 <= a1_x2 <= 100.000000
  0.000000 <= a1_x3 <= 100.000000
  0.000000 <= a1_x4 <= 100.000000
  0.000000 <= a1_x5 <= 100.000000
  0.000000 <= a1_x6 <= 100.000000
  0.000000 <= a2_x1 <= 100.000000
  0.000000 <= a2_x2 <= 100.000000
  0.000000 <= a2_x3 <= 100.000000
  0.000000 <= a2_x4 <= 100.000000
  0.000000 <= a2_x5 <= 100.000000
  0.000000 <= a2_x6 <= 100.000000
  0.000000 <= a3_x1 <= 100.000000
  0.000000 <= a3_x2 <= 100.000000
  0.000000 <= a3_x3 <= 100.000000
  0.000000 <= a3_x4 <= 100.000000
  0.000000 <= a3_x5 <= 100.000000
  0.000000 <= a3_x6 <= 100.000000
  0.000000 <= a4_x1 <= 100.000000
  0.000000 <= a4_x2 <= 100.000000
  0.000000 <= a4_x3 <= 100.000000
  0.000000 <= a4_x4 <= 100.000000
  0.000000 <= a4_x5 <= 100.000000
  0.000000 <= a4_x6 <= 100.000000
  0.000000 <= short_1 <= +inf
  0.000000 <= surp_1 <= +inf
  0.000000 <= short_2 <= +inf
  0.000000 <= surp_2 <= +inf
  0.000000 <= short_3 <= +inf
  0.000000 <= surp_3 <= +inf
 0 <= a1_z1 <= 1
 0 <= a1_z2 <= 1
 0 <= a2_z1 <= 1
 0 <= a2_z2 <= 1
 0 <= a3_z1 <= 1
 0 <= a3_z2 <= 1
 0 <= a4_z1 <= 1
 0 <= a4_z2 <= 1

binary
  a1_z1
  a1_z2
  a2_z1
  a2_z2
  a3_z1
  a3_z2
  a4_z1
  a4_z2
end
