min
obj: 
  +8.05560131874530505 a1_x1
  +1.97423451738110156 a1_x2
  +4.43855917145081946 a1_x3
  +2.09177435273224699 a1_x4
  +8.36067334918018190 a1_x5
  +3.13328512039077767 a1_x6
  +12.32473257168471292 a1_z1
  +43.38047102379790942 a1_z2
  +7.63381403352449350 a2_x1
  +9.96116936913966633 a2_x2
  +9.94077753687388643 a2_x3
  +8.29981383037531018 a2_x4
  +5.15933962158974069 a2_x5
  +2.23730116212215036 a2_x6
  +36.51341922859109701 a2_z1
  +11.46217618633665936 a2_z2
  +8.77356431574039775 a3_x1
  +3.66477499322525757 a3_x2
  +8.98940674965133013 a3_x3
  +1.83133745097963319 a3_x4
  +5.96614000496332153 a3_x5
  +2.35435503869091178 a3_x6
  +18.83602233642604062 a3_z1
  +16.87083221217522322 a3_z2
  +7.85154573325681415 a4_x1
  +9.06414056673653157 a4_x2
  +3.88034584638911362 a4_x3
  +5.56052955494331336 a4_x4
  +7.24881590451171665 a4_x5
  +9.98170521647477038 a4_x6
  +15.56555023854576802 a4_z1
  +24.43179263140065771 a4_z2
  +1000000.00000000000000000 short_1
  +1000000.00000000000000000 surp_1
  +1000000.00000000000000000 short_2
  +1000000.00000000000000000 surp_2
  +1000000.00000000000000000 short_3
  +1000000.00000000000000000 surp_3

s.t.

a1_local_1: 
+1.54129588028449560 a1_x2
+0.64880469272091867 a1_x5
+0.82354866599388254 a1_x3
<= 144.819138

a1_local_2: 
+0.70802215372229937 a1_x6
+1.41238518419611525 a1_x4
+1.23168056851863317 a1_x2
<= 143.463662

a1_local_3: 
+1.11883867236860279 a1_x5
+1.49955504952828744 a1_x3
+0.66686448111029228 a1_x4
<= 151.075216

a1_local_4: 
+0.58954859312620811 a1_x6
+1.42678820182639043 a1_x1
+1.69621302070671587 a1_x4
<= 116.100148

a1_local_5: 
+1.21122404325348665 a1_x3
+1.09804799385196539 a1_x4
+0.82561108786602810 a1_x1
<= 99.008559

a1_local_6: 
+0.91640098371995971 a1_x3
+1.29028590178172520 a1_x5
+0.77502203086860355 a1_x1
<= 123.800581

a1_local_7: 
+0.83033636448900050 a1_x3
+1.57292282309360565 a1_x6
+0.63575910103027955 a1_x5
<= 181.255800

a1_local_8: 
+1.01151763446851972 a1_x5
+1.37725150717870082 a1_x6
+0.72608379427262315 a1_x2
<= 207.282137

a1_act_1: 
+0.10000000000000001 a1_x1
-10.00000000000000000 a1_z1
<= 0.000000

a1_act_2: 
+0.10000000000000001 a1_x2
-10.00000000000000000 a1_z2
<= 0.000000

a2_local_1: 
+0.82234787478925864 a2_x1
+1.05005920004838194 a2_x6
+1.21603038161467625 a2_x5
<= 95.339478

a2_local_2: 
+1.53610228957803630 a2_x2
+0.65099831357890736 a2_x4
+1.48018581741929944 a2_x3
<= 246.453715

a2_local_3: 
+0.97199031021250504 a2_x6
+1.06797768610432597 a2_x3
+0.93634915130831142 a2_x1
<= 179.790382

a2_local_4: 
+0.99753926726194020 a2_x4
+1.03685891020468790 a2_x3
+0.96445137342995757 a2_x1
<= 119.621643

a2_local_5: 
+1.12328569765905950 a2_x3
+0.89024546656653059 a2_x5
+0.93450455585374559 a2_x2
<= 135.018893

a2_local_6: 
+0.86035218936046798 a2_x6
+0.68412117906789005 a2_x4
+1.46172934064472648 a2_x1
<= 136.902886

a2_local_7: 
+0.83526915904650445 a2_x2
+1.19721887150908657 a2_x1
+0.86828938357981944 a2_x6
<= 164.977822

a2_local_8: 
+1.28576018134303416 a2_x3
+1.05987259645653253 a2_x4
+0.77775001474649419 a2_x6
<= 164.188147

a2_act_1: 
+0.10000000000000001 a2_x1
-10.00000000000000000 a2_z1
<= 0.000000

a2_act_2: 
+0.10000000000000001 a2_x2
-10.00000000000000000 a2_z2
<= 0.000000

a3_local_1: 
+1.21115126520023719 a3_x5
+0.82566069881838577 a3_x6
+0.97413758192503230 a3_x2
<= 168.843733

a3_local_2: 
+1.04467353286536069 a3_x4
+0.86170365395995130 a3_x6
+1.16049177162532535 a3_x1
<= 140.476730

a3_local_3: 
+0.71717730645114286 a3_x4
+0.67275177525811525 a3_x5
+1.48643234663532353 a3_x3
<= 88.698146

a3_local_4: 
+1.03450891502693754 a3_x2
+0.69300080651697404 a3_x3
+1.44299976363087623 a3_x6
<= 138.347366

a3_local_5: 
+0.97779403437756141 a3_x5
+1.12294340032061379 a3_x3
+0.89051683256207592 a3_x2
<= 103.990561

a3_local_6: 
+1.05042168519705426 a3_x1
+1.00338142461089896 a3_x5
+0.95199862502115473 a3_x3
<= 206.781225

a3_local_7: 
+0.95708253145273692 a3_x5
+1.08141258404302176 a3_x6
+0.92471644472764625 a3_x3
<= 150.887667

a3_local_8: 
+0.85533087746584680 a3_x5
+1.16913819709487798 a3_x6
+1.05729165986042672 a3_x3
<= 127.706856

a3_act_1: 
+0.10000000000000001 a3_x1
-10.00000000000000000 a3_z1
<= 0.000000

a3_act_2: 
+0.10000000000000001 a3_x2
-10.00000000000000000 a3_z2
<= 0.000000

a4_local_1: 
+1.34436540007055472 a4_x2
+0.74384538604423944 a4_x5
+1.10258620849284261 a4_x4
<= 198.946323

a4_local_2: 
+0.86977398108841153 a4_x4
+1.09977284708415879 a4_x1
+1.14972397627786838 a4_x3
<= 129.187734

a4_local_3: 
+1.22230585908216138 a4_x3
+0.81812583370164604 a4_x1
+1.06675494301168672 a4_x6
<= 108.031683

a4_local_4: 
+1.28541449484135129 a4_x2
+0.74123955966548294 a4_x3
+1.34909151428897611 a4_x5
<= 122.755872

a4_local_5: 
+1.39899375205651255 a4_x4
+0.71479947535863275 a4_x5
+0.94078205329664621 a4_x6
<= 177.254067

a4_local_6: 
+0.59747702325111229 a4_x2
+1.67370452935344471 a4_x4
+0.61660544860557898 a4_x3
<= 164.671376

a4_local_7: 
+1.16938778112406205 a4_x2
+0.85514832302998811 a4_x6
+1.00551478597284727 a4_x1
<= 125.764035

a4_local_8: 
+1.06053063145751736 a4_x5
+1.13288998109774774 a4_x4
+0.88269824668324814 a4_x2
<= 108.304734

a4_act_1: 
+0.10000000000000001 a4_x1
-10.00000000000000000 a4_z1
<= 0.000000

a4_act_2: 
+0.10000000000000001 a4_x2
-10.00000000000000000 a4_z2
<= 0.000000

coupling_1: 
+0.00000097609565301 a1_x1
+0.00017535811627954 a2_x1
+0.01526766927233291 a3_x1
+0.99988184016143355 a4_x1
+0.00125961084348293 short_1
-0.00125961084348293 surp_1
= 69.505186

coupling_2: 
+0.00000167189152138 a1_x2
+0.00008656780972408 a2_x2
+0.01648369271517677 a3_x2
+0.99986256737481793 a4_x2
+0.00125034801723633 short_2
-0.00125034801723633 surp_2
= 79.732194

coupling_3: 
+0.00000055882494886 a1_x3
+0.00004031154217047 a2_x3
+0.00572420625372071 a3_x3
+0.80934329618374867 a4_x3
+0.00055311300183974 short_3
-0.00055311300183974 surp_3
= 49.986559

bounds
  0.000000 <= a1_x1 <= 100.000000
  0.000000 <= a1_x2 <= 100.000000
  0.000000 <= a1_x3 <= 100.000000
  0.000000 <= a1_x4 <= 100.000000
  0.000000 <= a1_x5 <= 100.000000
  0.000000 <= a1_x6 <= 100.000000
  0.000000 <= a2_x1 <= 100.000000
  0.000000 <= a2_x2 <= 100.000000
  0.000000 <= a2_x3 <= 100.000000
  0.000000 <= a2_x4 <= 100.000000
  0.000000 <= a2_x5 <= 100.000000
  0.000000 <= a2_x6 <= 100.000000
  0.000000 <= a3_x1 <= 100.000000
  0.000000 <= a3_x2 <= 100.000000
  0.000000 <= a3_x3 <= 100.000000
  0.000000 <= a3_x4 <= 100.000000
  0.000000 <= a3_x5 <= 100.000000
  0.000000 <= a3_x6 <= 100.000000
  0.000000 <= a4_x1 <= 100.000000
  0.000000 <= a4_x2 <= 100.000000
  0.000000 <= a4_x3 <= 100.000000
  0.000000 <= a4_x4 <= 100.000000
  0.000000 <= a4_x5 <= 100.000000
  0.000000 <= a4_x6 <= 100.000000
  0.000000 <= short_1 <= +inf
  0.000000 <= surp_1 <= +inf
  0.000000 <= short_2 <= +inf
  0.000000 <= surp_2 <= +inf
  0.000000 <= short_3 <= +inf
  0.000000 <= surp_3 <= +inf
 0 <= a1_z1 <= 1
 0 <= a1_z2 <= 1
 0 <= a2_z1 <= 1
 0 <= a2_z2 <= 1
 0 <= a3_z1 <= 1
 0 <= a3_z2 <= 1
 0 <= a4_z1 <= 1
 0 <= a4_z2 <= 1

binary
  a1_z1
  a1_z2
  a2_z1
  a2_z2
  a3_z1
  a3_z2
  a4_z1
  a4_z2
end
