min
obj: 
  +5.71291625483064269 a1_x1
  +9.00563589084773142 a1_x2
  +9.01724711762336106 a1_x3
  +9.40638568868457803 a1_x4
  +5.77535620951187667 a1_x5
  +7.28815966502164514 a1_x6
  +20.35589591192510284 a1_z1
  +36.98632201902846361 a1_z2
  +9.57055811069523088 a2_x1
  +1.26049992587512483 a2_x2
  +5.39403189015226747 a2_x3
  +5.18163926236740036 a2_x4
  +3.59512023493198285 a2_x5
  +8.32429931763050135 a2_x6
  +8.22405720557796727 a2_z1
  +9.84830187035061044 a2_z2
  +4.44432428569451421 a3_x1
  +6.87835612826100196 a3_x2
  +6.09227189830646143 a3_x3
  +7.96998209317280093 a3_x4
  +3.38862436120579025 a3_x5
  +8.87685055794251454 a3_x6
  +46.43685776379189178 a3_z1
  +46.77504748135883261 a3_z2
  +2.14266889482626155 a4_x1
  +3.71753864038075932 a4_x2
  +7.47528281002840789 a4_x3
  +1.46230104481487744 a4_x4
  +9.33481878718765401 a4_x5
  +5.50998435696904032 a4_x6
  +29.02492698326168252 a4_z1
  +40.43054682310305736 a4_z2
  +1000000.00000000000000000 short_1
  +1000000.00000000000000000 surp_1
  +1000000.00000000000000000 short_2
  +1000000.00000000000000000 surp_2
  +1000000.00000000000000000 short_3
  +1000000.00000000000000000 surp_3

s.t.

a1_local_1: 
+0.00106018809563787 a1_x1
+0.00069810076583414 a1_x3
+0.00084679054795613 a1_x4
<= 0.091041

a1_local_2: 
+0.00118808990912049 a1_x3
+0.00053136372283527 a1_x4
+0.00107071810944415 a1_x5
<= 0.117209

a1_local_3: 
+0.00098902633868452 a1_x2
+0.00060919940674207 a1_x4
+0.00107104279814092 a1_x1
<= 0.112223

a1_local_4: 
+0.00082321047218287 a1_x2
+0.00100984408353384 a1_x3
+0.00065579937172781 a1_x4
<= 0.081611

a1_local_5: 
+0.00117080672142234 a1_x1
+0.00061085046132833 a1_x3
+0.00108195189538730 a1_x2
<= 0.099167

a1_local_6: 
+0.00085112779134138 a1_x2
+0.00083468631150077 a1_x3
+0.00075569587871454 a1_x4
<= 0.152437

a1_local_7: 
+0.00086652807460299 a1_x1
+0.00125017950375208 a1_x2
+0.00137209743390658 a1_x4
<= 0.230413

a1_local_8: 
+0.00123147930638971 a1_x2
+0.00117823983715536 a1_x6
+0.00069696147748123 a1_x5
<= 0.184222

a1_act_1: 
+1.00000000000000000 a1_x1
-100.00000000000000000 a1_z1
<= 0.000000

a1_act_2: 
+1.00000000000000000 a1_x2
-100.00000000000000000 a1_z2
<= 0.000000

a2_local_1: 
+0.07286413703075605 a2_x5
+0.10508939013471458 a2_x6
+0.11753505198367341 a2_x2
<= 11.188584

a2_local_2: 
+0.10781288765701989 a2_x4
+0.13253941994695981 a2_x6
+0.13290044996822439 a2_x2
<= 16.752455

a2_local_3: 
+0.13624956719155987 a2_x6
+0.05789200336885092 a2_x1
+0.14529675163455497 a2_x2
<= 16.601900

a2_local_4: 
+0.10681447171700914 a2_x6
+0.13455304237443388 a2_x2
+0.14859992136683028 a2_x5
<= 20.999176

a2_local_5: 
+0.13364775493508829 a2_x2
+0.09281142362256108 a2_x5
+0.05751903908179600 a2_x1
<= 17.924869

a2_local_6: 
+0.09019984950962792 a2_x2
+0.07430454595506662 a2_x4
+0.14260933820713959 a2_x3
<= 12.781319

a2_local_7: 
+0.06605430754476159 a2_x5
+0.05911662742876236 a2_x1
+0.05537959759395511 a2_x6
<= 9.216439

a2_local_8: 
+0.06449469194146859 a2_x3
+0.08941465439550991 a2_x2
+0.13204025352521459 a2_x5
<= 17.299349

a2_act_1: 
+1.00000000000000000 a2_x1
-100.00000000000000000 a2_z1
<= 0.000000

a2_act_2: 
+1.00000000000000000 a2_x2
-100.00000000000000000 a2_z2
<= 0.000000

a3_local_1: 
+13.44666818946034681 a3_x6
+10.68050699359111988 a3_x4
+14.58557094001042387 a3_x5
<= 2237.040247

a3_local_2: 
+14.88910877803321853 a3_x3
+10.97503154508867240 a3_x6
+9.63394819401792013 a3_x5
<= 1174.105941

a3_local_3: 
+9.65726838432118484 a3_x3
+7.93477337102431601 a3_x5
+11.62124968290253513 a3_x2
<= 1022.051934

a3_local_4: 
+6.99980929321691647 a3_x1
+14.62136810355944405 a3_x4
+7.69670097190487112 a3_x2
<= 1595.652262

a3_local_5: 
+7.18085650931923691 a3_x2
+11.71568484268021848 a3_x5
+10.10977369785823399 a3_x3
<= 1522.865706

a3_local_6: 
+9.04884730067350951 a3_x5
+10.17361934822140057 a3_x3
+10.92011183370197003 a3_x2
<= 1470.337991

a3_local_7: 
+10.99179932733585829 a3_x5
+9.43551767183830137 a3_x6
+14.65417386871721561 a3_x1
<= 1587.683861

a3_local_8: 
+12.43733202547456784 a3_x4
+13.99605235427757499 a3_x2
+5.63387435993061736 a3_x1
<= 1578.743776

a3_act_1: 
+1.00000000000000000 a3_x1
-100.00000000000000000 a3_z1
<= 0.000000

a3_act_2: 
+1.00000000000000000 a3_x2
-100.00000000000000000 a3_z2
<= 0.000000

a4_local_1: 
+1390.66693556938275833 a4_x2
+1459.41857429394781320 a4_x5
+605.39378752929701477 a4_x4
<= 149619.191282

a4_local_2: 
+1030.33589359063080337 a4_x2
+935.71783637545240708 a4_x4
+884.00878264942627993 a4_x3
<= 162313.054066

a4_local_3: 
+910.22565302329280712 a4_x6
+1432.31637742250677547 a4_x4
+1161.26487423565367862 a4_x1
<= 133219.006268

a4_local_4: 
+1121.93727869621602622 a4_x1
+725.75656458492721868 a4_x6
+1045.79475627778469971 a4_x3
<= 98562.688350

a4_local_5: 
+996.68313682538473586 a4_x1
+1222.52379439718060894 a4_x3
+1061.33459866336784216 a4_x6
<= 162676.777618

a4_local_6: 
+824.41671436308342891 a4_x6
+639.97214529514315018 a4_x2
+779.53615631857724111 a4_x4
<= 145726.370557

a4_local_7: 
+1125.74667788634110366 a4_x3
+704.93122972634898815 a4_x6
+732.53238780475282965 a4_x4
<= 140567.610138

a4_local_8: 
+608.93881289209878105 a4_x4
+930.52565205892540234 a4_x5
+1197.74513051097619609 a4_x6
<= 135050.972686

a4_act_1: 
+1.00000000000000000 a4_x1
-100.00000000000000000 a4_z1
<= 0.000000

a4_act_2: 
+1.00000000000000000 a4_x2
-100.00000000000000000 a4_z2
<= 0.000000

coupling_1: 
+0.00010595534269193 a1_x1
+0.00471244633681646 a2_x1
+0.86177671081208951 a3_x1
+46.65699718502707327 a4_x1
+0.08117130021117921 short_1
-0.08117130021117921 surp_1
= 3595.795859

coupling_2: 
+0.00011025897700929 a1_x2
+0.01099427370939725 a2_x2
+1.03850605183349853 a3_x2
+118.98453049126982251 a4_x2
+0.08117130021117921 short_2
-0.08117130021117921 surp_2
= 9237.753762

coupling_3: 
+0.00008490128416255 a1_x3
+0.00518448380565036 a2_x3
+0.49023737762915476 a3_x3
+58.81686304697248602 a4_x3
+0.08117130021117921 short_3
-0.08117130021117921 surp_3
= 1690.397560

bounds
  0.000000 <= a1_x1 <= 100.000000
  0.000000 <= a1_x2 <= 100.000000
  0.000000 <= a1_x3 <= 100.000000
  0.000000 <= a1_x4 <= 100.000000
  0.000000 <= a1_x5 <= 100.000000
  0.000000 <= a1_x6 <= 100.000000
  0.000000 <= a2_x1 <= 100.000000
  0.000000 <= a2_x2 <= 100.000000
  0.000000 <= a2_x3 <= 100.000000
  0.000000 <= a2_x4 <= 100.000000
  0.000000 <= a2_x5 <= 100.000000
  0.000000 <= a2_x6 <= 100.000000
  0.000000 <= a3_x1 <= 100.000000
  0.000000 <= a3_x2 <= 100.000000
  0.000000 <= a3_x3 <= 100.000000
  0.000000 <= a3_x4 <= 100.000000
  0.000000 <= a3_x5 <= 100.000000
  0.000000 <= a3_x6 <= 100.000000
  0.000000 <= a4_x1 <= 100.000000
  0.000000 <= a4_x2 <= 100.000000
  0.000000 <= a4_x3 <= 100.000000
  0.000000 <= a4_x4 <= 100.000000
  0.000000 <= a4_x5 <= 100.000000
  0.000000 <= a4_x6 <= 100.000000
  0.000000 <= short_1 <= +inf
  0.000000 <= surp_1 <= +inf
  0.000000 <= short_2 <= +inf
  0.000000 <= surp_2 <= +inf
  0.000000 <= short_3 <= +inf
  0.000000 <= surp_3 <= +inf
 0 <= a1_z1 <= 1
 0 <= a1_z2 <= 1
 0 <= a2_z1 <= 1
 0 <= a2_z2 <= 1
 0 <= a3_z1 <= 1
 0 <= a3_z2 <= 1
 0 <= a4_z1 <= 1
 0 <= a4_z2 <= 1

binary
  a1_z1
  a1_z2
  a2_z1
  a2_z2
  a3_z1
  a3_z2
  a4_z1
  a4_z2
end
