min
obj: 
  +8.52421046785006808 a1_x1
  +7.69307565210918742 a1_x2
  +6.91899621560824230 a1_x3
  +9.20970734213053355 a1_x4
  +1.67836132765545631 a1_x5
  +5.99146020770216658 a1_x6
  +31.08072985890714435 a1_z1
  +20.88386702402789297 a1_z2
  +6.90777420422215815 a2_x1
  +5.08754459362986733 a2_x2
  +7.59170235780382363 a2_x3
  +8.27944903727416381 a2_x4
  +1.03512879040065853 a2_x5
  +5.78577237729060112 a2_x6
  +23.93421358976911506 a2_z1
  +21.52150514949614646 a2_z2
  +3.33875162916421697 a3_x1
  +6.11068986646011059 a3_x2
  +6.55082117265498010 a3_x3
  +5.19513264683116827 a3_x4
  +3.93701514527552376 a3_x5
  +3.37060916575937597 a3_x6
  +38.53959756350231913 a3_z1
  +26.75553244557287869 a3_z2
  +8.54382197580174818 a4_x1
  +7.14956107064012691 a4_x2
  +5.56590579337685210 a4_x3
  +2.52647125500070402 a4_x4
  +2.35011295395534869 a4_x5
  +8.78080461108212518 a4_x6
  +7.45391026181894656 a4_z1
  +36.01444945313909329 a4_z2
  +1000000.00000000000000000 short_1
  +1000000.00000000000000000 surp_1
  +1000000.00000000000000000 short_2
  +1000000.00000000000000000 surp_2
  +1000000.00000000000000000 short_3
  +1000000.00000000000000000 surp_3

s.t.

a1_local_1: 
+0.00063070814300599 a1_x6
+0.00135873784150293 a1_x2
+0.00130300438207641 a1_x4
<= 0.116130

a1_local_2: 
+0.00115278111452226 a1_x5
+0.00070176638952813 a1_x2
+0.00086759454414895 a1_x1
<= 0.106260

a1_local_3: 
+0.00085063838979128 a1_x4
+0.00056510120820103 a1_x2
+0.00080008508099559 a1_x1
<= 0.093457

a1_local_4: 
+0.00066990276680099 a1_x4
+0.00125640309743608 a1_x2
+0.00099049072340328 a1_x6
<= 0.115935

a1_local_5: 
+0.00112895965606468 a1_x5
+0.00120076611469730 a1_x2
+0.00073742320754301 a1_x1
<= 0.115784

a1_local_6: 
+0.00146440291383184 a1_x2
+0.00102187490811662 a1_x5
+0.00061857656738686 a1_x6
<= 0.104175

a1_local_7: 
+0.00115577671130270 a1_x3
+0.00087832444884740 a1_x4
+0.00085459328177445 a1_x6
<= 0.157350

a1_local_8: 
+0.00073252222234779 a1_x6
+0.00081837805538173 a1_x2
+0.00099726054776814 a1_x5
<= 0.163601

a1_act_1: 
+1.00000000000000000 a1_x1
-100.00000000000000000 a1_z1
<= 0.000000

a1_act_2: 
+1.00000000000000000 a1_x2
-100.00000000000000000 a1_z2
<= 0.000000

a2_local_1: 
+0.06344901489403883 a2_x6
+0.07169614919324628 a2_x3
+0.05949347274881879 a2_x2
<= 6.228032

a2_local_2: 
+0.08699620047195095 a2_x5
+0.13342349175535886 a2_x3
+0.10635514293096260 a2_x2
<= 22.211350

a2_local_3: 
+0.10297548042271534 a2_x3
+0.13914658806165911 a2_x5
+0.12834414649719181 a2_x4
<= 16.716253

a2_local_4: 
+0.12954504241131476 a2_x3
+0.08824035191493507 a2_x5
+0.09727201033471924 a2_x4
<= 20.927260

a2_local_5: 
+0.11192088007077866 a2_x3
+0.08380831561954810 a2_x1
+0.11756468839908185 a2_x2
<= 20.761301

a2_local_6: 
+0.08209127675242223 a2_x3
+0.10164638198111375 a2_x6
+0.07878116915931847 a2_x5
<= 10.371538

a2_local_7: 
+0.14330288837289698 a2_x4
+0.13628256696790603 a2_x5
+0.08895480775943908 a2_x2
<= 18.402548

a2_local_8: 
+0.07350887529926799 a2_x4
+0.10230762148015271 a2_x2
+0.08378011262940693 a2_x1
<= 12.564915

a2_act_1: 
+1.00000000000000000 a2_x1
-100.00000000000000000 a2_z1
<= 0.000000

a2_act_2: 
+1.00000000000000000 a2_x2
-100.00000000000000000 a2_z2
<= 0.000000

a3_local_1: 
+13.81713061162071909 a3_x6
+12.25832357357771407 a3_x1
+14.17674705357363862 a3_x5
<= 1812.588793

a3_local_2: 
+6.48652644451167237 a3_x4
+9.66831096520440525 a3_x2
+8.26146621869902908 a3_x6
<= 1505.856630

a3_local_3: 
+11.44252358820274296 a3_x3
+13.42897997579586189 a3_x2
+11.02568843662350773 a3_x6
<= 1121.962561

a3_local_4: 
+13.86957629694797589 a3_x2
+12.45749190894047587 a3_x3
+14.10285614793082409 a3_x5
<= 2333.474857

a3_local_5: 
+10.87383469546576364 a3_x6
+5.53038987861499187 a3_x1
+14.88680308217915993 a3_x5
<= 1973.983734

a3_local_6: 
+13.72240408821348367 a3_x6
+5.51906525736286824 a3_x2
+11.64404621605381251 a3_x1
<= 2033.956553

a3_local_7: 
+11.91641723655694030 a3_x2
+10.69273426101413627 a3_x1
+14.97195551689284976 a3_x6
<= 1966.903719

a3_local_8: 
+6.63131491235217840 a3_x1
+9.47773218922512761 a3_x5
+8.88933493349793480 a3_x4
<= 796.208635

a3_act_1: 
+1.00000000000000000 a3_x1
-100.00000000000000000 a3_z1
<= 0.000000

a3_act_2: 
+1.00000000000000000 a3_x2
-100.00000000000000000 a3_z2
<= 0.000000

a4_local_1: 
+639.81232959295277851 a4_x3
+1106.56679470263611620 a4_x5
+672.32372808048921797 a4_x6
<= 101276.819597

a4_local_2: 
+1462.95300185418727779 a4_x4
+1010.45405397420040572 a4_x3
+1408.04093583683402358 a4_x2
<= 120437.724555

a4_local_3: 
+720.32831130866691183 a4_x5
+1170.08233449842691698 a4_x6
+524.99007020599265161 a4_x4
<= 133111.746962

a4_local_4: 
+896.52566412003272944 a4_x1
+708.70243523321187240 a4_x3
+1233.61730120243601050 a4_x6
<= 89554.080723

a4_local_5: 
+1301.41170741962878310 a4_x6
+847.31537185675074397 a4_x5
+1466.98953825570470144 a4_x1
<= 225927.483830

a4_local_6: 
+527.33861341418901247 a4_x4
+969.16414774672841759 a4_x1
+1466.75133132296286931 a4_x3
<= 134338.603320

a4_local_7: 
+1224.83247068875289187 a4_x6
+1303.29177689118068884 a4_x2
+1391.25930132466805844 a4_x1
<= 208371.517052

a4_local_8: 
+576.15560200627965060 a4_x3
+1366.37158363654043569 a4_x2
+1130.99857764096736901 a4_x6
<= 207148.542830

a4_act_1: 
+1.00000000000000000 a4_x1
-100.00000000000000000 a4_z1
<= 0.000000

a4_act_2: 
+1.00000000000000000 a4_x2
-100.00000000000000000 a4_z2
<= 0.000000

coupling_1: 
+0.00000029687595944 a1_x1
+0.00002870051270403 a2_x1
+0.00660762290157875 a3_x1
+0.26646653623865857 a4_x1
+0.00052974874681134 short_1
-0.00052974874681134 surp_1
= 19.705847

coupling_2: 
+0.00000039739131675 a1_x2
+0.00004828531558724 a2_x2
+0.00699788258199857 a3_x2
+0.64738013502142244 a4_x2
+0.00052974874681134 short_2
-0.00052974874681134 surp_2
= 21.738061

coupling_3: 
+0.00000029331958103 a1_x3
+0.00003432550786464 a2_x3
+0.00500560106932786 a3_x3
+0.56577786429056343 a4_x3
+0.00052974874681134 short_3
-0.00052974874681134 surp_3
= 13.281207

bounds
  0.000000 <= a1_x1 <= 100.000000
  0.000000 <= a1_x2 <= 100.000000
  0.000000 <= a1_x3 <= 100.000000
  0.000000 <= a1_x4 <= 100.000000
  0.000000 <= a1_x5 <= 100.000000
  0.000000 <= a1_x6 <= 100.000000
  0.000000 <= a2_x1 <= 100.000000
  0.000000 <= a2_x2 <= 100.000000
  0.000000 <= a2_x3 <= 100.000000
  0.000000 <= a2_x4 <= 100.000000
  0.000000 <= a2_x5 <= 100.000000
  0.000000 <= a2_x6 <= 100.000000
  0.000000 <= a3_x1 <= 100.000000
  0.000000 <= a3_x2 <= 100.000000
  0.000000 <= a3_x3 <= 100.000000
  0.000000 <= a3_x4 <= 100.000000
  0.000000 <= a3_x5 <= 100.000000
  0.000000 <= a3_x6 <= 100.000000
  0.000000 <= a4_x1 <= 100.000000
  0.000000 <= a4_x2 <= 100.000000
  0.000000 <= a4_x3 <= 100.000000
  0.000000 <= a4_x4 <= 100.000000
  0.000000 <= a4_x5 <= 100.000000
  0.000000 <= a4_x6 <= 100.000000
  0.000000 <= short_1 <= +inf
  0.000000 <= surp_1 <= +inf
  0.000000 <= short_2 <= +inf
  0.000000 <= surp_2 <= +inf
  0.000000 <= short_3 <= +inf
  0.000000 <= surp_3 <= +inf
 0 <= a1_z1 <= 1
 0 <= a1_z2 <= 1
 0 <= a2_z1 <= 1
 0 <= a2_z2 <= 1
 0 <= a3_z1 <= 1
 0 <= a3_z2 <= 1
 0 <= a4_z1 <= 1
 0 <= a4_z2 <= 1

binary
  a1_z1
  a1_z2
  a2_z1
  a2_z2
  a3_z1
  a3_z2
  a4_z1
  a4_z2
end
