min
obj: 
  +1.85914319529187777 a1_x1
  +3.32311090405199927 a1_x2
  +9.20870591814637862 a1_x3
  +9.62032466035919853 a1_x4
  +2.65221673698665317 a1_x5
  +9.19424318038364063 a1_x6
  +15.23159126469524693 a1_z1
  +37.87053616888882601 a1_z2
  +9.50992409015265672 a2_x1
  +7.57539983332453648 a2_x2
  +7.25458697589536605 a2_x3
  +4.07761765395989872 a2_x4
  +7.08231795774132511 a2_x5
  +8.34807126494008500 a2_x6
  +13.29578844905750223 a2_z1
  +34.63921833196101829 a2_z2
  +8.76504266892960793 a3_x1
  +7.77977201232387294 a3_x2
  +6.04838547653606717 a3_x3
  +6.48681552366104786 a3_x4
  +7.59141867997845843 a3_x5
  +2.66707871930021945 a3_x6
  +17.07642873173313092 a3_z1
  +32.16693189471635606 a3_z2
  +3.95786841150633606 a4_x1
  +4.77265222387028487 a4_x2
  +6.62265288598760282 a4_x3
  +9.50730455200969438 a4_x4
  +5.10859874083684673 a4_x5
  +6.19908634988090146 a4_x6
  +14.10084107909216655 a4_z1
  +36.13532285979064795 a4_z2
  +1000000.00000000000000000 short_1
  +1000000.00000000000000000 surp_1
  +1000000.00000000000000000 short_2
  +1000000.00000000000000000 surp_2
  +1000000.00000000000000000 short_3
  +1000000.00000000000000000 surp_3

s.t.

a1_local_1: 
+0.00089464331444936 a1_x5
+0.00063535848743652 a1_x4
+0.00085836312455858 a1_x3
<= 0.085262

a1_local_2: 
+0.00127711204220917 a1_x2
+0.00086811311644212 a1_x4
+0.00099025782261363 a1_x3
<= 0.211142

a1_local_3: 
+0.00110671793005598 a1_x1
+0.00065722297294828 a1_x6
+0.00131767369389997 a1_x3
<= 0.127831

a1_local_4: 
+0.00131394893887242 a1_x3
+0.00131303217827950 a1_x6
+0.00139436138782621 a1_x5
<= 0.239547

a1_local_5: 
+0.00119881246756515 a1_x2
+0.00117024394385574 a1_x3
+0.00109800224655512 a1_x5
<= 0.115226

a1_local_6: 
+0.00136136081383661 a1_x4
+0.00149823912897958 a1_x3
+0.00137471436229155 a1_x2
<= 0.276648

a1_local_7: 
+0.00080740616413266 a1_x6
+0.00081500407085397 a1_x4
+0.00065830459938306 a1_x5
<= 0.152320

a1_local_8: 
+0.00097705757572827 a1_x3
+0.00135684823959495 a1_x4
+0.00066635491664750 a1_x2
<= 0.205974

a1_act_1: 
+1.00000000000000000 a1_x1
-100.00000000000000000 a1_z1
<= 0.000000

a1_act_2: 
+1.00000000000000000 a1_x2
-100.00000000000000000 a1_z2
<= 0.000000

a2_local_1: 
+0.11017919584897960 a2_x5
+0.13449776304881764 a2_x1
+0.05654317141957760 a2_x3
<= 19.381731

a2_local_2: 
+0.11202160626285440 a2_x3
+0.10334684741744544 a2_x1
+0.12927449470602967 a2_x2
<= 20.631340

a2_local_3: 
+0.08039956407190543 a2_x4
+0.10882494857312029 a2_x6
+0.11120488386823230 a2_x2
<= 9.889524

a2_local_4: 
+0.14408038668268822 a2_x5
+0.11758811949425135 a2_x2
+0.08940636774415212 a2_x3
<= 19.090973

a2_local_5: 
+0.13739436840651295 a2_x2
+0.12223765280266199 a2_x1
+0.11165906392229791 a2_x5
<= 12.340429

a2_local_6: 
+0.05274728048072796 a2_x4
+0.14846286885746326 a2_x3
+0.10127658429814473 a2_x2
<= 21.127479

a2_local_7: 
+0.10495890633420234 a2_x1
+0.11392074144917053 a2_x4
+0.05545418015532602 a2_x6
<= 13.765911

a2_local_8: 
+0.07495014377485758 a2_x4
+0.07464678737369329 a2_x5
+0.09443632556042723 a2_x1
<= 15.137933

a2_act_1: 
+1.00000000000000000 a2_x1
-100.00000000000000000 a2_z1
<= 0.000000

a2_act_2: 
+1.00000000000000000 a2_x2
-100.00000000000000000 a2_z2
<= 0.000000

a3_local_1: 
+11.04831798289784395 a3_x3
+6.76633224146646839 a3_x2
+5.86174894388682777 a3_x1
<= 1372.143829

a3_local_2: 
+13.78659211882729352 a3_x3
+5.34655436732263656 a3_x5
+9.69113184478480250 a3_x1
<= 1694.888843

a3_local_3: 
+7.42284087539260895 a3_x1
+6.56671355719625094 a3_x6
+6.15349101930975095 a3_x5
<= 1146.831610

a3_local_4: 
+9.49397213878107848 a3_x4
+6.78391760614566586 a3_x5
+11.57093300096353694 a3_x3
<= 945.937518

a3_local_5: 
+6.16172189948302140 a3_x5
+7.47903742201590660 a3_x2
+5.88667439639927981 a3_x3
<= 676.259924

a3_local_6: 
+7.97236195302688522 a3_x1
+10.23103801958118808 a3_x4
+13.45384746606221782 a3_x6
<= 1574.895067

a3_local_7: 
+9.67053964135529220 a3_x2
+10.78398461122933227 a3_x6
+10.04154993271993312 a3_x3
<= 1820.255517

a3_local_8: 
+14.03366934832258295 a3_x4
+12.27671770396947259 a3_x3
+5.90923624648545331 a3_x1
<= 1406.911611

a3_act_1: 
+1.00000000000000000 a3_x1
-100.00000000000000000 a3_z1
<= 0.000000

a3_act_2: 
+1.00000000000000000 a3_x2
-100.00000000000000000 a3_z2
<= 0.000000

a4_local_1: 
+674.59844590050374791 a4_x4
+1354.67572988573033399 a4_x1
+756.00109792124771957 a4_x2
<= 97756.211538

a4_local_2: 
+921.43012424365713287 a4_x5
+847.26413431944274635 a4_x4
+540.62017999417957981 a4_x1
<= 74961.990449

a4_local_3: 
+1474.91730492355804927 a4_x1
+664.68936019158104500 a4_x2
+854.67661537571905228 a4_x4
<= 118788.342434

a4_local_4: 
+1263.10708724332516795 a4_x6
+623.43503429776296798 a4_x3
+1425.64068533101590219 a4_x4
<= 143145.594564

a4_local_5: 
+500.32041683754079031 a4_x6
+1372.31995159901202896 a4_x3
+1217.56593119105468759 a4_x5
<= 96502.623003

a4_local_6: 
+714.94825736606833289 a4_x4
+734.87750552554791739 a4_x1
+1085.08155528866564055 a4_x5
<= 126432.721842

a4_local_7: 
+589.02308851630186837 a4_x1
+597.86498325616219063 a4_x2
+1317.17398417786444043 a4_x3
<= 128233.318846

a4_local_8: 
+753.10121957964702233 a4_x2
+1021.84193788225854860 a4_x3
+717.34051653881033417 a4_x4
<= 163750.752409

a4_act_1: 
+1.00000000000000000 a4_x1
-100.00000000000000000 a4_z1
<= 0.000000

a4_act_2: 
+1.00000000000000000 a4_x2
-100.00000000000000000 a4_z2
<= 0.000000

coupling_1: 
+0.00000000390066588 a1_x1
+0.00000050768589111 a2_x1
+0.00005994904389343 a3_x1
+0.00686594252224861 a4_x1
+0.00000606099272062 short_1
-0.00000606099272062 surp_1
= 0.536084

coupling_2: 
+0.00000000571964970 a1_x2
+0.00000053071978331 a2_x2
+0.00006281687572305 a3_x2
+0.00604567141589013 a4_x2
+0.00000606099272062 short_2
-0.00000606099272062 surp_2
= 0.270609

coupling_3: 
+0.00000000838446836 a1_x3
+0.00000088329918788 a2_x3
+0.00005509967913371 a3_x3
+0.00906657380083455 a4_x3
+0.00000606099272062 short_3
-0.00000606099272062 surp_3
= 0.638241

bounds
  0.000000 <= a1_x1 <= 100.000000
  0.000000 <= a1_x2 <= 100.000000
  0.000000 <= a1_x3 <= 100.000000
  0.000000 <= a1_x4 <= 100.000000
  0.000000 <= a1_x5 <= 100.000000
  0.000000 <= a1_x6 <= 100.000000
  0.000000 <= a2_x1 <= 100.000000
  0.000000 <= a2_x2 <= 100.000000
  0.000000 <= a2_x3 <= 100.000000
  0.000000 <= a2_x4 <= 100.000000
  0.000000 <= a2_x5 <= 100.000000
  0.000000 <= a2_x6 <= 100.000000
  0.000000 <= a3_x1 <= 100.000000
  0.000000 <= a3_x2 <= 100.000000
  0.000000 <= a3_x3 <= 100.000000
  0.000000 <= a3_x4 <= 100.000000
  0.000000 <= a3_x5 <= 100.000000
  0.000000 <= a3_x6 <= 100.000000
  0.000000 <= a4_x1 <= 100.000000
  0.000000 <= a4_x2 <= 100.000000
  0.000000 <= a4_x3 <= 100.000000
  0.000000 <= a4_x4 <= 100.000000
  0.000000 <= a4_x5 <= 100.000000
  0.000000 <= a4_x6 <= 100.000000
  0.000000 <= short_1 <= +inf
  0.000000 <= surp_1 <= +inf
  0.000000 <= short_2 <= +inf
  0.000000 <= surp_2 <= +inf
  0.000000 <= short_3 <= +inf
  0.000000 <= surp_3 <= +inf
 0 <= a1_z1 <= 1
 0 <= a1_z2 <= 1
 0 <= a2_z1 <= 1
 0 <= a2_z2 <= 1
 0 <= a3_z1 <= 1
 0 <= a3_z2 <= 1
 0 <= a4_z1 <= 1
 0 <= a4_z2 <= 1

binary
  a1_z1
  a1_z2
  a2_z1
  a2_z2
  a3_z1
  a3_z2
  a4_z1
  a4_z2
end
