min
obj: 
  +7.78207569299738466 a1_x1
  +2.62040292120299334 a1_x2
  +1.02293933329670939 a1_x3
  +7.19109322240713489 a1_x4
  +4.26327457704359070 a1_x5
  +6.02462654690972954 a1_x6
  +42.77102711119731282 a1_z1
  +28.11411837117618262 a1_z2
  +5.79112125901829966 a2_x1
  +5.43489317194582089 a2_x2
  +9.42596272358853859 a2_x3
  +8.92130525199075564 a2_x4
  +6.14845489869399664 a2_x5
  +2.14640938868183095 a2_x6
  +31.66094613130910673 a2_z1
  +6.98996133690631005 a2_z2
  +2.81862526144540748 a3_x1
  +1.36412059178846468 a3_x2
  +2.33366974601915000 a3_x3
  +2.45567759910651384 a3_x4
  +5.22782650613177147 a3_x5
  +6.66961894421152923 a3_x6
  +49.85791959361311854 a3_z1
  +30.64094479818616890 a3_z2
  +7.09948941464576322 a4_x1
  +9.56749156260526412 a4_x2
  +9.23547813869581802 a4_x3
  +8.94781396766327930 a4_x4
  +7.43389970639344355 a4_x5
  +1.79601697429660612 a4_x6
  +7.43041409826294341 a4_z1
  +14.53020430166953325 a4_z2
  +1000000.00000000000000000 short_1
  +1000000.00000000000000000 surp_1
  +1000000.00000000000000000 short_2
  +1000000.00000000000000000 surp_2
  +1000000.00000000000000000 short_3
  +1000000.00000000000000000 surp_3

s.t.

a1_local_1: 
+0.50830128584377543 a1_x4
+0.78099407126304765 a1_x6
+0.36287472144189670 a1_x3
<= 82.586536

a1_local_2: 
+0.62841303478021904 a1_x6
+0.44056055071972738 a1_x5
+0.64109551462153125 a1_x4
<= 90.610197

a1_local_3: 
+0.46069916733291411 a1_x4
+0.60784594660963676 a1_x2
+0.64674537679754185 a1_x3
<= 99.499579

a1_local_4: 
+0.62746166085074517 a1_x4
+0.41777488442219135 a1_x5
+0.65708143339197256 a1_x2
<= 86.745949

a1_local_5: 
+0.34648194375364333 a1_x2
+0.84311871084991363 a1_x5
+0.41121904390175884 a1_x4
<= 88.557774

a1_local_6: 
+0.61130116884469288 a1_x2
+0.70495374262121391 a1_x3
+0.35965414182719402 a1_x1
<= 90.840718

a1_local_7: 
+0.39611970782760031 a1_x5
+0.82739434789670929 a1_x2
+0.39813034315303775 a1_x6
<= 88.982247

a1_local_8: 
+0.41281788352611271 a1_x5
+0.73648948985633622 a1_x1
+0.53587743596103632 a1_x6
<= 103.545886

a1_act_1: 
+0.00999950003749688 a1_x1
-0.99995000374968745 a1_z1
<= 0.000000

a1_act_2: 
+0.00999950003749688 a1_x2
-0.99995000374968745 a1_z2
<= 0.000000

a2_local_1: 
+0.42900853832239955 a2_x6
+0.64038776448239676 a2_x4
+0.63706764566073870 a2_x3
<= 107.383424

a2_local_2: 
+0.37108491094252494 a2_x5
+0.51453332323007461 a2_x4
+0.77301452001666426 a2_x6
<= 75.252986

a2_local_3: 
+0.55614099615882662 a2_x4
+0.37619132602491423 a2_x5
+0.74107170949583878 a2_x3
<= 51.839586

a2_local_4: 
+0.24963117209817026 a2_x5
+0.24651234127808794 a2_x6
+0.70894168111643163 a2_x4
<= 45.023300

a2_local_5: 
+0.58280691983876709 a2_x4
+0.36290438331361369 a2_x2
+0.72707393211406945 a2_x3
<= 79.669044

a2_local_6: 
+0.61889551998623793 a2_x5
+0.54707832658473365 a2_x4
+0.56362544293370187 a2_x3
<= 65.444237

a2_local_7: 
+0.46021803969222486 a2_x1
+0.73820656439537036 a2_x6
+0.49320424189723833 a2_x4
<= 118.122167

a2_local_8: 
+0.66625591748106294 a2_x4
+0.61881701294173619 a2_x3
+0.41613526276360424 a2_x5
<= 65.194753

a2_act_1: 
+0.00999950003749688 a2_x1
-0.99995000374968757 a2_z1
<= 0.000000

a2_act_2: 
+0.00999950003749688 a2_x2
-0.99995000374968757 a2_z2
<= 0.000000

a3_local_1: 
+0.45040944646498604 a3_x6
+0.68914092811905803 a3_x2
+0.56764082986190145 a3_x1
<= 114.013478

a3_local_2: 
+0.75301381339081763 a3_x1
+0.50662345785546770 a3_x6
+0.41988435168887622 a3_x2
<= 115.205788

a3_local_3: 
+0.35353124402877611 a3_x6
+0.84635515733245303 a3_x5
+0.39836993756083655 a3_x3
<= 84.746800

a3_local_4: 
+0.64330523934530270 a3_x2
+0.29601460997692886 a3_x6
+0.70606920320255395 a3_x4
<= 69.789030

a3_local_5: 
+0.52882068558906281 a3_x1
+0.70516366679839337 a3_x5
+0.47232709589918487 a3_x3
<= 84.585132

a3_local_6: 
+0.54551462774739479 a3_x5
+0.64574199000543053 a3_x2
+0.53425749714669224 a3_x3
<= 88.915034

a3_local_7: 
+0.70790540794073165 a3_x2
+0.57887892531735796 a3_x3
+0.84218047523525597 a3_x1
<= 113.698353

a3_local_8: 
+0.72949566772882757 a3_x6
+0.33912416760590086 a3_x1
+0.59399568155877769 a3_x2
<= 75.633450

a3_act_1: 
+0.00999950003749687 a3_x1
-0.99995000374968745 a3_z1
<= 0.000000

a3_act_2: 
+0.00999950003749688 a3_x2
-0.99995000374968757 a3_z2
<= 0.000000

a4_local_1: 
+0.35922126688313899 a4_x1
+0.82536095005775412 a4_x6
+0.43559084418595601 a4_x5
<= 102.340458

a4_local_2: 
+0.69088349963423645 a4_x2
+0.32840043962771281 a4_x5
+0.64407541575926885 a4_x4
<= 111.828778

a4_local_3: 
+0.74228054919970943 a4_x6
+0.57737814604835969 a4_x2
+0.34007949474429788 a4_x5
<= 96.656354

a4_local_4: 
+0.63636137378935309 a4_x6
+0.38653465108739332 a4_x3
+0.66755911008514768 a4_x4
<= 107.040159

a4_local_5: 
+0.44397761964560289 a4_x5
+0.45165252993905780 a4_x2
+0.77388233308008314 a4_x3
<= 66.892640

a4_local_6: 
+0.60027196439209529 a4_x1
+0.51190150666328882 a4_x5
+0.61451640843895283 a4_x4
<= 95.217710

a4_local_7: 
+0.37146299245302000 a4_x6
+0.71516470785044883 a4_x3
+0.59207658785247508 a4_x2
<= 100.933105

a4_local_8: 
+0.49128963235348283 a4_x3
+0.77850908644126027 a4_x6
+0.39058686546064747 a4_x4
<= 59.841937

a4_act_1: 
+0.00999950003749688 a4_x1
-0.99995000374968757 a4_z1
<= 0.000000

a4_act_2: 
+0.00999950003749688 a4_x2
-0.99995000374968757 a4_z2
<= 0.000000

coupling_1: 
+0.01405172393544533 a1_x1
+0.08157044627941148 a2_x1
+0.30472282706158893 a3_x1
+0.92713671434390388 a4_x1
+0.14267151595781646 short_1
-0.14267151595781646 surp_1
= 94.003936

coupling_2: 
+0.01346257143590809 a1_x2
+0.05554989119636890 a2_x2
+0.27122053157742987 a3_x2
+0.95110434042274694 a4_x2
+0.09636629503688622 short_2
-0.09636629503688622 surp_2
= 36.160607

coupling_3: 
+0.02112431840919398 a1_x3
+0.06901942915217740 a2_x3
+0.20540472798270215 a3_x3
+0.94197776930704979 a4_x3
+0.18066109352171139 short_3
-0.18066109352171139 surp_3
= 27.754466

bounds
  0.000000 <= a1_x1 <= 100.000000
  0.000000 <= a1_x2 <= 100.000000
  0.000000 <= a1_x3 <= 100.000000
  0.000000 <= a1_x4 <= 100.000000
  0.000000 <= a1_x5 <= 100.000000
  0.000000 <= a1_x6 <= 100.000000
  0.000000 <= a2_x1 <= 100.000000
  0.000000 <= a2_x2 <= 100.000000
  0.000000 <= a2_x3 <= 100.000000
  0.000000 <= a2_x4 <= 100.000000
  0.000000 <= a2_x5 <= 100.000000
  0.000000 <= a2_x6 <= 100.000000
  0.000000 <= a3_x1 <= 100.000000
  0.000000 <= a3_x2 <= 100.000000
  0.000000 <= a3_x3 <= 100.000000
  0.000000 <= a3_x4 <= 100.000000
  0.000000 <= a3_x5 <= 100.000000
  0.000000 <= a3_x6 <= 100.000000
  0.000000 <= a4_x1 <= 100.000000
  0.000000 <= a4_x2 <= 100.000000
  0.000000 <= a4_x3 <= 100.000000
  0.000000 <= a4_x4 <= 100.000000
  0.000000 <= a4_x5 <= 100.000000
  0.000000 <= a4_x6 <= 100.000000
  0.000000 <= short_1 <= +inf
  0.000000 <= surp_1 <= +inf
  0.000000 <= short_2 <= +inf
  0.000000 <= surp_2 <= +inf
  0.000000 <= short_3 <= +inf
  0.000000 <= surp_3 <= +inf
 0 <= a1_z1 <= 1
 0 <= a1_z2 <= 1
 0 <= a2_z1 <= 1
 0 <= a2_z2 <= 1
 0 <= a3_z1 <= 1
 0 <= a3_z2 <= 1
 0 <= a4_z1 <= 1
 0 <= a4_z2 <= 1

binary
  a1_z1
  a1_z2
  a2_z1
  a2_z2
  a3_z1
  a3_z2
  a4_z1
  a4_z2
end
