min
obj: 
  +2.37029411872895501 a1_x1
  +4.08711411622905185 a1_x2
  +7.66136637275760890 a1_x3
  +4.89991689432673461 a1_x4
  +9.18560754331382867 a1_x5
  +7.80552329567271030 a1_x6
  +17.43087311454965516 a1_z1
  +23.40237872614093462 a1_z2
  +7.76967499598976019 a2_x1
  +1.80336421538305247 a2_x2
  +9.57158160013941384 a2_x3
  +5.65827493894111466 a2_x4
  +2.44173723344263127 a2_x5
  +7.27299337053102857 a2_x6
  +31.32172731425238510 a2_z1
  +17.35876123031728824 a2_z2
  +2.34937597507828766 a3_x1
  +3.44404861330662637 a3_x2
  +8.97236298110027342 a3_x3
  +1.18282410761081147 a3_x4
  +8.94329086748358293 a3_x5
  +1.71905082189577563 a3_x6
  +16.00176469749968788 a3_z1
  +34.61198408971173990 a3_z2
  +6.56106695092732561 a4_x1
  +3.99053598556514322 a4_x2
  +4.10040873738996048 a4_x3
  +4.88744804784333908 a4_x4
  +2.91326732486744788 a4_x5
  +5.36841797601257653 a4_x6
  +43.70048480327027818 a4_z1
  +7.09598516541455737 a4_z2
  +1000000.00000000000000000 short_1
  +1000000.00000000000000000 surp_1
  +1000000.00000000000000000 short_2
  +1000000.00000000000000000 surp_2
  +1000000.00000000000000000 short_3
  +1000000.00000000000000000 surp_3

s.t.

a1_local_1: 
+81719.66570972216140945 a1_x3
+58729.53200613783701556 a1_x2
+32649.07482131869619479 a1_x1
<= 12107967.804340

a1_local_2: 
+0.00000188548669050 a1_x6
+0.00000112119568187 a1_x3
+0.00000110295990729 a1_x2
<= 0.000127

a1_local_3: 
+4530.44987784642034967 a1_x4
+5240.46634016212374263 a1_x3
+3796.11463315451283052 a1_x6
<= 417575.460325

a1_local_4: 
+64.08188280939128845 a1_x5
+121.01371064436702341 a1_x3
+58.24697016633648161 a1_x6
<= 13123.135018

a1_local_5: 
+55.11976966664903443 a1_x3
+41.73504490429324676 a1_x5
+22.10184881336985896 a1_x4
<= 7210.698018

a1_local_6: 
+0.22131589466802068 a1_x3
+0.15969369605217815 a1_x1
+0.12138887571167219 a1_x6
<= 25.011114

a1_local_7: 
+0.97241999419420888 a1_x6
+1.14119600285869205 a1_x1
+1.09721732350998957 a1_x4
<= 147.780222

a1_local_8: 
+3.41412391627076772 a1_x3
+5.20045959725234130 a1_x2
+5.57147997106015147 a1_x4
<= 517.520879

a1_act_1: 
+116.90754449564420270 a1_x1
-11690.75444956441970135 a1_z1
<= 0.000000

a1_act_2: 
+29065.75676915334770456 a1_x2
-2906575.67691533453762531 a1_z2
<= 0.000000

a2_local_1: 
+12.20215691587590179 a2_x3
+14.26959562308806717 a2_x2
+7.09795183902896376 a2_x1
<= 2126.130473

a2_local_2: 
+5.37304918823915667 a2_x6
+12.70490367371477092 a2_x2
+14.03959803083441393 a2_x1
<= 2051.475226

a2_local_3: 
+0.01434362563964040 a2_x2
+0.02372652180604200 a2_x3
+0.01334744593158160 a2_x1
<= 2.869141

a2_local_4: 
+0.30416511406582325 a2_x1
+0.29164825978072995 a2_x4
+0.34658015588373881 a2_x5
<= 53.446403

a2_local_5: 
+1.58866386319925934 a2_x1
+2.39054723800979474 a2_x6
+2.14115876740522459 a2_x3
<= 189.408291

a2_local_6: 
+871.50997517948303539 a2_x1
+710.41589227865267731 a2_x6
+1541.73509501533635557 a2_x2
<= 152311.392922

a2_local_7: 
+0.00001699455276359 a2_x3
+0.00001528593581053 a2_x2
+0.00002019953373919 a2_x4
<= 0.002158

a2_local_8: 
+0.86672680351901010 a2_x4
+0.44642503367872044 a2_x3
+0.76532576550030196 a2_x1
<= 125.643030

a2_act_1: 
+0.00656717356249348 a2_x1
-0.65671735624934802 a2_z1
<= 0.000000

a2_act_2: 
+33445.52508269175450550 a2_x2
-3344552.50826917542144656 a2_z2
<= 0.000000

a3_local_1: 
+211.71974330520689023 a3_x5
+142.26862457015712948 a3_x4
+374.42283443970751478 a3_x2
<= 32695.853498

a3_local_2: 
+981947.47942810470703989 a3_x4
+710146.55649286753032357 a3_x5
+1005300.15999902738258243 a3_x3
<= 135777204.025453

a3_local_3: 
+0.00099325722766043 a3_x4
+0.00052586370888831 a3_x3
+0.00114625781928400 a3_x6
<= 0.112983

a3_local_4: 
+7193.90875562556811929 a3_x4
+7579.81602410288360261 a3_x5
+9243.98576612094802840 a3_x2
<= 1322202.255647

a3_local_5: 
+0.00001242685646096 a3_x4
+0.00000487916516233 a3_x6
+0.00001066871964039 a3_x5
<= 0.001151

a3_local_6: 
+2.76839093252617596 a3_x1
+2.65301325028949853 a3_x5
+2.98986249584610375 a3_x3
<= 278.648536

a3_local_7: 
+0.00405568074298390 a3_x6
+0.00317644777962853 a3_x4
+0.00554873367062006 a3_x1
<= 0.481844

a3_local_8: 
+5.59229863687717987 a3_x4
+2.73263424763930773 a3_x2
+5.25073271225498495 a3_x1
<= 858.648897

a3_act_1: 
+3801.41320667839454472 a3_x1
-380141.32066783943446353 a3_z1
<= 0.000000

a3_act_2: 
+0.00787136829421554 a3_x2
-0.78713682942155372 a3_z2
<= 0.000000

a4_local_1: 
+506.14696541797292184 a4_x5
+635.45917870133882843 a4_x2
+477.91806036941670754 a4_x1
<= 108354.798756

a4_local_2: 
+0.00027289766278999 a4_x4
+0.00014966055671948 a4_x2
+0.00031157632556539 a4_x6
<= 0.045828

a4_local_3: 
+136.14801690959754410 a4_x1
+97.20693113438227329 a4_x3
+102.78948800641768457 a4_x6
<= 16651.957913

a4_local_4: 
+900.98421365239778424 a4_x3
+1187.81743074436099050 a4_x4
+970.48496881643620782 a4_x1
<= 184675.924374

a4_local_5: 
+0.05677205548115524 a4_x6
+0.05865093854156365 a4_x3
+0.03103203481423333 a4_x4
<= 7.005606

a4_local_6: 
+0.55410477173770900 a4_x5
+1.18679902591218145 a4_x4
+0.58959751205058930 a4_x2
<= 130.505282

a4_local_7: 
+657250.31006929802242666 a4_x6
+476670.58655341109260917 a4_x2
+511788.11271850293269381 a4_x4
<= 111380884.809806

a4_local_8: 
+17.35403949009005231 a4_x6
+28.53923444898315509 a4_x2
+28.02549175219181166 a4_x1
<= 2671.318222

a4_act_1: 
+0.00002264235936546 a4_x1
-0.00226423593654648 a4_z1
<= 0.000000

a4_act_2: 
+392426.06953591195633635 a4_x2
-39242606.95359119772911072 a4_z2
<= 0.000000

coupling_1: 
+0.00004590492551947 a1_x1
+0.00034582302570625 a2_x1
+0.00140263623853855 a3_x1
+0.00724809202305707 a4_x1
+0.00053799659908821 short_1
-0.00053799659908821 surp_1
= 0.189302

coupling_2: 
+1.03710720843600002 a1_x2
+7.01069326776687962 a2_x2
+27.90966644497676086 a3_x2
+139.87920292769464936 a4_x2
+10.80533437225037474 short_2
-10.80533437225037474 surp_2
= 13809.711085

coupling_3: 
+0.00000786416101629 a1_x3
+0.00003917897782798 a2_x3
+0.00036677988441756 a3_x3
+0.00153747906971267 a4_x3
+0.00012983188798458 short_3
-0.00012983188798458 surp_3
= 0.108474

bounds
  0.000000 <= a1_x1 <= 100.000000
  0.000000 <= a1_x2 <= 100.000000
  0.000000 <= a1_x3 <= 100.000000
  0.000000 <= a1_x4 <= 100.000000
  0.000000 <= a1_x5 <= 100.000000
  0.000000 <= a1_x6 <= 100.000000
  0.000000 <= a2_x1 <= 100.000000
  0.000000 <= a2_x2 <= 100.000000
  0.000000 <= a2_x3 <= 100.000000
  0.000000 <= a2_x4 <= 100.000000
  0.000000 <= a2_x5 <= 100.000000
  0.000000 <= a2_x6 <= 100.000000
  0.000000 <= a3_x1 <= 100.000000
  0.000000 <= a3_x2 <= 100.000000
  0.000000 <= a3_x3 <= 100.000000
  0.000000 <= a3_x4 <= 100.000000
  0.000000 <= a3_x5 <= 100.000000
  0.000000 <= a3_x6 <= 100.000000
  0.000000 <= a4_x1 <= 100.000000
  0.000000 <= a4_x2 <= 100.000000
  0.000000 <= a4_x3 <= 100.000000
  0.000000 <= a4_x4 <= 100.000000
  0.000000 <= a4_x5 <= 100.000000
  0.000000 <= a4_x6 <= 100.000000
  0.000000 <= short_1 <= +inf
  0.000000 <= surp_1 <= +inf
  0.000000 <= short_2 <= +inf
  0.000000 <= surp_2 <= +inf
  0.000000 <= short_3 <= +inf
  0.000000 <= surp_3 <= +inf
 0 <= a1_z1 <= 1
 0 <= a1_z2 <= 1
 0 <= a2_z1 <= 1
 0 <= a2_z2 <= 1
 0 <= a3_z1 <= 1
 0 <= a3_z2 <= 1
 0 <= a4_z1 <= 1
 0 <= a4_z2 <= 1

binary
  a1_z1
  a1_z2
  a2_z1
  a2_z2
  a3_z1
  a3_z2
  a4_z1
  a4_z2
end
