min
obj: 
  +1.57709742578195788 a1_x1
  +5.24362332399284625 a1_x2
  +8.06959664561268042 a1_x3
  +3.47810228856863679 a1_x4
  +9.41205830682384104 a1_x5
  +8.31656886029670339 a1_x6
  +34.00140095985545230 a1_z1
  +10.41050343041974102 a1_z2
  +6.47735542906473949 a2_x1
  +9.58339357562265626 a2_x2
  +2.02682747423036602 a2_x3
  +2.51463833389198177 a2_x4
  +5.97191591647550446 a2_x5
  +2.17528344053247569 a2_x6
  +46.82093948760606850 a2_z1
  +31.11983884228734354 a2_z2
  +4.28980261171450117 a3_x1
  +6.29719392465862082 a3_x2
  +7.08124523691182794 a3_x3
  +4.94719983508523597 a3_x4
  +8.06509947106787273 a3_x5
  +5.84368483176889342 a3_x6
  +45.40847242123220440 a3_z1
  +47.68543785744964225 a3_z2
  +7.67454901318721916 a4_x1
  +9.54472766156331787 a4_x2
  +6.46859462349116754 a4_x3
  +6.10471800911878315 a4_x4
  +9.00917261972195327 a4_x5
  +9.20424430287105189 a4_x6
  +10.38795682780166985 a4_z1
  +22.65518679594919149 a4_z2
  +1000000.00000000000000000 short_1
  +1000000.00000000000000000 surp_1
  +1000000.00000000000000000 short_2
  +1000000.00000000000000000 surp_2
  +1000000.00000000000000000 short_3
  +1000000.00000000000000000 surp_3

s.t.

a1_local_1: 
+1.25251728369794479 a1_x1
+1.28047475064471095 a1_x6
+0.78096034263581260 a1_x5
<= 174.324198

a1_local_2: 
+1.07918455239658773 a1_x5
+0.59517578531382465 a1_x4
+1.68017588194170120 a1_x1
<= 104.856815

a1_local_3: 
+0.89270406332237739 a1_x2
+1.27473808822350643 a1_x3
+0.78447487310402308 a1_x5
<= 116.127721

a1_local_4: 
+1.65202439637865717 a1_x2
+1.32040787177383789 a1_x4
+0.60531793730895478 a1_x1
<= 179.890532

a1_local_5: 
+1.17224346563357096 a1_x1
+0.74675811547327620 a1_x3
+1.33912170390840113 a1_x2
<= 126.488598

a1_local_6: 
+1.20839175064972215 a1_x3
+0.96587917193756201 a1_x4
+0.82754619887327519 a1_x2
<= 126.016841

a1_local_7: 
+1.26620878411301163 a1_x1
+0.78975917127324868 a1_x4
+1.09088890428741636 a1_x3
<= 174.420611

a1_local_8: 
+1.24595273862437161 a1_x3
+0.80259866124944446 a1_x2
+1.10408261180190026 a1_x5
<= 144.066290

a1_act_1: 
+0.10000000000000001 a1_x1
-10.00000000000000000 a1_z1
<= 0.000000

a1_act_2: 
+0.10000000000000001 a1_x2
-10.00000000000000000 a1_z2
<= 0.000000

a2_local_1: 
+0.68054141092408726 a2_x3
+1.17237130954591806 a2_x6
+1.17245809263690592 a2_x4
<= 168.093027

a2_local_2: 
+1.55489262502666681 a2_x6
+0.64313122585094884 a2_x4
+1.44700712252029007 a2_x2
<= 195.864049

a2_local_3: 
+0.76130476611049114 a2_x4
+1.08828479047160243 a2_x5
+1.31353440109012309 a2_x2
<= 142.984804

a2_local_4: 
+1.04533189901843349 a2_x6
+1.18740334794681068 a2_x5
+0.84217380869705494 a2_x1
<= 102.270839

a2_local_5: 
+1.01658246627215632 a2_x6
+1.02807098843930134 a2_x5
+0.97269547652354660 a2_x2
<= 118.813989

a2_local_6: 
+0.84864798074129189 a2_x1
+0.58708286250058050 a2_x6
+1.03067512201259359 a2_x3
<= 126.469804

a2_local_7: 
+0.80454931070370916 a2_x2
+0.89037752881170584 a2_x4
+1.24293189577819341 a2_x5
<= 154.767389

a2_local_8: 
+0.89370985112736967 a2_x4
+0.91182239385060426 a2_x3
+1.11893138331031117 a2_x2
<= 94.186183

a2_act_1: 
+0.10000000000000001 a2_x1
-10.00000000000000000 a2_z1
<= 0.000000

a2_act_2: 
+0.09999999999999999 a2_x2
-9.99999999999999822 a2_z2
<= 0.000000

a3_local_1: 
+0.99491844976276522 a3_x3
+0.87679432982304117 a3_x4
+1.14051832452181223 a3_x2
<= 167.360356

a3_local_2: 
+0.75336589426491984 a3_x3
+0.90753637434175360 a3_x4
+1.32737625583081087 a3_x6
<= 195.397117

a3_local_3: 
+0.80466499375644918 a3_x2
+1.28337727311558547 a3_x3
+0.77919410055653737 a3_x5
<= 107.913639

a3_local_4: 
+0.78118964058423690 a3_x2
+1.28009890050784469 a3_x5
+1.12778051496382492 a3_x3
<= 167.413717

a3_local_5: 
+1.37842132396515726 a3_x2
+0.67828926617813468 a3_x5
+1.47429725024924174 a3_x3
<= 220.635892

a3_local_6: 
+1.07947718757152322 a3_x5
+0.92637437040210047 a3_x6
+1.04132979567016881 a3_x1
<= 160.771130

a3_local_7: 
+0.93910889416367194 a3_x3
+1.08521958431501808 a3_x5
+0.92147249685987920 a3_x2
<= 173.362418

a3_local_8: 
+0.80923264578732934 a3_x5
+1.23573857926488717 a3_x3
+0.82535701501189274 a3_x2
<= 159.865978

a3_act_1: 
+0.09999999999999999 a3_x1
-10.00000000000000000 a3_z1
<= 0.000000

a3_act_2: 
+0.09999999999999999 a3_x2
-9.99999999999999822 a3_z2
<= 0.000000

a4_local_1: 
+0.95020154027090087 a4_x6
+1.05974086980624360 a4_x1
+0.94362690775796321 a4_x3
<= 110.328984

a4_local_2: 
+0.77431874008728196 a4_x2
+1.29145783025641236 a4_x4
+0.85866900393110546 a4_x6
<= 164.295780

a4_local_3: 
+0.94068920870850525 a4_x3
+0.71408152094205990 a4_x2
+1.40040033339714354 a4_x1
<= 92.225516

a4_local_4: 
+0.80334177925406447 a4_x3
+1.21190160782223444 a4_x5
+1.24480019068414482 a4_x2
<= 200.478143

a4_local_5: 
+1.09580058488747611 a4_x3
+1.13020816742645236 a4_x2
+0.88479275660965762 a4_x1
<= 171.567519

a4_local_6: 
+1.65503417806812214 a4_x5
+0.60421712932072102 a4_x1
+1.51374596254360316 a4_x6
<= 179.450356

a4_local_7: 
+1.36152891924892616 a4_x6
+0.73446842432964266 a4_x3
+1.14952838892350462 a4_x2
<= 216.735460

a4_local_8: 
+0.75677666254288767 a4_x2
+0.89730537682946110 a4_x6
+1.32139381338722028 a4_x5
<= 151.056919

a4_act_1: 
+0.09999999999999999 a4_x1
-10.00000000000000000 a4_z1
<= 0.000000

a4_act_2: 
+0.10000000000000001 a4_x2
-10.00000000000000000 a4_z2
<= 0.000000

coupling_1: 
+0.00692948985658002 a1_x1
+0.04778026428372504 a2_x1
+0.19493276201189910 a3_x1
+0.97469611098730302 a4_x1
+0.06941807414479320 short_1
-0.06941807414479320 surp_1
= 90.296682

coupling_2: 
+0.00781113974599857 a1_x2
+0.03006353420550855 a2_x2
+0.22563455684954914 a3_x2
+0.96608758061387245 a4_x2
+0.08602035615447301 short_2
-0.08602035615447301 surp_2
= 44.292783

coupling_3: 
+0.01412136672864398 a1_x3
+0.04333444564623153 a2_x3
+0.16152073685155835 a3_x3
+0.97260260340623517 a4_x3
+0.11374959392585166 short_3
-0.11374959392585166 surp_3
= 69.554704

bounds
  0.000000 <= a1_x1 <= 100.000000
  0.000000 <= a1_x2 <= 100.000000
  0.000000 <= a1_x3 <= 100.000000
  0.000000 <= a1_x4 <= 100.000000
  0.000000 <= a1_x5 <= 100.000000
  0.000000 <= a1_x6 <= 100.000000
  0.000000 <= a2_x1 <= 100.000000
  0.000000 <= a2_x2 <= 100.000000
  0.000000 <= a2_x3 <= 100.000000
  0.000000 <= a2_x4 <= 100.000000
  0.000000 <= a2_x5 <= 100.000000
  0.000000 <= a2_x6 <= 100.000000
  0.000000 <= a3_x1 <= 100.000000
  0.000000 <= a3_x2 <= 100.000000
  0.000000 <= a3_x3 <= 100.000000
  0.000000 <= a3_x4 <= 100.000000
  0.000000 <= a3_x5 <= 100.000000
  0.000000 <= a3_x6 <= 100.000000
  0.000000 <= a4_x1 <= 100.000000
  0.000000 <= a4_x2 <= 100.000000
  0.000000 <= a4_x3 <= 100.000000
  0.000000 <= a4_x4 <= 100.000000
  0.000000 <= a4_x5 <= 100.000000
  0.000000 <= a4_x6 <= 100.000000
  0.000000 <= short_1 <= +inf
  0.000000 <= surp_1 <= +inf
  0.000000 <= short_2 <= +inf
  0.000000 <= surp_2 <= +inf
  0.000000 <= short_3 <= +inf
  0.000000 <= surp_3 <= +inf
 0 <= a1_z1 <= 1
 0 <= a1_z2 <= 1
 0 <= a2_z1 <= 1
 0 <= a2_z2 <= 1
 0 <= a3_z1 <= 1
 0 <= a3_z2 <= 1
 0 <= a4_z1 <= 1
 0 <= a4_z2 <= 1

binary
  a1_z1
  a1_z2
  a2_z1
  a2_z2
  a3_z1
  a3_z2
  a4_z1
  a4_z2
end
