min
obj: 
  +1.57709742578195788 a1_x1
  +5.24362332399284625 a1_x2
  +8.06959664561268042 a1_x3
  +3.47810228856863679 a1_x4
  +9.41205830682384104 a1_x5
  +8.31656886029670339 a1_x6
  +34.00140095985545230 a1_z1
  +10.41050343041974102 a1_z2
  +6.47735542906473949 a2_x1
  +9.58339357562265626 a2_x2
  +2.02682747423036602 a2_x3
  +2.51463833389198177 a2_x4
  +5.97191591647550446 a2_x5
  +2.17528344053247569 a2_x6
  +46.82093948760606850 a2_z1
  +31.11983884228734354 a2_z2
  +4.28980261171450117 a3_x1
  +6.29719392465862082 a3_x2
  +7.08124523691182794 a3_x3
  +4.94719983508523597 a3_x4
  +8.06509947106787273 a3_x5
  +5.84368483176889342 a3_x6
  +45.40847242123220440 a3_z1
  +47.68543785744964225 a3_z2
  +7.67454901318721916 a4_x1
  +9.54472766156331787 a4_x2
  +6.46859462349116754 a4_x3
  +6.10471800911878315 a4_x4
  +9.00917261972195327 a4_x5
  +9.20424430287105189 a4_x6
  +10.38795682780166985 a4_z1
  +22.65518679594919149 a4_z2
  +1000000.00000000000000000 short_1
  +1000000.00000000000000000 surp_1
  +1000000.00000000000000000 short_2
  +1000000.00000000000000000 surp_2
  +1000000.00000000000000000 short_3
  +1000000.00000000000000000 surp_3

s.t.

a1_local_1: 
+0.64098504467401418 a1_x1
+0.65529248652179217 a1_x6
+0.39966226943800787 a1_x5
<= 89.211706

a1_local_2: 
+0.51791392364174615 a1_x5
+0.28563217064578800 a1_x4
+0.80633704540358764 a1_x1
<= 50.322074

a1_local_3: 
+0.51223022241792837 a1_x2
+0.73143990408782500 a1_x3
+0.45012872153382205 a1_x5
<= 66.633648

a1_local_4: 
+0.75099222928415788 a1_x2
+0.60024298270744103 a1_x4
+0.27517091645972558 a1_x1
<= 81.776269

a1_local_5: 
+0.60736785680026173 a1_x1
+0.38691354606789718 a1_x3
+0.69383153170998368 a1_x2
<= 65.536820

a1_local_6: 
+0.68877257932184777 a1_x3
+0.55054256056530126 a1_x4
+0.47169399294514092 a1_x2
<= 71.828481

a1_local_7: 
+0.68498350042745670 a1_x1
+0.42723759969205399 a1_x4
+0.59014035411207078 a1_x3
<= 94.356667

a1_local_8: 
+0.67417171866082060 a1_x3
+0.43427756292491182 a1_x2
+0.59740730837336986 a1_x5
<= 77.952731

a1_act_1: 
+0.00999950003749688 a1_x1
-0.99995000374968745 a1_z1
<= 0.000000

a1_act_2: 
+0.00999950003749688 a1_x2
-0.99995000374968745 a1_z2
<= 0.000000

a2_local_1: 
+0.68054141092408726 a2_x3
+1.17237130954591806 a2_x6
+1.17245809263690592 a2_x4
<= 168.093027

a2_local_2: 
+0.70063395603317591 a2_x6
+0.28979465704822432 a2_x4
+0.65202079445337002 a2_x2
<= 88.256257

a2_local_3: 
+0.40755672572156987 a2_x4
+0.58260213990676446 a2_x5
+0.70318721681723706 a2_x2
<= 76.545453

a2_local_4: 
+0.58327457515925851 a2_x6
+0.66254764057874038 a2_x5
+0.46991636908744827 a2_x1
<= 57.065110

a2_local_5: 
+0.58338534803205944 a2_x6
+0.58997825684685656 a2_x5
+0.55819995713853032 a2_x2
<= 68.183687

a2_local_6: 
+0.84864798074129189 a2_x1
+0.58708286250058050 a2_x6
+1.03067512201259359 a2_x3
<= 126.469804

a2_local_7: 
+0.46567618922908605 a2_x2
+0.51535388704713037 a2_x4
+0.71941369036910197 a2_x5
<= 89.579951

a2_local_8: 
+0.52642759393292127 a2_x4
+0.53709654009455499 a2_x3
+0.65909126451839251 a2_x2
<= 55.479086

a2_act_1: 
+0.00999950003749688 a2_x1
-0.99995000374968757 a2_z1
<= 0.000000

a2_act_2: 
+0.00999950003749688 a2_x2
-0.99995000374968757 a2_z2
<= 0.000000

a3_local_1: 
+0.56881157551933192 a3_x3
+0.50127803366394641 a3_x4
+0.65205346753255045 a3_x2
<= 95.682724

a3_local_2: 
+0.42426419607962784 a3_x3
+0.51108656922784368 a3_x4
+0.74752284960382320 a3_x6
<= 110.039493

a3_local_3: 
+0.47237822426315723 a3_x2
+0.75340605349799261 a3_x3
+0.45742554781578015 a3_x5
<= 63.350654

a3_local_4: 
+0.41632820917113483 a3_x2
+0.68221755016079455 a3_x5
+0.60104079437336011 a3_x3
<= 89.221681

a3_local_5: 
+0.64737635948030325 a3_x2
+0.31855893998348123 a3_x5
+0.69240454283794950 a3_x3
<= 103.621772

a3_local_6: 
+0.61233116492222850 a3_x5
+0.52548391379954917 a3_x6
+0.59069213707556223 a3_x1
<= 91.197085

a3_local_7: 
+0.55063473608792679 a3_x3
+0.63630490896256409 a3_x5
+0.54029385545601227 a3_x2
<= 101.648882

a3_local_8: 
+0.47824837657156016 a3_x5
+0.73030910514649916 a3_x3
+0.48777771704618367 a3_x2
<= 94.479190

a3_act_1: 
+0.00999950003749688 a3_x1
-0.99995000374968745 a3_z1
<= 0.000000

a3_act_2: 
+0.00999950003749688 a3_x2
-0.99995000374968745 a3_z2
<= 0.000000

a4_local_1: 
+0.55640978656014128 a4_x6
+0.62055276295368056 a4_x1
+0.55255987712704135 a4_x3
<= 64.605374

a4_local_2: 
+0.44669998527998572 a4_x2
+0.74503452376760726 a4_x4
+0.49536116273405539 a4_x6
<= 94.781282

a4_local_3: 
+0.51349915663727086 a4_x3
+0.38979958032837603 a4_x2
+0.76444417932811393 a4_x1
<= 50.343646

a4_local_4: 
+0.41970762564987546 a4_x3
+0.63316057931486336 a4_x5
+0.65034851408534078 a4_x2
<= 104.740233

a4_local_5: 
+0.60681403829028890 a4_x3
+0.62586769129634812 a4_x2
+0.48996566810870601 a4_x1
<= 95.007778

a4_local_6: 
+0.71250079101605179 a4_x5
+0.26011860558008487 a4_x1
+0.65167548199435343 a4_x6
<= 77.254308

a4_local_7: 
+0.70643084178072268 a4_x6
+0.38107978459008390 a4_x3
+0.59643412340153257 a4_x2
<= 112.453442

a4_local_8: 
+0.42816950302948487 a4_x2
+0.50767791381381555 a4_x6
+0.74761889522746539 a4_x5
<= 85.465064

a4_act_1: 
+0.00999950003749688 a4_x1
-0.99995000374968757 a4_z1
<= 0.000000

a4_act_2: 
+0.00999950003749688 a4_x2
-0.99995000374968768 a4_z2
<= 0.000000

coupling_1: 
+0.00692948985658002 a1_x1
+0.04778026428372504 a2_x1
+0.19493276201189910 a3_x1
+0.97469611098730302 a4_x1
+0.06941807414479320 short_1
-0.06941807414479320 surp_1
= 90.296682

coupling_2: 
+0.00781113974599857 a1_x2
+0.03006353420550855 a2_x2
+0.22563455684954914 a3_x2
+0.96608758061387245 a4_x2
+0.08602035615447301 short_2
-0.08602035615447301 surp_2
= 44.292783

coupling_3: 
+0.01412136672864398 a1_x3
+0.04333444564623153 a2_x3
+0.16152073685155835 a3_x3
+0.97260260340623517 a4_x3
+0.11374959392585166 short_3
-0.11374959392585166 surp_3
= 69.554704

bounds
  0.000000 <= a1_x1 <= 100.000000
  0.000000 <= a1_x2 <= 100.000000
  0.000000 <= a1_x3 <= 100.000000
  0.000000 <= a1_x4 <= 100.000000
  0.000000 <= a1_x5 <= 100.000000
  0.000000 <= a1_x6 <= 100.000000
  0.000000 <= a2_x1 <= 100.000000
  0.000000 <= a2_x2 <= 100.000000
  0.000000 <= a2_x3 <= 100.000000
  0.000000 <= a2_x4 <= 100.000000
  0.000000 <= a2_x5 <= 100.000000
  0.000000 <= a2_x6 <= 100.000000
  0.000000 <= a3_x1 <= 100.000000
  0.000000 <= a3_x2 <= 100.000000
  0.000000 <= a3_x3 <= 100.000000
  0.000000 <= a3_x4 <= 100.000000
  0.000000 <= a3_x5 <= 100.000000
  0.000000 <= a3_x6 <= 100.000000
  0.000000 <= a4_x1 <= 100.000000
  0.000000 <= a4_x2 <= 100.000000
  0.000000 <= a4_x3 <= 100.000000
  0.000000 <= a4_x4 <= 100.000000
  0.000000 <= a4_x5 <= 100.000000
  0.000000 <= a4_x6 <= 100.000000
  0.000000 <= short_1 <= +inf
  0.000000 <= surp_1 <= +inf
  0.000000 <= short_2 <= +inf
  0.000000 <= surp_2 <= +inf
  0.000000 <= short_3 <= +inf
  0.000000 <= surp_3 <= +inf
 0 <= a1_z1 <= 1
 0 <= a1_z2 <= 1
 0 <= a2_z1 <= 1
 0 <= a2_z2 <= 1
 0 <= a3_z1 <= 1
 0 <= a3_z2 <= 1
 0 <= a4_z1 <= 1
 0 <= a4_z2 <= 1

binary
  a1_z1
  a1_z2
  a2_z1
  a2_z2
  a3_z1
  a3_z2
  a4_z1
  a4_z2
end
