min
obj: 
  +3.05711040055168581 a1_x1
  +8.05560131874530505 a1_x2
  +1.97423451738110156 a1_x3
  +4.43855917145081946 a1_x4
  +2.09177435273224699 a1_x5
  +8.36067334918018190 a1_x6
  +15.66642560195388789 a1_z1
  +12.32473257168471292 a1_z2
  +3.90447270498543908 a2_x1
  +3.19064241710492480 a2_x2
  +7.25662050376060552 a2_x3
  +4.24034203150857802 a2_x4
  +1.72165381936256479 a2_x5
  +9.86521199550605488 a2_x6
  +47.43293385770623871 a2_z1
  +10.01849972745584338 a2_z2
  +7.66342890098139051 a3_x1
  +6.60319515439368221 a3_x2
  +5.66277254283255616 a3_x3
  +4.15025934339557701 a3_x4
  +2.04336446202724131 a3_x5
  +3.95648142420414572 a3_x6
  +26.64691344464440093 a3_z1
  +25.19269856348255487 a3_z2
  +2.43191733608034033 a4_x1
  +1.25980278183489802 a4_x2
  +6.71866199762658312 a4_x3
  +9.23282830324045278 a4_x4
  +5.85378359150520033 a4_x5
  +9.83498899970064500 a4_x6
  +10.08347259986509314 a4_z1
  +40.29173016694412013 a4_z2
  +1000000.00000000000000000 short_1
  +1000000.00000000000000000 surp_1
  +1000000.00000000000000000 short_2
  +1000000.00000000000000000 surp_2
  +1000000.00000000000000000 short_3
  +1000000.00000000000000000 surp_3

s.t.

a1_local_1: 
+0.02159009624309490 a1_x5
+0.03553644867572676 a1_x1
+0.01495898027002566 a1_x6
<= 2.820096

a1_local_2: 
+0.07249140670473342 a1_x6
+0.14460817118931305 a1_x4
+0.12610658657133117 a1_x2
<= 14.688640

a1_local_3: 
+2140.96258631903629066 a1_x4
+952.10369546040544719 a1_x5
+1658.91258478851705149 a1_x1
<= 314119.063349

a1_local_4: 
+9643.93099152368995419 a1_x3
+3428.89419125283075118 a1_x1
+4248.47234025058969564 a1_x4
<= 763703.954911

a1_local_5: 
+81.61507798269396119 a1_x4
+96.54343679220184526 a1_x5
+109.06718956758778916 a1_x1
<= 8871.787632

a1_local_6: 
+0.43289932106181034 a1_x2
+0.56315894483068618 a1_x5
+0.72381356598419666 a1_x6
<= 65.232797

a1_local_7: 
+0.00000097551439531 a1_x1
+0.00000109063269318 a1_x3
+0.00000087953760341 a1_x5
<= 0.000173

a1_local_8: 
+37.82338074283619278 a1_x3
+33.20558278540439545 a1_x4
+24.36804705608520294 a1_x1
<= 3386.509571

a1_act_1: 
+0.00005287458637580 a1_x1
-0.00528745863758019 a1_z1
<= 0.000000

a1_act_2: 
+11.28412092945715450 a1_x2
-1128.41209294571535793 a1_z2
<= 0.000000

a2_local_1: 
+771.91540868133040476 a2_x2
+442.63389460051740798 a2_x6
+1135.65718243179298952 a2_x4
<= 159924.096842

a2_local_2: 
+0.00051953617519196 a2_x2
+0.00056338348619489 a2_x5
+0.00058559016842187 a2_x3
<= 0.101237

a2_local_3: 
+0.28684236090054438 a2_x3
+0.22733318152552259 a2_x5
+0.23863518749685303 a2_x2
<= 34.478440

a2_local_4: 
+0.00023201612160340 a2_x1
+0.00049573786461686 a2_x5
+0.00033597317494102 a2_x6
<= 0.068274

a2_local_5: 
+153.31922392902433216 a2_x2
+185.53154944991263164 a2_x6
+104.52351400110516977 a2_x1
<= 26546.598241

a2_local_6: 
+0.00000634065094712 a2_x1
+0.00000812540083862 a2_x5
+0.00000474325690898 a2_x4
<= 0.001258

a2_local_7: 
+3.51316230465368484 a2_x6
+2.38044121928128138 a2_x3
+3.93159689963391612 a2_x4
<= 312.047650

a2_local_8: 
+0.02742688472346229 a2_x3
+0.03082482442831783 a2_x1
+0.01841469833112705 a2_x4
<= 4.088943

a2_act_1: 
+276.40564687645121467 a2_x1
-27640.56468764512101188 a2_z1
<= 0.000000

a2_act_2: 
+0.05512928408057442 a2_x2
-5.51292840805744166 a2_z2
<= 0.000000

a3_local_1: 
+8.29476780470115038 a3_x5
+7.64588958123467233 a3_x6
+4.38781456382547752 a3_x2
<= 940.791272

a3_local_2: 
+7842.42550427875539754 a3_x3
+5923.68022338135506288 a3_x1
+10199.37745959917992877 a3_x5
<= 1546452.142195

a3_local_3: 
+2.18498553236489279 a3_x6
+4.08766746513265300 a3_x2
+4.61867695930879485 a3_x3
<= 531.823065

a3_local_4: 
+2118.85512381029593598 a3_x5
+2896.22942959372903715 a3_x6
+2619.15933339681168945 a3_x3
<= 316359.824982

a3_local_5: 
+0.00004386307359320 a3_x5
+0.00003111273881904 a3_x6
+0.00002523484736802 a3_x4
<= 0.003790

a3_local_6: 
+0.00302649029348481 a3_x3
+0.00246233969077006 a3_x6
+0.00324338403763009 a3_x2
<= 0.280702

a3_local_7: 
+132356.10980871188803576 a3_x4
+131877.79606901947408915 a3_x6
+140258.80311833485029638 a3_x3
<= 14084262.187904

a3_local_8: 
+5.24933960429051805 a3_x6
+3.17458112357081301 a3_x3
+2.47095616301113408 a3_x5
<= 569.723213

a3_act_1: 
+0.00001312824710308 a3_x1
-0.00131282471030836 a3_z1
<= 0.000000

a3_act_2: 
+9.02562598275485151 a3_x2
-902.56259827548512931 a3_z2
<= 0.000000

a4_local_1: 
+10295.73965200779275619 a4_x4
+20498.48103157104196725 a4_x1
+8055.38689931844328385 a4_x6
<= 2497646.110414

a4_local_2: 
+896.96358626020332849 a4_x2
+987.96848889034754393 a4_x6
+422.73510413403511166 a4_x1
<= 122654.968604

a4_local_3: 
+660163.64804570761043578 a4_x4
+959291.12639827444218099 a4_x3
+719875.76349732175003737 a4_x5
<= 96264756.746520

a4_local_4: 
+9.20976214847047636 a4_x1
+17.53664436227853685 a4_x6
+10.63732172043156510 a4_x4
<= 2578.057208

a4_local_5: 
+1095297.10260483738966286 a4_x3
+1073116.98482541227713227 a4_x6
+1158215.90078235464170575 a4_x4
<= 205948305.703086

a4_local_6: 
+0.05251393101809238 a4_x3
+0.03129411950230902 a4_x1
+0.03968582335660623 a4_x5
<= 5.305797

a4_local_7: 
+1097.16325303790313228 a4_x5
+1853.82620199070424860 a4_x4
+1057.90763701270043384 a4_x3
<= 230739.448972

a4_local_8: 
+0.00011545720539076 a4_x1
+0.00015062853295643 a4_x4
+0.00011847409361124 a4_x6
<= 0.015227

a4_act_1: 
+1.33096042445541096 a4_x1
-133.09604244554108732 a4_z1
<= 0.000000

a4_act_2: 
+0.00074643660746783 a4_x2
-0.07464366074678265 a4_z2
<= 0.000000

coupling_1: 
+0.00004184689766499 a1_x1
+0.00010771148085029 a2_x1
+0.00062838317430808 a3_x1
+0.00299813193930878 a4_x1
+0.00031730102119019 short_1
-0.00031730102119019 surp_1
= 0.119344

coupling_2: 
+0.00111878241038639 a1_x2
+0.00436723331056372 a2_x2
+0.01738781547482158 a3_x2
+0.09219329715493614 a4_x2
+0.00838735962964515 short_2
-0.00838735962964515 surp_2
= 5.048658

coupling_3: 
+0.00000006981343895 a1_x3
+0.00000049502455508 a2_x3
+0.00000240440749861 a3_x3
+0.00001877458617125 a4_x3
+0.00000126797589854 short_3
-0.00000126797589854 surp_3
= 0.001495

bounds
  0.000000 <= a1_x1 <= 100.000000
  0.000000 <= a1_x2 <= 100.000000
  0.000000 <= a1_x3 <= 100.000000
  0.000000 <= a1_x4 <= 100.000000
  0.000000 <= a1_x5 <= 100.000000
  0.000000 <= a1_x6 <= 100.000000
  0.000000 <= a2_x1 <= 100.000000
  0.000000 <= a2_x2 <= 100.000000
  0.000000 <= a2_x3 <= 100.000000
  0.000000 <= a2_x4 <= 100.000000
  0.000000 <= a2_x5 <= 100.000000
  0.000000 <= a2_x6 <= 100.000000
  0.000000 <= a3_x1 <= 100.000000
  0.000000 <= a3_x2 <= 100.000000
  0.000000 <= a3_x3 <= 100.000000
  0.000000 <= a3_x4 <= 100.000000
  0.000000 <= a3_x5 <= 100.000000
  0.000000 <= a3_x6 <= 100.000000
  0.000000 <= a4_x1 <= 100.000000
  0.000000 <= a4_x2 <= 100.000000
  0.000000 <= a4_x3 <= 100.000000
  0.000000 <= a4_x4 <= 100.000000
  0.000000 <= a4_x5 <= 100.000000
  0.000000 <= a4_x6 <= 100.000000
  0.000000 <= short_1 <= +inf
  0.000000 <= surp_1 <= +inf
  0.000000 <= short_2 <= +inf
  0.000000 <= surp_2 <= +inf
  0.000000 <= short_3 <= +inf
  0.000000 <= surp_3 <= +inf
 0 <= a1_z1 <= 1
 0 <= a1_z2 <= 1
 0 <= a2_z1 <= 1
 0 <= a2_z2 <= 1
 0 <= a3_z1 <= 1
 0 <= a3_z2 <= 1
 0 <= a4_z1 <= 1
 0 <= a4_z2 <= 1

binary
  a1_z1
  a1_z2
  a2_z1
  a2_z2
  a3_z1
  a3_z2
  a4_z1
  a4_z2
end
