min
obj: 
  +2.86702301288668870 a1_x1
  +4.61217347674817457 a1_x2
  +8.37266539443051627 a1_x3
  +3.88741117842564377 a1_x4
  +3.57352147071314707 a1_x5
  +7.90632682258909369 a1_x6
  +32.52167325628295202 a1_z1
  +46.95512094955829951 a1_z2
  +1.34162249297538905 a2_x1
  +5.04177078463243156 a2_x2
  +1.10989142532268992 a2_x3
  +7.53499127677043390 a2_x4
  +4.74514201764349153 a2_x5
  +4.92271964690250208 a2_x6
  +7.37175972020868908 a2_z1
  +32.23919956008293042 a2_z2
  +7.19883337190115391 a3_x1
  +9.69659328832065093 a3_x2
  +2.68145044350852224 a3_x3
  +4.74181989860472974 a3_x4
  +5.40392510460596665 a3_x5
  +9.85025370993833427 a3_x6
  +17.99205279831755888 a3_z1
  +28.73085531973273987 a3_z2
  +5.38171902546503311 a4_x1
  +3.72975403904797487 a4_x2
  +6.65779047476273789 a4_x3
  +5.43042814174023825 a4_x4
  +9.71759449267787367 a4_x5
  +8.04794548671517163 a4_x6
  +7.84716545501873153 a4_z1
  +24.37447779336789466 a4_z2
  +1000000.00000000000000000 short_1
  +1000000.00000000000000000 surp_1
  +1000000.00000000000000000 short_2
  +1000000.00000000000000000 surp_2
  +1000000.00000000000000000 short_3
  +1000000.00000000000000000 surp_3

s.t.

a1_local_1: 
+133.86872415872289821 a1_x3
+235.01782505991724292 a1_x1
+208.81698515348813316 a1_x2
<= 34743.406102

a1_local_2: 
+17552.20615178440857562 a1_x4
+13182.81635210683816695 a1_x6
+12125.90224242365729879 a1_x2
<= 1606019.407731

a1_local_3: 
+235.63246447661700245 a1_x3
+110.87821194069219644 a1_x4
+118.13743206225522897 a1_x1
<= 30322.773016

a1_local_4: 
+860.82561607620698396 a1_x3
+783.16571779659113872 a1_x6
+2115.85153389011202307 a1_x1
<= 206019.876134

a1_local_5: 
+0.00002590338438149 a1_x5
+0.00003744965129161 a1_x1
+0.00003517091468558 a1_x3
<= 0.005025

a1_local_6: 
+0.00015950711928100 a1_x6
+0.00012864612939764 a1_x3
+0.00011931984445932 a1_x1
<= 0.018618

a1_local_7: 
+606.62129471237233247 a1_x4
+828.80131156628294775 a1_x3
+757.41918989269186113 a1_x6
<= 75927.882460

a1_local_8: 
+0.73519710577199604 a1_x6
+0.90736141033577089 a1_x3
+0.71205411002393382 a1_x2
<= 86.556568

a1_act_1: 
+0.06350623144148189 a1_x1
-6.35062314414818907 a1_z1
<= 0.000000

a1_act_2: 
+0.00000573905416221 a1_x2
-0.00057390541622053 a1_z2
<= 0.000000

a2_local_1: 
+478.20127901285007965 a2_x3
+744.51454604365017076 a2_x1
+618.04098040110216061 a2_x4
<= 83215.641966

a2_local_2: 
+1236.21147940155174183 a2_x3
+773.64303645191068881 a2_x4
+896.47139571075001641 a2_x1
<= 189098.515346

a2_local_3: 
+0.00063056171000078 a2_x2
+0.00087870279097194 a2_x5
+0.00116880334835297 a2_x6
<= 0.163740

a2_local_4: 
+2.91738354675118261 a2_x3
+2.56877998815364483 a2_x4
+2.00899080851167655 a2_x2
<= 451.041821

a2_local_5: 
+14.00139290907561040 a2_x3
+21.43833538399392324 a2_x5
+26.27778589472491078 a2_x6
<= 3861.642474

a2_local_6: 
+0.03167016982644633 a2_x2
+0.07374581041705296 a2_x5
+0.03930217156193130 a2_x1
<= 9.719323

a2_local_7: 
+10.56431545259908056 a2_x6
+16.75221194889144272 a2_x2
+11.33725519032429752 a2_x5
<= 1882.725093

a2_local_8: 
+0.00000165897078458 a2_x2
+0.00000222538561930 a2_x4
+0.00000154180142842 a2_x6
<= 0.000355

a2_act_1: 
+0.00015924100584423 a2_x1
-0.01592410058442332 a2_z1
<= 0.000000

a2_act_2: 
+141.53641529112923081 a2_x2
-14153.64152911292330828 a2_z2
<= 0.000000

a3_local_1: 
+0.09048394113820850 a3_x6
+0.12407622234254236 a3_x2
+0.09107453184546713 a3_x1
<= 15.654777

a3_local_2: 
+0.00005413031954210 a3_x3
+0.00003714030938756 a3_x1
+0.00004317098237475 a3_x4
<= 0.007751

a3_local_3: 
+27.14431675006116507 a3_x4
+21.94141446164002929 a3_x1
+32.12498056841489813 a3_x6
<= 4732.845108

a3_local_4: 
+37.04550502371986909 a3_x1
+37.29455480241068699 a3_x3
+26.24208948099488481 a3_x5
<= 3689.497032

a3_local_5: 
+6.99214546939853854 a3_x5
+14.84364818862182567 a3_x4
+19.51098467839073081 a3_x6
<= 1783.956792

a3_local_6: 
+36.65959692699424011 a3_x2
+60.59020779663806167 a3_x3
+62.26091858050190098 a3_x6
<= 8528.376596

a3_local_7: 
+95122.53445576045487542 a3_x4
+55137.41321018344024196 a3_x1
+113839.85313843791664112 a3_x2
<= 14183350.181763

a3_local_8: 
+90.25812159515173505 a3_x2
+42.49223611200223161 a3_x1
+66.49538996470182894 a3_x5
<= 6520.675583

a3_act_1: 
+5.49435142381746555 a3_x1
-549.43514238174657294 a3_z1
<= 0.000000

a3_act_2: 
+0.00002999008485637 a3_x2
-0.00299900848563669 a3_z2
<= 0.000000

a4_local_1: 
+1851.04904559868123215 a4_x1
+3308.71734690837774906 a4_x4
+2484.70803196491806375 a4_x3
<= 306346.543640

a4_local_2: 
+44.86354714015745060 a4_x1
+32.39530707493831585 a4_x6
+33.41341350569505408 a4_x3
<= 5192.282957

a4_local_3: 
+0.02501044424170068 a4_x2
+0.01577338442986593 a4_x5
+0.03417688401901885 a4_x1
<= 4.272137

a4_local_4: 
+0.00012779038165149 a4_x5
+0.00013205537189220 a4_x4
+0.00019417581887777 a4_x3
<= 0.019625

a4_local_5: 
+383475.27797719946829602 a4_x1
+695040.76538341422565281 a4_x4
+803518.13854516134597361 a4_x2
<= 76208611.035832

a4_local_6: 
+92.27264222342877531 a4_x4
+109.59813535196703072 a4_x2
+60.04879516495849145 a4_x6
<= 13347.759441

a4_local_7: 
+134.43252784282489642 a4_x2
+143.48039505130284965 a4_x1
+173.09322846801873652 a4_x3
<= 21711.800103

a4_local_8: 
+6.34026515454821560 a4_x1
+3.95611136956143783 a4_x2
+7.21977212873014551 a4_x5
<= 1141.456098

a4_act_1: 
+0.12433034612835597 a4_x1
-12.43303461283559663 a4_z1
<= 0.000000

a4_act_2: 
+0.00043403942169190 a4_x2
-0.04340394216919048 a4_z2
<= 0.000000

coupling_1: 
+22463.81510102973334142 a1_x1
+86785.22662395257793833 a2_x1
+395678.20109729171963409 a3_x1
+1859074.96441686782054603 a4_x1
+152254.62414554430870339 short_1
-152254.62414554430870339 surp_1
= 59178396.594863

coupling_2: 
+0.13682463775455250 a1_x2
+0.75542345517634579 a2_x2
+4.94196792157861076 a3_x2
+15.53399826259241223 a4_x2
+2.03987286678161617 short_2
-2.03987286678161617 surp_2
= 484.869276

coupling_3: 
+2.80190565827180738 a1_x3
+12.60738415553106684 a2_x3
+43.91263162864390779 a3_x3
+123.96747726796169786 a4_x3
+19.06649967744712626 short_3
-19.06649967744712626 surp_3
= 3773.870628

bounds
  0.000000 <= a1_x1 <= 100.000000
  0.000000 <= a1_x2 <= 100.000000
  0.000000 <= a1_x3 <= 100.000000
  0.000000 <= a1_x4 <= 100.000000
  0.000000 <= a1_x5 <= 100.000000
  0.000000 <= a1_x6 <= 100.000000
  0.000000 <= a2_x1 <= 100.000000
  0.000000 <= a2_x2 <= 100.000000
  0.000000 <= a2_x3 <= 100.000000
  0.000000 <= a2_x4 <= 100.000000
  0.000000 <= a2_x5 <= 100.000000
  0.000000 <= a2_x6 <= 100.000000
  0.000000 <= a3_x1 <= 100.000000
  0.000000 <= a3_x2 <= 100.000000
  0.000000 <= a3_x3 <= 100.000000
  0.000000 <= a3_x4 <= 100.000000
  0.000000 <= a3_x5 <= 100.000000
  0.000000 <= a3_x6 <= 100.000000
  0.000000 <= a4_x1 <= 100.000000
  0.000000 <= a4_x2 <= 100.000000
  0.000000 <= a4_x3 <= 100.000000
  0.000000 <= a4_x4 <= 100.000000
  0.000000 <= a4_x5 <= 100.000000
  0.000000 <= a4_x6 <= 100.000000
  0.000000 <= short_1 <= +inf
  0.000000 <= surp_1 <= +inf
  0.000000 <= short_2 <= +inf
  0.000000 <= surp_2 <= +inf
  0.000000 <= short_3 <= +inf
  0.000000 <= surp_3 <= +inf
 0 <= a1_z1 <= 1
 0 <= a1_z2 <= 1
 0 <= a2_z1 <= 1
 0 <= a2_z2 <= 1
 0 <= a3_z1 <= 1
 0 <= a3_z2 <= 1
 0 <= a4_z1 <= 1
 0 <= a4_z2 <= 1

binary
  a1_z1
  a1_z2
  a2_z1
  a2_z2
  a3_z1
  a3_z2
  a4_z1
  a4_z2
end
