min
obj: 
  +1.58690782181034451 a1_x1
  +1.85914319529187777 a1_x2
  +3.32311090405199927 a1_x3
  +9.20870591814637862 a1_x4
  +9.62032466035919853 a1_x5
  +2.65221673698665317 a1_x6
  +45.97121590191820673 a1_z1
  +15.23159126469524693 a1_z2
  +7.38516429138446995 a2_x1
  +8.18461543331298103 a2_x2
  +6.32869026358351139 a2_x3
  +1.72084034317845602 a2_x4
  +2.51957804121249751 a2_x5
  +8.19694216322757185 a2_x6
  +32.90972281828447876 a2_z1
  +29.00608133785045339 a2_z2
  +9.62518175189459946 a3_x1
  +3.90094189534807345 a3_x2
  +1.32195101356612454 a3_x3
  +4.74857750195312356 a3_x4
  +3.55589835486331518 a3_x5
  +8.12436598238075014 a3_x6
  +20.82211554905935103 a3_z1
  +25.22287462451485496 a3_z2
  +3.97402812736189226 a4_x1
  +5.87257606585061964 a4_x2
  +8.54493066197249362 a4_x3
  +7.89453690964795740 a4_x4
  +2.70429770668290548 a4_x5
  +9.26226871331643586 a4_x6
  +13.31023289155729650 a4_z1
  +27.54299042523267715 a4_z2
  +1000000.00000000000000000 short_1
  +1000000.00000000000000000 surp_1
  +1000000.00000000000000000 short_2
  +1000000.00000000000000000 surp_2
  +1000000.00000000000000000 short_3
  +1000000.00000000000000000 surp_3

s.t.

a1_local_1: 
+0.00000353763501797 a1_x4
+0.00000458506102807 a1_x1
+0.00000325622222013 a1_x3
<= 0.000504

a1_local_2: 
+668.95165410702418285 a1_x2
+454.71789945024215740 a1_x4
+518.69733158565986741 a1_x3
<= 110596.111997

a1_local_3: 
+0.00000046675278285 a1_x6
+0.00000093579787808 a1_x4
+0.00000055895101073 a1_x1
<= 0.000085

a1_local_4: 
+0.00003748494979672 a1_x6
+0.00003331425967569 a1_x2
+0.00003068263883711 a1_x1
<= 0.003976

a1_local_5: 
+0.00233538451994018 a1_x1
+0.00340250614640186 a1_x2
+0.00395698535675801 a1_x5
<= 0.506003

a1_local_6: 
+0.00000076000431533 a1_x1
+0.00000120252167933 a1_x2
+0.00000107062538283 a1_x6
<= 0.000110

a1_local_7: 
+0.00000041115188710 a1_x5
+0.00000087465924302 a1_x2
+0.00000075345298043 a1_x4
<= 0.000135

a1_local_8: 
+0.00001947876776861 a1_x1
+0.00001372462325626 a1_x2
+0.00001916675316444 a1_x3
<= 0.003281

a1_act_1: 
+80.12933807745518777 a1_x1
-8012.93380774551860668 a1_z1
<= 0.000000

a1_act_2: 
+449.36641123088736549 a1_x2
-44936.64112308873882284 a1_z2
<= 0.000000

a2_local_1: 
+5.41110661881317512 a2_x1
+13.77216164072757820 a2_x5
+8.25099691729396767 a2_x3
<= 1468.555651

a2_local_2: 
+5.82592018911252030 a2_x4
+13.76772536011916870 a2_x2
+11.23623396691124299 a2_x5
<= 1410.853813

a2_local_3: 
+0.02329164336503869 a2_x2
+0.02072221625878563 a2_x1
+0.01892889152237581 a2_x5
<= 2.091999

a2_local_4: 
+0.00227735240781507 a2_x6
+0.00155353641541241 a2_x2
+0.00229502435900963 a2_x4
<= 0.286203

a2_local_5: 
+0.00009727742394003 a2_x1
+0.00017620628081597 a2_x6
+0.00015349795407673 a2_x2
<= 0.020241

a2_local_6: 
+12.49203977314577863 a2_x4
+13.08721545267374076 a2_x6
+12.03589833048700619 a2_x5
<= 1972.435917

a2_local_7: 
+8.92437655022409260 a2_x4
+6.15889727814845234 a2_x6
+11.95645845799067963 a2_x3
<= 1663.499440

a2_local_8: 
+0.00000152958934189 a2_x5
+0.00000133350146093 a2_x1
+0.00000102073971895 a2_x4
<= 0.000253

a2_act_1: 
+0.42594959901698443 a2_x1
-42.59495990169844504 a2_z1
<= 0.000000

a2_act_2: 
+436.73846818858299912 a2_x2
-43673.84681885829922976 a2_z2
<= 0.000000

a3_local_1: 
+0.00241934352983175 a3_x3
+0.00280534321513082 a3_x5
+0.00124593570231194 a3_x4
<= 0.224187

a3_local_2: 
+31918.72641411657969002 a3_x3
+35487.20227011516544735 a3_x5
+23962.78551341256024898 a3_x2
<= 4652874.297002

a3_local_3: 
+1316.61955209059237859 a3_x5
+1679.73781067425807123 a3_x6
+1873.13918074923435597 a3_x2
<= 244284.136191

a3_local_4: 
+0.02656618066542580 a3_x4
+0.02324021554213603 a3_x3
+0.01118637142021444 a3_x1
<= 2.663328

a3_local_5: 
+0.00042340605900308 a3_x1
+0.00036031896201062 a3_x4
+0.00019592519305914 a3_x5
<= 0.056205

a3_local_6: 
+0.00002051641450032 a3_x5
+0.00003724993643450 a3_x4
+0.00002896299105965 a3_x6
<= 0.003508

a3_local_7: 
+1277.89941710258085550 a3_x5
+980.77976650945208803 a3_x4
+1145.08023346148229393 a3_x2
<= 206643.183072

a3_local_8: 
+3697.18711314342181140 a3_x6
+1689.44806167644219386 a3_x2
+2801.12240369474420731 a3_x3
<= 446746.580018

a3_act_1: 
+0.00003028450026207 a3_x1
-0.00302845002620692 a3_z1
<= 0.000000

a3_act_2: 
+128141.03396411341964267 a3_x2
-12814103.39641134254634380 a3_z2
<= 0.000000

a4_local_1: 
+0.00011206682447963 a4_x3
+0.00009395668978457 a4_x2
+0.00015144490897009 a4_x4
<= 0.021158

a4_local_2: 
+25.41620231953088549 a4_x5
+12.86490853732668782 a4_x4
+26.95361661277530629 a4_x1
<= 2617.481387

a4_local_3: 
+3.46957261493447966 a4_x3
+4.20076243480988598 a4_x2
+4.59421650801856885 a4_x6
<= 703.135678

a4_local_4: 
+348746.45461828558472916 a4_x1
+412782.10060538694960997 a4_x6
+397273.01268907380290329 a4_x5
<= 53533958.095749

a4_local_5: 
+1.43832626217856796 a4_x1
+1.59322109468472539 a4_x2
+1.35517538634047097 a4_x6
<= 172.562827

a4_local_6: 
+26.14613155569129077 a4_x6
+76.81003565660228105 a4_x3
+43.79358762747444445 a4_x5
<= 6018.356291

a4_local_7: 
+0.15920942668284438 a4_x1
+0.16715912484109693 a4_x4
+0.23232844848146600 a4_x5
<= 17.990031

a4_local_8: 
+0.00008195520751115 a4_x5
+0.00007220520945788 a4_x1
+0.00011093801438199 a4_x6
<= 0.015126

a4_act_1: 
+33285.11012064843816916 a4_x1
-3328511.01206484390422702 a4_z1
<= 0.000000

a4_act_2: 
+8298.85402363369212253 a4_x2
-829885.40236336924135685 a4_z2
<= 0.000000

coupling_1: 
+0.13736557864692117 a1_x1
+0.43172965081044157 a2_x1
+1.44390027560824330 a3_x1
+13.18552041588504409 a4_x1
+0.93490743232512796 short_1
-0.93490743232512796 surp_1
= 903.370150

coupling_2: 
+799.30259964311790100 a1_x2
+1806.92146564077484072 a2_x2
+20876.99874718279534136 a3_x2
+60962.49848965102864895 a4_x2
+7069.56300328705401625 short_2
-7069.56300328705401625 surp_2
= 6563982.031078

coupling_3: 
+0.00000021404400333 a1_x3
+0.00000088116151088 a2_x3
+0.00000836976224464 a3_x3
+0.00002760431449170 a4_x3
+0.00000324798375829 short_3
-0.00000324798375829 surp_3
= 0.001890

bounds
  0.000000 <= a1_x1 <= 100.000000
  0.000000 <= a1_x2 <= 100.000000
  0.000000 <= a1_x3 <= 100.000000
  0.000000 <= a1_x4 <= 100.000000
  0.000000 <= a1_x5 <= 100.000000
  0.000000 <= a1_x6 <= 100.000000
  0.000000 <= a2_x1 <= 100.000000
  0.000000 <= a2_x2 <= 100.000000
  0.000000 <= a2_x3 <= 100.000000
  0.000000 <= a2_x4 <= 100.000000
  0.000000 <= a2_x5 <= 100.000000
  0.000000 <= a2_x6 <= 100.000000
  0.000000 <= a3_x1 <= 100.000000
  0.000000 <= a3_x2 <= 100.000000
  0.000000 <= a3_x3 <= 100.000000
  0.000000 <= a3_x4 <= 100.000000
  0.000000 <= a3_x5 <= 100.000000
  0.000000 <= a3_x6 <= 100.000000
  0.000000 <= a4_x1 <= 100.000000
  0.000000 <= a4_x2 <= 100.000000
  0.000000 <= a4_x3 <= 100.000000
  0.000000 <= a4_x4 <= 100.000000
  0.000000 <= a4_x5 <= 100.000000
  0.000000 <= a4_x6 <= 100.000000
  0.000000 <= short_1 <= +inf
  0.000000 <= surp_1 <= +inf
  0.000000 <= short_2 <= +inf
  0.000000 <= surp_2 <= +inf
  0.000000 <= short_3 <= +inf
  0.000000 <= surp_3 <= +inf
 0 <= a1_z1 <= 1
 0 <= a1_z2 <= 1
 0 <= a2_z1 <= 1
 0 <= a2_z2 <= 1
 0 <= a3_z1 <= 1
 0 <= a3_z2 <= 1
 0 <= a4_z1 <= 1
 0 <= a4_z2 <= 1

binary
  a1_z1
  a1_z2
  a2_z1
  a2_z2
  a3_z1
  a3_z2
  a4_z1
  a4_z2
end
