min
obj: 
  +1.57709742578195788 a1_x1
  +5.24362332399284625 a1_x2
  +8.06959664561268042 a1_x3
  +3.47810228856863679 a1_x4
  +9.41205830682384104 a1_x5
  +8.31656886029670339 a1_x6
  +34.00140095985545230 a1_z1
  +10.41050343041974102 a1_z2
  +6.47735542906473949 a2_x1
  +9.58339357562265626 a2_x2
  +2.02682747423036602 a2_x3
  +2.51463833389198177 a2_x4
  +5.97191591647550446 a2_x5
  +2.17528344053247569 a2_x6
  +46.82093948760606850 a2_z1
  +31.11983884228734354 a2_z2
  +4.28980261171450117 a3_x1
  +6.29719392465862082 a3_x2
  +7.08124523691182794 a3_x3
  +4.94719983508523597 a3_x4
  +8.06509947106787273 a3_x5
  +5.84368483176889342 a3_x6
  +45.40847242123220440 a3_z1
  +47.68543785744964225 a3_z2
  +7.67454901318721916 a4_x1
  +9.54472766156331787 a4_x2
  +6.46859462349116754 a4_x3
  +6.10471800911878315 a4_x4
  +9.00917261972195327 a4_x5
  +9.20424430287105189 a4_x6
  +10.38795682780166985 a4_z1
  +22.65518679594919149 a4_z2
  +1000000.00000000000000000 short_1
  +1000000.00000000000000000 surp_1
  +1000000.00000000000000000 short_2
  +1000000.00000000000000000 surp_2
  +1000000.00000000000000000 short_3
  +1000000.00000000000000000 surp_3

s.t.

a1_local_1: 
+6555.98757368506176135 a1_x1
+6702.32392231696758245 a1_x6
+4087.74103838709106640 a1_x5
<= 912456.289702

a1_local_2: 
+0.00000936720331605 a1_x5
+0.00000516606040870 a1_x4
+0.00001458374200957 a1_x1
<= 0.000910

a1_local_3: 
+0.00084030378706842 a1_x2
+0.00119991303620598 a1_x3
+0.00073842747424717 a1_x5
<= 0.109311

a1_local_4: 
+3128.29104019790429447 a1_x2
+2500.33844762308808640 a1_x4
+1146.23651073531073052 a1_x1
<= 340642.633053

a1_local_5: 
+31250.95304812452741317 a1_x1
+19907.89753931214363547 a1_x3
+35699.77630197120743105 a1_x2
<= 3372071.898027

a1_local_6: 
+8.92736039523081537 a1_x3
+7.13572519962792473 a1_x4
+6.11374842394682272 a1_x2
<= 930.987615

a1_local_7: 
+716.13961101746770055 a1_x1
+446.67027492570537106 a1_x4
+616.98257458142518317 a1_x3
<= 98648.429784

a1_local_8: 
+0.00004152235042757 a1_x3
+0.00002674722871262 a1_x2
+0.00003679441738604 a1_x5
<= 0.004801

a1_act_1: 
+39.69966466158268759 a1_x1
-3969.96646615826875859 a1_z1
<= 0.000000

a1_act_2: 
+9.28533059558000140 a1_x2
-928.53305955800010452 a1_z2
<= 0.000000

a2_local_1: 
+0.68054141092408726 a2_x3
+1.17237130954591806 a2_x6
+1.17245809263690592 a2_x4
<= 168.093027

a2_local_2: 
+580495.05496901762671769 a2_x6
+240103.07225956226466224 a2_x4
+540217.67523244244512171 a2_x2
<= 73122806.122181

a2_local_3: 
+111.36007932467047965 a2_x4
+159.18917888025023899 a2_x5
+192.13763214487764230 a2_x2
<= 20915.144386

a2_local_4: 
+0.00001259649850885 a2_x6
+0.00001430849332721 a2_x5
+0.00001014839510342 a2_x1
<= 0.001232

a2_local_5: 
+3.94411072649971173 a2_x6
+3.98868360180930326 a2_x5
+3.77383910293333180 a2_x2
<= 460.971485

a2_local_6: 
+0.84864798074129189 a2_x1
+0.58708286250058050 a2_x6
+1.03067512201259359 a2_x3
<= 126.469804

a2_local_7: 
+163.10488721504816567 a2_x2
+180.50469310404824341 a2_x4
+251.97742882853185620 a2_x5
<= 31375.724536

a2_local_8: 
+0.00000063847177388 a2_x4
+0.00000065141148498 a2_x3
+0.00000079937141148 a2_x2
<= 0.000067

a2_act_1: 
+5410.27218313517278148 a2_x1
-541027.21831351728178561 a2_z1
<= 0.000000

a2_act_2: 
+21.33812706094392198 a2_x2
-2133.81270609439206964 a2_z2
<= 0.000000

a3_local_1: 
+0.00002780080020068 a3_x3
+0.00002450008237993 a3_x4
+0.00003186926734830 a3_x2
<= 0.004677

a3_local_2: 
+1.90670547900903786 a3_x3
+2.29689794896518773 a3_x4
+3.35947724600487074 a3_x6
<= 494.533609

a3_local_3: 
+231642.41690308169927448 a3_x2
+369451.40605055424384773 a3_x3
+224309.99992547219153494 a3_x5
<= 31065569.443033

a3_local_4: 
+0.07371541080060065 a3_x2
+0.12079399343514167 a3_x5
+0.10642077113477383 a3_x3
<= 15.797663

a3_local_5: 
+115848.92082169525383506 a3_x2
+57006.57565688004979165 a3_x5
+123906.77831394656095654 a3_x3
<= 18543263.586812

a3_local_6: 
+19659.41537458393577253 a3_x5
+16871.11015386500730528 a3_x6
+18964.67589191554725403 a3_x1
<= 2927960.370745

a3_local_7: 
+44.92915994964435811 a3_x3
+51.91943616676923057 a3_x5
+44.08539356608428506 a3_x2
<= 8294.062421

a3_local_8: 
+69.93705273126953159 a3_x5
+106.79736492344275689 a3_x3
+71.33058383334164887 a3_x2
<= 13816.243605

a3_act_1: 
+1.77999737840251049 a3_x1
-177.99973784025104351 a3_z1
<= 0.000000

a3_act_2: 
+175353.02261030816589482 a3_x2
-17535302.26103081554174423 a3_z2
<= 0.000000

a4_local_1: 
+0.00002507808396205 a4_x6
+0.00002796908801415 a4_x1
+0.00002490456373588 a4_x3
<= 0.002912

a4_local_2: 
+180730.59282619456644170 a4_x2
+301433.92790152883389965 a4_x4
+200418.44538652620394714 a4_x6
<= 38347610.855412

a4_local_3: 
+79.29847448344483496 a4_x3
+60.19583805502141161 a4_x2
+118.05132776739694123 a4_x1
<= 7774.451615

a4_local_4: 
+885.30505487015818744 a4_x3
+1335.54938522745555929 a4_x5
+1371.80454144845793962 a4_x2
<= 220932.506706

a4_local_5: 
+66.93912205383850278 a4_x3
+69.04097653258070011 a4_x2
+54.04929614372120028 a4_x1
<= 10480.537485

a4_local_6: 
+63288.50952253327704966 a4_x5
+23105.26395734541438287 a4_x1
+57885.64794291144789895 a4_x6
<= 6862181.873344

a4_local_7: 
+3059.88177816979714407 a4_x6
+1650.63445695087011700 a4_x3
+2583.43463809513923479 a4_x2
<= 487088.358119

a4_local_8: 
+0.00038979582519464 a4_x2
+0.00046217848293255 a4_x6
+0.00068061532204975 a4_x5
<= 0.077805

a4_act_1: 
+25691.18053086210420588 a4_x1
-2569118.05308621050789952 a4_z1
<= 0.000000

a4_act_2: 
+0.00382720681320619 a4_x2
-0.38272068132061932 a4_z2
<= 0.000000

coupling_1: 
+3.10001281277760654 a1_x1
+21.37522884701224157 a2_x1
+87.20613961115728330 a3_x1
+436.04514836773438446 a4_x1
+31.05523259881258014 short_1
-31.05523259881258014 surp_1
= 40395.595893

coupling_2: 
+0.00000193506653439 a1_x2
+0.00000744768892097 a2_x2
+0.00005589682097086 a3_x2
+0.00023933046998538 a4_x2
+0.00002130996472771 short_2
-0.00002130996472771 surp_2
= 0.010973

coupling_3: 
+0.00000857134709058 a1_x3
+0.00002630301880470 a2_x3
+0.00009803939834464 a3_x3
+0.00059034756728490 a4_x3
+0.00006904340561972 short_3
-0.00006904340561972 surp_3
= 0.042218

bounds
  0.000000 <= a1_x1 <= 100.000000
  0.000000 <= a1_x2 <= 100.000000
  0.000000 <= a1_x3 <= 100.000000
  0.000000 <= a1_x4 <= 100.000000
  0.000000 <= a1_x5 <= 100.000000
  0.000000 <= a1_x6 <= 100.000000
  0.000000 <= a2_x1 <= 100.000000
  0.000000 <= a2_x2 <= 100.000000
  0.000000 <= a2_x3 <= 100.000000
  0.000000 <= a2_x4 <= 100.000000
  0.000000 <= a2_x5 <= 100.000000
  0.000000 <= a2_x6 <= 100.000000
  0.000000 <= a3_x1 <= 100.000000
  0.000000 <= a3_x2 <= 100.000000
  0.000000 <= a3_x3 <= 100.000000
  0.000000 <= a3_x4 <= 100.000000
  0.000000 <= a3_x5 <= 100.000000
  0.000000 <= a3_x6 <= 100.000000
  0.000000 <= a4_x1 <= 100.000000
  0.000000 <= a4_x2 <= 100.000000
  0.000000 <= a4_x3 <= 100.000000
  0.000000 <= a4_x4 <= 100.000000
  0.000000 <= a4_x5 <= 100.000000
  0.000000 <= a4_x6 <= 100.000000
  0.000000 <= short_1 <= +inf
  0.000000 <= surp_1 <= +inf
  0.000000 <= short_2 <= +inf
  0.000000 <= surp_2 <= +inf
  0.000000 <= short_3 <= +inf
  0.000000 <= surp_3 <= +inf
 0 <= a1_z1 <= 1
 0 <= a1_z2 <= 1
 0 <= a2_z1 <= 1
 0 <= a2_z2 <= 1
 0 <= a3_z1 <= 1
 0 <= a3_z2 <= 1
 0 <= a4_z1 <= 1
 0 <= a4_z2 <= 1

binary
  a1_z1
  a1_z2
  a2_z1
  a2_z2
  a3_z1
  a3_z2
  a4_z1
  a4_z2
end
