min
obj: 
  +3.04305245350352704 a1_x1
  +8.52421046785006808 a1_x2
  +7.69307565210918742 a1_x3
  +6.91899621560824230 a1_x4
  +9.20970734213053355 a1_x5
  +1.67836132765545631 a1_x6
  +29.95730103851083470 a1_z1
  +31.08072985890714435 a1_z2
  +3.99822752437524187 a2_x1
  +4.07165663414877166 a2_x2
  +8.34795406785622518 a2_x3
  +4.87171054907478673 a2_x4
  +6.00614521080850050 a2_x5
  +2.78826542023549706 a2_x6
  +21.64829021237791906 a2_z1
  +42.54057128991149028 a2_z2
  +2.99288059555848207 a3_x1
  +5.53541108642779456 a3_x2
  +5.21389691922773402 a3_x3
  +2.06500474656608013 a3_x4
  +6.41053556614162368 a3_x5
  +2.65986220405491736 a3_x6
  +31.21797170368752461 a3_z1
  +44.91309333626589506 a3_z2
  +1.34783919856301182 a4_x1
  +6.31764736904795043 a4_x2
  +9.98943596309341864 a4_x3
  +5.70541292643470310 a4_x4
  +4.44152957180650887 a4_x5
  +5.06133401945766614 a4_x6
  +15.23838321132246598 a4_z1
  +39.66649904034947838 a4_z2
  +1000000.00000000000000000 short_1
  +1000000.00000000000000000 surp_1
  +1000000.00000000000000000 short_2
  +1000000.00000000000000000 surp_2
  +1000000.00000000000000000 short_3
  +1000000.00000000000000000 surp_3

s.t.

a1_local_1: 
+0.00000193415498870 a1_x4
+0.00000240622298077 a1_x3
+0.00000518373871547 a1_x1
<= 0.000592

a1_local_2: 
+0.00000012895526791 a1_x5
+0.00000007850273711 a1_x2
+0.00000009705301854 a1_x1
<= 0.000012

a1_local_3: 
+4723.86930299131381616 a1_x1
+6688.17779726257504080 a1_x5
+6724.44040240755293780 a1_x4
<= 1042124.711182

a1_local_4: 
+171.57663527066787879 a1_x4
+128.82459592162220474 a1_x1
+138.13422351551679412 a1_x2
<= 18439.876968

a1_local_5: 
+66586.28242617675277870 a1_x4
+136100.64393428308540024 a1_x6
+55174.49452407153876266 a1_x3
<= 17677814.015178

a1_local_6: 
+0.00000075931811490 a1_x5
+0.00000129708951422 a1_x1
+0.00000073096769710 a1_x6
<= 0.000151

a1_local_7: 
+1.20505670912643525 a1_x1
+1.26282067431313627 a1_x2
+0.84501530855955176 a1_x4
<= 188.742661

a1_local_8: 
+0.01380000746760411 a1_x3
+0.01465568399103995 a1_x6
+0.00564248923701441 a1_x5
<= 1.748217

a1_act_1: 
+0.02545274968939533 a1_x1
-2.54527496893953309 a1_z1
<= 0.000000

a1_act_2: 
+0.01961465883163257 a1_x2
-1.96146588316325676 a1_z2
<= 0.000000

a2_local_1: 
+832.00113484018686449 a2_x5
+1014.03717878679276510 a2_x3
+1204.19847567746637651 a2_x6
<= 200274.384698

a2_local_2: 
+32601.00171492441586452 a2_x4
+50837.04145430617063539 a2_x3
+34627.94364603421126958 a2_x6
<= 5774466.224022

a2_local_3: 
+0.00000598404368702 a2_x3
+0.00000448095674092 a2_x1
+0.00000628579967372 a2_x2
<= 0.001110

a2_local_4: 
+5565.31908555927748239 a2_x4
+4313.40826657748675643 a2_x5
+4039.00889903692132066 a2_x1
<= 435816.527314

a2_local_5: 
+18715.40492823947715806 a2_x1
+21004.31099951370561030 a2_x6
+11169.85507134297586163 a2_x2
<= 3075729.378604

a2_local_6: 
+0.17477013588960952 a2_x1
+0.13832834605152183 a2_x5
+0.19439671240173723 a2_x3
<= 27.744923

a2_local_7: 
+13249.64627333581302082 a2_x3
+24855.99364750554013881 a2_x6
+12575.10948766310139035 a2_x1
<= 2337217.347280

a2_local_8: 
+0.13534757787118193 a2_x4
+0.23735443640088694 a2_x1
+0.25611437639974438 a2_x6
<= 22.603500

a2_act_1: 
+0.00819897311699784 a2_x1
-0.81989731169978364 a2_z1
<= 0.000000

a2_act_2: 
+3178.83384646662261730 a2_x2
-317883.38464666227810085 a2_z2
<= 0.000000

a3_local_1: 
+0.00001209147557812 a3_x4
+0.00000468254833187 a3_x2
+0.00000864523305499 a3_x5
<= 0.001360

a3_local_2: 
+288.80641050914323387 a3_x1
+266.32255488273767696 a3_x6
+277.72757147881901574 a3_x3
<= 26714.923677

a3_local_3: 
+15.15198485534193296 a3_x2
+12.90473942211120573 a3_x6
+11.57956679503926090 a3_x5
<= 2770.094058

a3_local_4: 
+16344.14802239335767808 a3_x1
+23359.68957359492560499 a3_x5
+21909.47163481751340441 a3_x4
<= 1962408.956979

a3_local_5: 
+91259.85863122924638446 a3_x4
+51446.42209699461818673 a3_x2
+78969.48693232341611292 a3_x6
<= 8981548.018290

a3_local_6: 
+944.65507845355421068 a3_x5
+816.80491581036267235 a3_x2
+1293.96842555390139751 a3_x1
<= 152395.042561

a3_local_7: 
+0.00001864640321945 a3_x2
+0.00001758520244265 a3_x4
+0.00000915773307983 a3_x5
<= 0.002914

a3_local_8: 
+0.09379052173689643 a3_x3
+0.10186247445226147 a3_x5
+0.15951121150416367 a3_x6
<= 17.570592

a3_act_1: 
+0.00031946936814621 a3_x1
-0.03194693681462097 a3_z1
<= 0.000000

a3_act_2: 
+635.92751236185927155 a3_x2
-63592.75123618592624553 a3_z2
<= 0.000000

a4_local_1: 
+4472.81998101829412917 a4_x6
+7028.45653936029884790 a4_x2
+5458.94108035521367128 a4_x1
<= 523482.980380

a4_local_2: 
+277944.46004135598195717 a4_x1
+332726.64499503257684410 a4_x6
+243980.09021189378108829 a4_x5
<= 28242994.908629

a4_local_3: 
+21.23402823679809259 a4_x6
+17.14035407884837170 a4_x3
+21.39566247189418391 a4_x2
<= 2566.832457

a4_local_4: 
+0.00004018768913550 a4_x4
+0.00005824311726906 a4_x6
+0.00005388120860831 a4_x2
<= 0.005911

a4_local_5: 
+0.00025027222058878 a4_x5
+0.00010863787969415 a4_x6
+0.00015700649131651 a4_x1
<= 0.018862

a4_local_6: 
+0.00573360277961384 a4_x5
+0.00492875745015621 a4_x1
+0.00387751177588306 a4_x2
<= 0.947179

a4_local_7: 
+127.68157817717489877 a4_x4
+106.34788835091767112 a4_x2
+68.61944989492675973 a4_x5
<= 14497.702368

a4_local_8: 
+0.00008633253811063 a4_x3
+0.00004392410926680 a4_x1
+0.00007270926805705 a4_x2
<= 0.012976

a4_act_1: 
+1.63727155863054019 a4_x1
-163.72715586305400848 a4_z1
<= 0.000000

a4_act_2: 
+0.26079473459132091 a4_x2
-26.07947345913209247 a4_z2
<= 0.000000

coupling_1: 
+11664.15406559642360662 a1_x1
+74694.64222211739979684 a2_x1
+211970.10056045235251077 a3_x1
+881209.08841375028714538 a4_x1
+118937.32247378188185394 short_1
-118937.32247378188185394 surp_1
= 67424068.551189

coupling_2: 
+1.95984796754709989 a1_x2
+11.14125061860020516 a2_x2
+24.59230695842682124 a3_x2
+245.33930015771065314 a4_x2
+18.31189092601539770 short_2
-18.31189092601539770 surp_2
= 20228.861026

coupling_3: 
+2.43779756019759564 a1_x3
+6.37710158047379583 a2_x3
+55.87071899685921039 a3_x3
+235.01163149376324668 a4_x3
+20.06692223275803855 short_3
-20.06692223275803855 surp_3
= 7366.130317

bounds
  0.000000 <= a1_x1 <= 100.000000
  0.000000 <= a1_x2 <= 100.000000
  0.000000 <= a1_x3 <= 100.000000
  0.000000 <= a1_x4 <= 100.000000
  0.000000 <= a1_x5 <= 100.000000
  0.000000 <= a1_x6 <= 100.000000
  0.000000 <= a2_x1 <= 100.000000
  0.000000 <= a2_x2 <= 100.000000
  0.000000 <= a2_x3 <= 100.000000
  0.000000 <= a2_x4 <= 100.000000
  0.000000 <= a2_x5 <= 100.000000
  0.000000 <= a2_x6 <= 100.000000
  0.000000 <= a3_x1 <= 100.000000
  0.000000 <= a3_x2 <= 100.000000
  0.000000 <= a3_x3 <= 100.000000
  0.000000 <= a3_x4 <= 100.000000
  0.000000 <= a3_x5 <= 100.000000
  0.000000 <= a3_x6 <= 100.000000
  0.000000 <= a4_x1 <= 100.000000
  0.000000 <= a4_x2 <= 100.000000
  0.000000 <= a4_x3 <= 100.000000
  0.000000 <= a4_x4 <= 100.000000
  0.000000 <= a4_x5 <= 100.000000
  0.000000 <= a4_x6 <= 100.000000
  0.000000 <= short_1 <= +inf
  0.000000 <= surp_1 <= +inf
  0.000000 <= short_2 <= +inf
  0.000000 <= surp_2 <= +inf
  0.000000 <= short_3 <= +inf
  0.000000 <= surp_3 <= +inf
 0 <= a1_z1 <= 1
 0 <= a1_z2 <= 1
 0 <= a2_z1 <= 1
 0 <= a2_z2 <= 1
 0 <= a3_z1 <= 1
 0 <= a3_z2 <= 1
 0 <= a4_z1 <= 1
 0 <= a4_z2 <= 1

binary
  a1_z1
  a1_z2
  a2_z1
  a2_z2
  a3_z1
  a3_z2
  a4_z1
  a4_z2
end
