min
obj: 
  +9.92789069156587445 a1_x1
  +4.10293210566149646 a1_x2
  +3.32901181929639423 a1_x3
  +9.10176472428019245 a1_x4
  +1.02767819950250816 a1_x5
  +7.50152284301075145 a1_x6
  +48.47610588570461232 a1_z1
  +46.46239370281180214 a1_z2
  +3.18500776910177885 a2_x1
  +1.07942930179392071 a2_x2
  +3.49956447593909603 a2_x3
  +4.21239525423910788 a2_x4
  +5.82517656009187501 a2_x5
  +3.89342540667494053 a2_x6
  +48.49908581708631061 a2_z1
  +41.13663869847970034 a2_z2
  +2.67192419795283609 a3_x1
  +3.86821883222705321 a3_x2
  +5.91403436703844054 a3_x3
  +8.81180590098727734 a3_x4
  +5.97909561349352625 a3_x5
  +2.68685564033826729 a3_x6
  +5.18637677701330446 a3_z1
  +6.88066661844991856 a3_z2
  +1.28562252519206366 a4_x1
  +5.29948947704055140 a4_x2
  +9.02951063485292771 a4_x3
  +3.08226664425655672 a4_x4
  +2.19298535751718138 a4_x5
  +7.06762935071550480 a4_x6
  +41.57694264723444633 a4_z1
  +44.44096075316435446 a4_z2
  +1000000.00000000000000000 short_1
  +1000000.00000000000000000 surp_1
  +1000000.00000000000000000 short_2
  +1000000.00000000000000000 surp_2
  +1000000.00000000000000000 short_3
  +1000000.00000000000000000 surp_3

s.t.

a1_local_1: 
+0.00403079883156527 a1_x4
+0.00392008671629857 a1_x6
+0.00273039333097899 a1_x1
<= 0.425877

a1_local_2: 
+36017.76001346780685708 a1_x6
+43302.92619891400681809 a1_x5
+57525.35481796241219854 a1_x4
<= 6103204.750377

a1_local_3: 
+3.71121712990848440 a1_x3
+3.00177621964431030 a1_x1
+2.44712184859467285 a1_x6
<= 544.018754

a1_local_4: 
+0.01190090091025820 a1_x5
+0.01256292059811888 a1_x2
+0.00674477689930323 a1_x4
<= 1.315534

a1_local_5: 
+66191.98118714480369817 a1_x4
+130198.05304014064313378 a1_x2
+80273.00372740188322496 a1_x5
<= 16500433.731072

a1_local_6: 
+11332.96205706326691143 a1_x3
+10693.03356028357666219 a1_x4
+5573.34288762960659369 a1_x1
<= 1062775.901151

a1_local_7: 
+0.00884024069176625 a1_x1
+0.00659505535509730 a1_x2
+0.00759265333717655 a1_x5
<= 1.215587

a1_local_8: 
+2490.55511101893353043 a1_x5
+2694.98237669581931186 a1_x2
+1933.00058275992273593 a1_x4
<= 323184.874330

a1_act_1: 
+0.00021364355531852 a1_x1
-0.02136435553185177 a1_z1
<= 0.000000

a1_act_2: 
+0.00000966619922932 a1_x2
-0.00096661992293180 a1_z2
<= 0.000000

a2_local_1: 
+1.20721616349621641 a2_x6
+0.73594304576041814 a2_x4
+1.73579811905828518 a2_x1
<= 243.827432

a2_local_2: 
+0.01176054038167041 a2_x2
+0.01135638728208993 a2_x1
+0.01013988291907523 a2_x4
<= 1.852272

a2_local_3: 
+0.09392638655743389 a2_x3
+0.09660500292592024 a2_x4
+0.04892981888583621 a2_x5
<= 16.640965

a2_local_4: 
+28.14946923472782458 a2_x4
+48.24464697564346949 a2_x3
+48.77834886626225597 a2_x2
<= 4633.765467

a2_local_5: 
+20.21285273728818410 a2_x1
+13.31037985307120408 a2_x4
+21.39003754187821826 a2_x2
<= 2383.540554

a2_local_6: 
+0.00000046966996254 a2_x3
+0.00000096949872499 a2_x5
+0.00000073181709977 a2_x1
<= 0.000138

a2_local_7: 
+0.00000097270347573 a2_x3
+0.00000124965757932 a2_x6
+0.00000149280283001 a2_x4
<= 0.000245

a2_local_8: 
+2.88681280741064716 a2_x1
+5.28319808930090762 a2_x6
+4.98923522652665952 a2_x5
<= 772.726341

a2_act_1: 
+0.00093385961436546 a2_x1
-0.09338596143654594 a2_z1
<= 0.000000

a2_act_2: 
+19833.15161330121918581 a2_x2
-1983315.16133012203499675 a2_z2
<= 0.000000

a3_local_1: 
+89385.88335494451166596 a3_x1
+79136.49233827744319569 a3_x4
+37927.85014647534262622 a3_x2
<= 7950472.317471

a3_local_2: 
+442.34452743609148229 a3_x6
+798.72285110219434046 a3_x4
+683.65581146145905223 a3_x1
<= 74893.860990

a3_local_3: 
+1271732.88775485544465482 a3_x2
+781012.65007593610789627 a3_x3
+652340.70614806737285107 a3_x5
<= 141514215.076979

a3_local_4: 
+0.00759584037533890 a3_x5
+0.01368629205728409 a3_x1
+0.01130549938214204 a3_x6
<= 1.457543

a3_local_5: 
+718343.19059374253265560 a3_x6
+500603.22727404971374199 a3_x3
+929543.90034540905617177 a3_x1
<= 81829327.647869

a3_local_6: 
+0.00000619829253914 a3_x2
+0.00000762063034632 a3_x6
+0.00000647492877718 a3_x4
<= 0.000837

a3_local_7: 
+0.00201750960330696 a3_x2
+0.00095197420993492 a3_x5
+0.00214363179113683 a3_x4
<= 0.271332

a3_local_8: 
+28.75110218850112176 a3_x2
+30.95525818427302411 a3_x1
+20.12351805525855397 a3_x5
<= 4959.975881

a3_act_1: 
+826.00074869091872642 a3_x1
-82600.07486909186991397 a3_z1
<= 0.000000

a3_act_2: 
+0.00008419943566907 a3_x2
-0.00841994356690675 a3_z2
<= 0.000000

a4_local_1: 
+5779.45762544863373478 a4_x2
+2594.13318202507070964 a4_x6
+5591.51425037187436828 a4_x5
<= 918093.164571

a4_local_2: 
+160446.95363726752111688 a4_x3
+406526.98805969068780541 a4_x5
+328218.71631027606781572 a4_x1
<= 51538879.365843

a4_local_3: 
+5.51057591609696651 a4_x4
+7.89933848635196689 a4_x3
+6.90281885242495274 a4_x6
<= 1246.904610

a4_local_4: 
+0.63308140474702723 a4_x5
+0.41444629678850892 a4_x1
+0.41705162780163169 a4_x4
<= 70.626874

a4_local_5: 
+1069.86283179436259161 a4_x5
+1919.03451184124128304 a4_x6
+1021.60918476437302616 a4_x1
<= 246954.876727

a4_local_6: 
+3015.24486384684678342 a4_x4
+3014.67457679740891763 a4_x3
+2603.75802632324712249 a4_x2
<= 360437.808633

a4_local_7: 
+0.02003366461910282 a4_x3
+0.03197503790251864 a4_x6
+0.01539083202132244 a4_x1
<= 4.098264

a4_local_8: 
+7944921.19977176655083895 a4_x3
+8235432.44770396873354912 a4_x2
+8908219.55045701749622822 a4_x6
<= 953707990.850652

a4_act_1: 
+0.15616070134083881 a4_x1
-15.61607013408388056 a4_z1
<= 0.000000

a4_act_2: 
+777614.77249609329737723 a4_x2
-77761477.24960933625698090 a4_z2
<= 0.000000

coupling_1: 
+0.00000188591136320 a1_x1
+0.00001124836414376 a2_x1
+0.00004653306925016 a3_x1
+0.00022281919771658 a4_x1
+0.00001939835680047 short_1
-0.00001939835680047 surp_1
= 0.008247

coupling_2: 
+10790.39252214689986431 a1_x2
+38454.33870227915031137 a2_x2
+414870.82258623128291219 a3_x2
+829063.37678651686292142 a4_x2
+150416.54789201117819175 short_2
-150416.54789201117819175 surp_2
= 72705872.626430

coupling_3: 
+1.12981064213403060 a1_x3
+3.90753952298850038 a2_x3
+31.43840517913833210 a3_x3
+210.28714276052716059 a4_x3
+14.56773171931791033 short_3
-14.56773171931791033 surp_3
= 8751.624701

bounds
  0.000000 <= a1_x1 <= 100.000000
  0.000000 <= a1_x2 <= 100.000000
  0.000000 <= a1_x3 <= 100.000000
  0.000000 <= a1_x4 <= 100.000000
  0.000000 <= a1_x5 <= 100.000000
  0.000000 <= a1_x6 <= 100.000000
  0.000000 <= a2_x1 <= 100.000000
  0.000000 <= a2_x2 <= 100.000000
  0.000000 <= a2_x3 <= 100.000000
  0.000000 <= a2_x4 <= 100.000000
  0.000000 <= a2_x5 <= 100.000000
  0.000000 <= a2_x6 <= 100.000000
  0.000000 <= a3_x1 <= 100.000000
  0.000000 <= a3_x2 <= 100.000000
  0.000000 <= a3_x3 <= 100.000000
  0.000000 <= a3_x4 <= 100.000000
  0.000000 <= a3_x5 <= 100.000000
  0.000000 <= a3_x6 <= 100.000000
  0.000000 <= a4_x1 <= 100.000000
  0.000000 <= a4_x2 <= 100.000000
  0.000000 <= a4_x3 <= 100.000000
  0.000000 <= a4_x4 <= 100.000000
  0.000000 <= a4_x5 <= 100.000000
  0.000000 <= a4_x6 <= 100.000000
  0.000000 <= short_1 <= +inf
  0.000000 <= surp_1 <= +inf
  0.000000 <= short_2 <= +inf
  0.000000 <= surp_2 <= +inf
  0.000000 <= short_3 <= +inf
  0.000000 <= surp_3 <= +inf
 0 <= a1_z1 <= 1
 0 <= a1_z2 <= 1
 0 <= a2_z1 <= 1
 0 <= a2_z2 <= 1
 0 <= a3_z1 <= 1
 0 <= a3_z2 <= 1
 0 <= a4_z1 <= 1
 0 <= a4_z2 <= 1

binary
  a1_z1
  a1_z2
  a2_z1
  a2_z2
  a3_z1
  a3_z2
  a4_z1
  a4_z2
end
