min
obj: 
  +9.92789069156587445 a1_x1
  +4.10293210566149646 a1_x2
  +3.32901181929639423 a1_x3
  +9.10176472428019245 a1_x4
  +1.02767819950250816 a1_x5
  +7.50152284301075145 a1_x6
  +48.47610588570461232 a1_z1
  +46.46239370281180214 a1_z2
  +3.18500776910177885 a2_x1
  +1.07942930179392071 a2_x2
  +3.49956447593909603 a2_x3
  +4.21239525423910788 a2_x4
  +5.82517656009187501 a2_x5
  +3.89342540667494053 a2_x6
  +48.49908581708631061 a2_z1
  +41.13663869847970034 a2_z2
  +2.67192419795283609 a3_x1
  +3.86821883222705321 a3_x2
  +5.91403436703844054 a3_x3
  +8.81180590098727734 a3_x4
  +5.97909561349352625 a3_x5
  +2.68685564033826729 a3_x6
  +5.18637677701330446 a3_z1
  +6.88066661844991856 a3_z2
  +1.28562252519206366 a4_x1
  +5.29948947704055140 a4_x2
  +9.02951063485292771 a4_x3
  +3.08226664425655672 a4_x4
  +2.19298535751718138 a4_x5
  +7.06762935071550480 a4_x6
  +41.57694264723444633 a4_z1
  +44.44096075316435446 a4_z2
  +1000000.00000000000000000 short_1
  +1000000.00000000000000000 surp_1
  +1000000.00000000000000000 short_2
  +1000000.00000000000000000 surp_2
  +1000000.00000000000000000 short_3
  +1000000.00000000000000000 surp_3

s.t.

a1_local_1: 
+1.21501867946975217 a1_x4
+1.18164631490537908 a1_x6
+0.82303261414582640 a1_x1
<= 128.373546

a1_local_2: 
+0.79127728181851420 a1_x6
+0.95132572721491093 a1_x5
+1.26377949042312832 a1_x4
<= 134.081833

a1_local_3: 
+1.23148856847341315 a1_x3
+0.99607567280722864 a1_x1
+0.81202540210310448 a1_x6
<= 180.521067

a1_local_4: 
+1.29285773260494841 a1_x5
+1.36477642842819002 a1_x2
+0.73272074397687093 a1_x4
<= 142.913383

a1_local_5: 
+0.71301792026251265 a1_x4
+1.40248929456335225 a1_x2
+0.86469824810218676 a1_x5
<= 177.742148

a1_local_6: 
+1.42598131843986664 a1_x3
+1.34546167344763679 a1_x4
+0.70127145921804723 a1_x1
<= 133.724844

a1_local_7: 
+1.15777141363412150 a1_x1
+0.86372835624012023 a1_x2
+0.99437982447742601 a1_x5
<= 159.200569

a1_local_8: 
+1.09119457705747536 a1_x5
+1.18076092422336609 a1_x2
+0.84691149536282317 a1_x4
<= 141.597984

a1_act_1: 
+0.09999999999999999 a1_x1
-10.00000000000000000 a1_z1
<= 0.000000

a1_act_2: 
+0.09999999999999999 a1_x2
-9.99999999999999822 a1_z2
<= 0.000000

a2_local_1: 
+1.20721616349621641 a2_x6
+0.73594304576041814 a2_x4
+1.73579811905828518 a2_x1
<= 243.827432

a2_local_2: 
+1.07695403690108549 a2_x2
+1.03994431642959628 a2_x1
+0.92854473425577266 a2_x4
<= 169.619087

a2_local_3: 
+1.36615822705863121 a2_x3
+1.40511867175437066 a2_x4
+0.71168366067717470 a2_x5
<= 242.042653

a2_local_4: 
+0.75966402025395940 a2_x4
+1.30196850859396696 a2_x3
+1.31637141333308816 a2_x2
<= 125.050489

a2_local_5: 
+1.19791668431628406 a2_x1
+0.78884095717804736 a2_x4
+1.26768265630798438 a2_x2
<= 141.260763

a2_local_6: 
+0.69602168714649215 a2_x3
+1.43673684091617848 a2_x5
+1.08450744798437304 a2_x1
<= 204.147592

a2_local_7: 
+0.80721460123616007 a2_x3
+1.03704969679433012 a2_x6
+1.23882793803359137 a2_x4
<= 202.910173

a2_local_8: 
+0.73919813831602577 a2_x1
+1.35281725990017931 a2_x6
+1.27754504261648227 a2_x5
<= 197.864535

a2_act_1: 
+0.09999999999999999 a2_x1
-9.99999999999999822 a2_z1
<= 0.000000

a2_act_2: 
+0.09999999999999999 a2_x2
-10.00000000000000000 a2_z2
<= 0.000000

a3_local_1: 
+1.53516604128285983 a3_x1
+1.35913693643935418 a3_x4
+0.65139533647080361 a3_x2
<= 136.546115

a3_local_2: 
+0.74418733476839072 a3_x6
+1.34374767384508687 a3_x4
+1.15016229358444999 a3_x1
<= 125.999214

a3_local_3: 
+1.39624204437054233 a3_x2
+0.85747778462066948 a3_x3
+0.71620819902384669 a3_x5
<= 155.369181

a3_local_4: 
+0.74498068518282523 a3_x5
+1.34231668000169790 a3_x1
+1.10881459586575470 a3_x6
<= 142.952091

a3_local_5: 
+1.05305293782880072 a3_x6
+0.73385772437237728 a3_x3
+1.36266195311255678 a3_x1
<= 119.957445

a3_local_6: 
+0.90186303545680047 a3_x2
+1.10881581868303591 a3_x6
+0.94211412005498985 a3_x4
<= 121.818628

a3_local_7: 
+1.41230313942881791 a3_x2
+0.66640384915273376 a3_x5
+1.50059157261981713 a3_x4
<= 189.938858

a3_local_8: 
+1.15195450916475961 a3_x2
+1.24026720832964532 a3_x1
+0.80627786761110110 a3_x5
<= 198.728610

a3_act_1: 
+0.09999999999999999 a3_x1
-9.99999999999999822 a3_z1
<= 0.000000

a3_act_2: 
+0.09999999999999999 a3_x2
-10.00000000000000000 a3_z2
<= 0.000000

a4_local_1: 
+1.49261364504521588 a4_x2
+0.66996573649151314 a4_x6
+1.44407503393053616 a4_x5
<= 237.108475

a4_local_2: 
+0.62823343579449820 a4_x3
+1.59176500807434018 a4_x5
+1.28514731607699528 a4_x1
<= 201.801571

a4_local_3: 
+0.83522432276703851 a4_x4
+1.19728314027909466 a4_x3
+1.04624313120500467 a4_x6
<= 188.990239

a4_local_4: 
+0.63308140474702723 a4_x5
+0.41444629678850892 a4_x1
+0.41705162780163169 a4_x4
<= 70.626874

a4_local_5: 
+0.76408964291946702 a4_x5
+1.37056298370850116 a4_x6
+0.72962717648639308 a4_x1
<= 176.373698

a4_local_6: 
+1.07612069222968176 a4_x4
+1.07591716060219489 a4_x3
+0.92926379654315283 a4_x2
<= 128.637839

a4_local_7: 
+0.90307499200828600 a4_x3
+1.44136670186379678 a4_x6
+0.69378597320648783 a4_x1
<= 184.741017

a4_local_8: 
+0.94438556672081342 a4_x3
+0.97891764358082123 a4_x2
+1.05888954177084282 a4_x6
<= 113.364002

a4_act_1: 
+0.15616070134083881 a4_x1
-15.61607013408388056 a4_z1
<= 0.000000

a4_act_2: 
+0.09999999999999999 a4_x2
-10.00000000000000000 a4_z2
<= 0.000000

coupling_1: 
+0.01011604215559980 a1_x1
+0.06033630640350444 a2_x1
+0.24960371910884710 a3_x1
+1.19520378378473757 a4_x1
+0.10405292580137165 short_1
-0.10405292580137165 surp_1
= 44.236901

coupling_2: 
+0.01334329122539262 a1_x2
+0.04755224975655541 a2_x2
+0.51302510036816207 a3_x2
+1.02521146084951509 a4_x2
+0.18600359528366728 short_2
-0.18600359528366728 surp_2
= 89.907353

coupling_3: 
+0.00655600565571022 a1_x3
+0.02267446442550393 a2_x3
+0.18242912084066679 a3_x3
+1.22024315035404740 a4_x3
+0.08453286593434957 short_3
-0.08453286593434957 surp_3
= 50.783467

bounds
  0.000000 <= a1_x1 <= 100.000000
  0.000000 <= a1_x2 <= 100.000000
  0.000000 <= a1_x3 <= 100.000000
  0.000000 <= a1_x4 <= 100.000000
  0.000000 <= a1_x5 <= 100.000000
  0.000000 <= a1_x6 <= 100.000000
  0.000000 <= a2_x1 <= 100.000000
  0.000000 <= a2_x2 <= 100.000000
  0.000000 <= a2_x3 <= 100.000000
  0.000000 <= a2_x4 <= 100.000000
  0.000000 <= a2_x5 <= 100.000000
  0.000000 <= a2_x6 <= 100.000000
  0.000000 <= a3_x1 <= 100.000000
  0.000000 <= a3_x2 <= 100.000000
  0.000000 <= a3_x3 <= 100.000000
  0.000000 <= a3_x4 <= 100.000000
  0.000000 <= a3_x5 <= 100.000000
  0.000000 <= a3_x6 <= 100.000000
  0.000000 <= a4_x1 <= 100.000000
  0.000000 <= a4_x2 <= 100.000000
  0.000000 <= a4_x3 <= 100.000000
  0.000000 <= a4_x4 <= 100.000000
  0.000000 <= a4_x5 <= 100.000000
  0.000000 <= a4_x6 <= 100.000000
  0.000000 <= short_1 <= +inf
  0.000000 <= surp_1 <= +inf
  0.000000 <= short_2 <= +inf
  0.000000 <= surp_2 <= +inf
  0.000000 <= short_3 <= +inf
  0.000000 <= surp_3 <= +inf
 0 <= a1_z1 <= 1
 0 <= a1_z2 <= 1
 0 <= a2_z1 <= 1
 0 <= a2_z2 <= 1
 0 <= a3_z1 <= 1
 0 <= a3_z2 <= 1
 0 <= a4_z1 <= 1
 0 <= a4_z2 <= 1

binary
  a1_z1
  a1_z2
  a2_z1
  a2_z2
  a3_z1
  a3_z2
  a4_z1
  a4_z2
end
