min
obj: 
  +4.00927114806491947 a1_x1
  +1.96797315584533505 a1_x2
  +5.12450639908132288 a1_x3
  +5.32896604620880687 a1_x4
  +7.73264361972508052 a1_x5
  +5.13954220661915251 a1_x6
  +7.46013036925632012 a1_z1
  +49.87266735161764331 a1_z2
  +9.36843435344059650 a2_x1
  +1.05737072364449292 a2_x2
  +6.60719118774421155 a2_x3
  +2.15746424177711438 a2_x4
  +4.02884955809363987 a2_x5
  +6.58160214482754569 a2_x6
  +37.18631761224219190 a2_z1
  +14.56992703067312611 a2_z2
  +7.57718464422320714 a3_x1
  +6.32546719961394732 a3_x2
  +1.31829467185166682 a3_x3
  +2.45084274434978422 a3_x4
  +7.58215052014305346 a3_x5
  +8.03960198396170256 a3_x6
  +34.57098216458418705 a3_z1
  +17.01923611963366056 a3_z2
  +9.65762920804675851 a4_x1
  +1.01038921150930694 a4_x2
  +8.26245311728527554 a4_x3
  +1.87174926104206407 a4_x4
  +5.72310336143512366 a4_x5
  +2.03823444273170651 a4_x6
  +33.41705432517787955 a4_z1
  +11.21145989114648600 a4_z2
  +1000000.00000000000000000 short_1
  +1000000.00000000000000000 surp_1
  +1000000.00000000000000000 short_2
  +1000000.00000000000000000 surp_2
  +1000000.00000000000000000 short_3
  +1000000.00000000000000000 surp_3

s.t.

a1_local_1: 
+49317.66067127659334801 a1_x3
+20952.57132479386564228 a1_x6
+33337.06463240407902049 a1_x4
<= 3916411.771478

a1_local_2: 
+0.00195859047015854 a1_x4
+0.00108507208758444 a1_x6
+0.00075831317244740 a1_x2
<= 0.215532

a1_local_3: 
+3.50736715838350666 a1_x6
+5.93148073220540528 a1_x4
+3.10004986746402089 a1_x1
<= 796.040108

a1_local_4: 
+23827.41213453841191949 a1_x2
+28129.09393991684919456 a1_x5
+27629.12614099263737444 a1_x3
<= 5371751.566823

a1_local_5: 
+645.17596272371895338 a1_x1
+292.59934730869480290 a1_x4
+410.70030258772152365 a1_x2
<= 92296.424803

a1_local_6: 
+0.00051788117247392 a1_x1
+0.00053088087037690 a1_x3
+0.00027060848591755 a1_x6
<= 0.082365

a1_local_7: 
+54130.01331002990627894 a1_x2
+87304.57020394319260959 a1_x5
+68956.87828565570816863 a1_x4
<= 11703858.205713

a1_local_8: 
+0.00805903738365096 a1_x4
+0.01256397572773533 a1_x5
+0.00509812709965220 a1_x6
<= 1.332716

a1_act_1: 
+1013.02026254815075390 a1_x1
-101302.02625481507857330 a1_z1
<= 0.000000

a1_act_2: 
+0.00039829861158941 a1_x2
-0.03982986115894099 a1_z2
<= 0.000000

a2_local_1: 
+0.00043408680548317 a2_x4
+0.00081894432940535 a2_x2
+0.00065688936892489 a2_x6
<= 0.110213

a2_local_2: 
+59.84055698992282402 a2_x1
+82.57013333990032322 a2_x4
+52.75628584621217243 a2_x5
<= 12536.168591

a2_local_3: 
+0.07630864724325229 a2_x4
+0.05640544243481345 a2_x5
+0.11023998488375533 a2_x3
<= 15.521376

a2_local_4: 
+0.00016497763590421 a2_x2
+0.00011166453524499 a2_x1
+0.00015834805591601 a2_x5
<= 0.019886

a2_local_5: 
+0.05018050271303610 a2_x2
+0.03164060738289657 a2_x3
+0.05876851643271783 a2_x6
<= 7.926583

a2_local_6: 
+10298.51853383665729780 a2_x6
+7391.23906751070080645 a2_x5
+11799.97923473848641152 a2_x2
<= 1643053.307034

a2_local_7: 
+7.56103542844784027 a2_x2
+5.15995982711361023 a2_x5
+5.45459962669717413 a2_x6
<= 1211.872742

a2_local_8: 
+130347.84300278585578781 a2_x2
+107135.32169579176115803 a2_x4
+93034.77846545175998472 a2_x5
<= 21947604.345484

a2_act_1: 
+5155.59933906681726512 a2_x1
-515559.93390668171923608 a2_z1
<= 0.000000

a2_act_2: 
+675888.71614944480825216 a2_x2
-67588871.61494448781013489 a2_z2
<= 0.000000

a3_local_1: 
+228.92531540104710075 a3_x1
+190.41115049129132331 a3_x2
+354.25261345335184160 a3_x6
<= 34938.204641

a3_local_2: 
+0.00101049603272267 a3_x2
+0.00083496935722329 a3_x1
+0.00172372457495911 a3_x6
<= 0.153661

a3_local_3: 
+1.89447889944839787 a3_x1
+1.46344575328116488 a3_x5
+2.95307047791159594 a3_x2
<= 326.891406

a3_local_4: 
+0.02868633626525623 a3_x4
+0.04364778167026521 a3_x6
+0.04109724945658234 a3_x5
<= 7.283745

a3_local_5: 
+0.00295051870798328 a3_x4
+0.00433347102060650 a3_x1
+0.00287766128470348 a3_x5
<= 0.330694

a3_local_6: 
+0.20871034452587892 a3_x5
+0.11837203112659492 a3_x6
+0.10741682196920130 a3_x1
<= 25.607350

a3_local_7: 
+0.10014310106919767 a3_x6
+0.12362583944199979 a3_x1
+0.14272353661454165 a3_x4
<= 22.990601

a3_local_8: 
+0.00348090277898739 a3_x3
+0.00446640946394821 a3_x1
+0.00285712107844561 a3_x6
<= 0.440113

a3_act_1: 
+686663.12520023540128022 a3_x1
-68666312.52002353966236115 a3_z1
<= 0.000000

a3_act_2: 
+0.00012862479913969 a3_x2
-0.01286247991396860 a3_z2
<= 0.000000

a4_local_1: 
+2676.72658297970656349 a4_x3
+2600.31932572498317313 a4_x2
+3629.43933843480635915 a4_x5
<= 530722.984204

a4_local_2: 
+8.92369582287754959 a4_x2
+17.59419066245884267 a4_x5
+20.62694285868506938 a4_x3
<= 3261.762386

a4_local_3: 
+1.24886114557601346 a4_x4
+0.58353947676732099 a4_x5
+0.59586503076581321 a4_x2
<= 82.312006

a4_local_4: 
+1004733.60474134655669332 a4_x5
+1023592.51111911819316447 a4_x3
+848276.96848458214662969 a4_x1
<= 95187549.874729

a4_local_5: 
+2888614.74301671562716365 a4_x5
+4407437.81697348970919847 a4_x6
+2227049.63636353425681591 a4_x1
<= 511213132.961628

a4_local_6: 
+0.14036224202640482 a4_x3
+0.06344272046306360 a4_x2
+0.08132551559546564 a4_x1
<= 13.984681

a4_local_7: 
+0.00001054531573480 a4_x1
+0.00000931253051519 a4_x2
+0.00002060863741433 a4_x3
<= 0.002472

a4_local_8: 
+0.05437472841793490 a4_x3
+0.03886085680978834 a4_x1
+0.05985924763986213 a4_x4
<= 8.799336

a4_act_1: 
+0.00184428378640038 a4_x1
-0.18442837864003761 a4_z1
<= 0.000000

a4_act_2: 
+71551.72279249201528728 a4_x2
-7155172.27924920152872801 a4_z2
<= 0.000000

coupling_1: 
+0.07489134878263023 a1_x1
+0.44616671829466220 a2_x1
+2.09478585098784631 a3_x1
+3.93396883296637956 a4_x1
+0.66348925535804648 short_1
-0.66348925535804648 surp_1
= 370.379237

coupling_2: 
+0.00000144422247617 a1_x2
+0.00000613671711131 a2_x2
+0.00002330890216517 a3_x2
+0.00016783669490175 a4_x2
+0.00001787045756171 short_2
-0.00001787045756171 surp_2
= 0.010915

coupling_3: 
+0.00000949140758023 a1_x3
+0.00002934202168387 a2_x3
+0.00019495084465956 a3_x3
+0.00102182094591184 a4_x3
+0.00011917326850739 short_3
-0.00011917326850739 surp_3
= 0.027399

bounds
  0.000000 <= a1_x1 <= 100.000000
  0.000000 <= a1_x2 <= 100.000000
  0.000000 <= a1_x3 <= 100.000000
  0.000000 <= a1_x4 <= 100.000000
  0.000000 <= a1_x5 <= 100.000000
  0.000000 <= a1_x6 <= 100.000000
  0.000000 <= a2_x1 <= 100.000000
  0.000000 <= a2_x2 <= 100.000000
  0.000000 <= a2_x3 <= 100.000000
  0.000000 <= a2_x4 <= 100.000000
  0.000000 <= a2_x5 <= 100.000000
  0.000000 <= a2_x6 <= 100.000000
  0.000000 <= a3_x1 <= 100.000000
  0.000000 <= a3_x2 <= 100.000000
  0.000000 <= a3_x3 <= 100.000000
  0.000000 <= a3_x4 <= 100.000000
  0.000000 <= a3_x5 <= 100.000000
  0.000000 <= a3_x6 <= 100.000000
  0.000000 <= a4_x1 <= 100.000000
  0.000000 <= a4_x2 <= 100.000000
  0.000000 <= a4_x3 <= 100.000000
  0.000000 <= a4_x4 <= 100.000000
  0.000000 <= a4_x5 <= 100.000000
  0.000000 <= a4_x6 <= 100.000000
  0.000000 <= short_1 <= +inf
  0.000000 <= surp_1 <= +inf
  0.000000 <= short_2 <= +inf
  0.000000 <= surp_2 <= +inf
  0.000000 <= short_3 <= +inf
  0.000000 <= surp_3 <= +inf
 0 <= a1_z1 <= 1
 0 <= a1_z2 <= 1
 0 <= a2_z1 <= 1
 0 <= a2_z2 <= 1
 0 <= a3_z1 <= 1
 0 <= a3_z2 <= 1
 0 <= a4_z1 <= 1
 0 <= a4_z2 <= 1

binary
  a1_z1
  a1_z2
  a2_z1
  a2_z2
  a3_z1
  a3_z2
  a4_z1
  a4_z2
end
