min
obj: 
  +2.37029411872895501 a1_x1
  +4.08711411622905185 a1_x2
  +7.66136637275760890 a1_x3
  +4.89991689432673461 a1_x4
  +9.18560754331382867 a1_x5
  +7.80552329567271030 a1_x6
  +17.43087311454965516 a1_z1
  +23.40237872614093462 a1_z2
  +7.76967499598976019 a2_x1
  +1.80336421538305247 a2_x2
  +9.57158160013941384 a2_x3
  +5.65827493894111466 a2_x4
  +2.44173723344263127 a2_x5
  +7.27299337053102857 a2_x6
  +31.32172731425238510 a2_z1
  +17.35876123031728824 a2_z2
  +2.34937597507828766 a3_x1
  +3.44404861330662637 a3_x2
  +8.97236298110027342 a3_x3
  +1.18282410761081147 a3_x4
  +8.94329086748358293 a3_x5
  +1.71905082189577563 a3_x6
  +16.00176469749968788 a3_z1
  +34.61198408971173990 a3_z2
  +6.56106695092732561 a4_x1
  +3.99053598556514322 a4_x2
  +4.10040873738996048 a4_x3
  +4.88744804784333908 a4_x4
  +2.91326732486744788 a4_x5
  +5.36841797601257653 a4_x6
  +43.70048480327027818 a4_z1
  +7.09598516541455737 a4_z2
  +1000000.00000000000000000 short_1
  +1000000.00000000000000000 surp_1
  +1000000.00000000000000000 short_2
  +1000000.00000000000000000 surp_2
  +1000000.00000000000000000 short_3
  +1000000.00000000000000000 surp_3

s.t.

a1_local_1: 
+0.77241195716615829 a1_x3
+0.55510986696212827 a1_x2
+0.30859812706501166 a1_x1
<= 114.444167

a1_local_2: 
+0.76791484251516662 a1_x6
+0.45663690431334680 a1_x3
+0.44920989778057019 a1_x2
<= 51.838027

a1_local_3: 
+0.57353003939573333 a1_x4
+0.66341421880025575 a1_x3
+0.48056723588315409 a1_x6
<= 52.862757

a1_local_4: 
+0.43063763239582575 a1_x5
+0.81322607193567842 a1_x3
+0.39142634746345878 a1_x6
<= 88.188979

a1_local_5: 
+0.75938868227298373 a1_x3
+0.57498645125237902 a1_x5
+0.30449862087027135 a1_x4
<= 99.342260

a1_local_6: 
+0.74094541606884645 a1_x3
+0.53463991929925525 a1_x1
+0.40639887684176712 a1_x6
<= 83.734928

a1_local_7: 
+0.97241999419420888 a1_x6
+1.14119600285869205 a1_x1
+1.09721732350998957 a1_x4
<= 147.780222

a1_local_8: 
+0.40881874508552435 a1_x3
+0.62272062132382799 a1_x2
+0.66714785575969782 a1_x4
<= 61.969700

a1_act_1: 
+0.00999950003749688 a1_x1
-0.99995000374968757 a1_z1
<= 0.000000

a1_act_2: 
+0.00999950003749688 a1_x2
-0.99995000374968757 a1_z2
<= 0.000000

a2_local_1: 
+0.60791199623513248 a2_x3
+0.71091188389924809 a2_x2
+0.35362027397229140 a2_x1
<= 105.923914

a2_local_2: 
+0.27298831903800402 a2_x6
+0.64549758915640554 a2_x2
+0.71330935789604855 a2_x1
<= 104.229229

a2_local_3: 
+0.46614415501724032 a2_x2
+0.77107279126206030 a2_x3
+0.43376995898586429 a2_x1
<= 93.242355

a2_local_4: 
+0.30416511406582325 a2_x1
+0.29164825978072995 a2_x4
+0.34658015588373881 a2_x5
<= 53.446403

a2_local_5: 
+0.44364439308008552 a2_x1
+0.66757537771419018 a2_x6
+0.59793207604071452 a2_x3
<= 52.893459

a2_local_6: 
+0.45672210821443548 a2_x1
+0.37229940364563713 a2_x6
+0.80795920064893401 a2_x2
<= 79.820062

a2_local_7: 
+0.55712484542162344 a2_x3
+0.50111201771719893 a2_x2
+0.66219230765188586 a2_x4
<= 70.751625

a2_local_8: 
+0.86672680351901010 a2_x4
+0.44642503367872044 a2_x3
+0.76532576550030196 a2_x1
<= 125.643030

a2_act_1: 
+0.00656717356249348 a2_x1
-0.65671735624934802 a2_z1
<= 0.000000

a2_act_2: 
+0.00999950003749688 a2_x2
-0.99995000374968757 a2_z2
<= 0.000000

a3_local_1: 
+0.46731663203920326 a3_x5
+0.31402123127994835 a3_x4
+0.82644166867659874 a3_x2
<= 72.167649

a3_local_2: 
+0.62364322641728220 a3_x4
+0.45102014007742142 a3_x5
+0.63847471319417626 a3_x3
<= 86.233261

a3_local_3: 
+0.61873482797448964 a3_x4
+0.32757898195559443 a3_x3
+0.71404427259961634 a3_x6
<= 70.380977

a3_local_4: 
+0.51561991303265620 a3_x4
+0.54327962890760961 a3_x5
+0.66255818619816786 a3_x2
<= 94.768204

a3_local_5: 
+0.72715879570718145 a3_x4
+0.28550485592540148 a3_x6
+0.62428123715894035 a3_x5
<= 67.364339

a3_local_6: 
+0.56936091402592681 a3_x1
+0.54563177164048937 a3_x5
+0.61490984652713265 a3_x3
<= 57.308230

a3_local_7: 
+0.53565463193328733 a3_x6
+0.41952980869997958 a3_x4
+0.73284981742548938 a3_x1
<= 63.639564

a3_local_8: 
+0.68674676701610360 a3_x4
+0.33557359090746147 a3_x2
+0.64480170834016970 a3_x1
<= 105.444003

a3_act_1: 
+0.00999950003749688 a3_x1
-0.99995000374968745 a3_z1
<= 0.000000

a3_act_2: 
+0.00787136829421554 a3_x2
-0.78713682942155372 a3_z2
<= 0.000000

a4_local_1: 
+0.53699798738911919 a4_x5
+0.67419212866122302 a4_x2
+0.50704845448071745 a4_x1
<= 114.959316

a4_local_2: 
+0.61966013127884101 a4_x4
+0.33982951438988573 a4_x2
+0.70748655312523356 a4_x6
<= 104.060517

a4_local_3: 
+0.69341408287709871 a4_x1
+0.49508363420821433 a4_x3
+0.52351609794437026 a4_x6
<= 84.809918

a4_local_4: 
+0.50648080789037353 a4_x3
+0.66772172345937819 a4_x4
+0.54555008134831418 a4_x1
<= 103.814040

a4_local_5: 
+0.65010965356042627 a4_x6
+0.67162516863435417 a4_x3
+0.35535485251283350 a4_x4
<= 80.222777

a4_local_6: 
+0.55410477173770900 a4_x5
+1.18679902591218145 a4_x4
+0.58959751205058930 a4_x2
<= 130.505282

a4_local_7: 
+0.68481414059526780 a4_x6
+0.49666124622017876 a4_x2
+0.53325153477864828 a4_x4
<= 116.051988

a4_local_8: 
+0.39801599426753953 a4_x6
+0.65454914870586722 a4_x2
+0.64276642743351675 a4_x1
<= 61.266853

a4_act_1: 
+0.00999950003749688 a4_x1
-0.99995000374968768 a4_z1
<= 0.000000

a4_act_2: 
+0.00999950003749687 a4_x2
-0.99995000374968745 a4_z2
<= 0.000000

coupling_1: 
+0.00617843813906450 a1_x1
+0.04654503078289615 a2_x1
+0.18878369005838908 a3_x1
+0.97553558107210292 a4_x1
+0.07241006643358920 short_1
-0.07241006643358920 surp_1
= 25.478588

coupling_2: 
+0.00722080907009000 a1_x2
+0.04881161477206526 a2_x2
+0.19431971060445224 a3_x2
+0.97390222438087282 a4_x2
+0.07523162099910871 short_2
-0.07523162099910871 surp_2
= 96.149449

coupling_3: 
+0.00494056496082572 a1_x3
+0.02461372353094207 a2_x3
+0.23042506906132934 a3_x3
+0.96590280947788387 a4_x3
+0.08156532848773007 short_3
-0.08156532848773007 surp_3
= 68.147706

bounds
  0.000000 <= a1_x1 <= 100.000000
  0.000000 <= a1_x2 <= 100.000000
  0.000000 <= a1_x3 <= 100.000000
  0.000000 <= a1_x4 <= 100.000000
  0.000000 <= a1_x5 <= 100.000000
  0.000000 <= a1_x6 <= 100.000000
  0.000000 <= a2_x1 <= 100.000000
  0.000000 <= a2_x2 <= 100.000000
  0.000000 <= a2_x3 <= 100.000000
  0.000000 <= a2_x4 <= 100.000000
  0.000000 <= a2_x5 <= 100.000000
  0.000000 <= a2_x6 <= 100.000000
  0.000000 <= a3_x1 <= 100.000000
  0.000000 <= a3_x2 <= 100.000000
  0.000000 <= a3_x3 <= 100.000000
  0.000000 <= a3_x4 <= 100.000000
  0.000000 <= a3_x5 <= 100.000000
  0.000000 <= a3_x6 <= 100.000000
  0.000000 <= a4_x1 <= 100.000000
  0.000000 <= a4_x2 <= 100.000000
  0.000000 <= a4_x3 <= 100.000000
  0.000000 <= a4_x4 <= 100.000000
  0.000000 <= a4_x5 <= 100.000000
  0.000000 <= a4_x6 <= 100.000000
  0.000000 <= short_1 <= +inf
  0.000000 <= surp_1 <= +inf
  0.000000 <= short_2 <= +inf
  0.000000 <= surp_2 <= +inf
  0.000000 <= short_3 <= +inf
  0.000000 <= surp_3 <= +inf
 0 <= a1_z1 <= 1
 0 <= a1_z2 <= 1
 0 <= a2_z1 <= 1
 0 <= a2_z2 <= 1
 0 <= a3_z1 <= 1
 0 <= a3_z2 <= 1
 0 <= a4_z1 <= 1
 0 <= a4_z2 <= 1

binary
  a1_z1
  a1_z2
  a2_z1
  a2_z2
  a3_z1
  a3_z2
  a4_z1
  a4_z2
end
