min
obj: 
  +2.37029411872895501 a1_x1
  +4.08711411622905185 a1_x2
  +7.66136637275760890 a1_x3
  +4.89991689432673461 a1_x4
  +9.18560754331382867 a1_x5
  +7.80552329567271030 a1_x6
  +17.43087311454965516 a1_z1
  +23.40237872614093462 a1_z2
  +7.76967499598976019 a2_x1
  +1.80336421538305247 a2_x2
  +9.57158160013941384 a2_x3
  +5.65827493894111466 a2_x4
  +2.44173723344263127 a2_x5
  +7.27299337053102857 a2_x6
  +31.32172731425238510 a2_z1
  +17.35876123031728824 a2_z2
  +2.34937597507828766 a3_x1
  +3.44404861330662637 a3_x2
  +8.97236298110027342 a3_x3
  +1.18282410761081147 a3_x4
  +8.94329086748358293 a3_x5
  +1.71905082189577563 a3_x6
  +16.00176469749968788 a3_z1
  +34.61198408971173990 a3_z2
  +6.56106695092732561 a4_x1
  +3.99053598556514322 a4_x2
  +4.10040873738996048 a4_x3
  +4.88744804784333908 a4_x4
  +2.91326732486744788 a4_x5
  +5.36841797601257653 a4_x6
  +43.70048480327027818 a4_z1
  +7.09598516541455737 a4_z2
  +1000000.00000000000000000 short_1
  +1000000.00000000000000000 surp_1
  +1000000.00000000000000000 short_2
  +1000000.00000000000000000 surp_2
  +1000000.00000000000000000 short_3
  +1000000.00000000000000000 surp_3

s.t.

a1_local_1: 
+1.58207785332520401 a1_x3
+1.13699304954462610 a1_x2
+0.63208014567564075 a1_x1
<= 234.408053

a1_local_2: 
+1.30747042081618203 a1_x6
+0.77748105960196801 a1_x3
+0.76483565829026956 a1_x2
<= 88.260681

a1_local_3: 
+1.01574970016890931 a1_x4
+1.17493897014379156 a1_x3
+0.85110803659667345 a1_x6
<= 93.622523

a1_local_4: 
+0.76327546880282460 a1_x5
+1.44138706096369740 a1_x3
+0.69377617371659317 a1_x6
<= 156.308875

a1_local_5: 
+1.57920821723259652 a1_x3
+1.19572934099741035 a1_x5
+0.63322872125906182 a1_x4
<= 206.590006

a1_local_6: 
+1.35025830844615591 a1_x3
+0.97429848056948454 a1_x1
+0.74059903482525158 a1_x6
<= 152.593943

a1_local_7: 
+0.97241999419420888 a1_x6
+1.14119600285869205 a1_x1
+1.09721732350998957 a1_x4
<= 147.780222

a1_local_8: 
+0.78280637379220064 a1_x3
+1.19238581235347696 a1_x2
+1.27745510700894505 a1_x4
<= 118.659619

a1_act_1: 
+0.10000000000000001 a1_x1
-10.00000000000000000 a1_z1
<= 0.000000

a1_act_2: 
+0.10000000000000001 a1_x2
-10.00000000000000000 a1_z2
<= 0.000000

a2_local_1: 
+1.21245114617398175 a2_x3
+1.41787945261892556 a2_x2
+0.70527857509531411 a2_x1
<= 211.260136

a2_local_2: 
+0.61863298338434214 a2_x6
+1.46279555386996396 a2_x2
+1.61646731884439987 a2_x1
<= 236.199259

a2_local_3: 
+0.80601443189449951 a2_x2
+1.33326952855476555 a2_x3
+0.75003589190550057 a2_x1
<= 161.226271

a2_local_4: 
+0.95670459642878791 a2_x1
+0.91733475592568969 a2_x4
+1.09011458852978071 a2_x5
<= 168.107444

a2_local_5: 
+1.58866386319925934 a2_x1
+2.39054723800979474 a2_x6
+2.14115876740522459 a2_x3
<= 189.408291

a2_local_6: 
+0.83274330347580938 a2_x1
+0.67881503806769872 a2_x6
+1.47315534264912529 a2_x2
<= 145.536249

a2_local_7: 
+0.96714825325243492 a2_x3
+0.86991204323730498 a2_x2
+1.14954150568899283 a2_x4
<= 122.822221

a2_local_8: 
+0.86672680351901010 a2_x4
+0.44642503367872044 a2_x3
+0.76532576550030196 a2_x1
<= 125.643030

a2_act_1: 
+0.09999999999999999 a2_x1
-10.00000000000000000 a2_z1
<= 0.000000

a2_act_2: 
+0.10000000000000001 a2_x2
-10.00000000000000000 a2_z2
<= 0.000000

a3_local_1: 
+0.91733006822027341 a3_x5
+0.61641529054006317 a3_x4
+1.62228292410440500 a3_x2
<= 141.663168

a3_local_2: 
+1.16216125120840341 a3_x4
+0.84047754887639736 a3_x5
+1.18979977673033854 a3_x3
<= 160.695973

a3_local_3: 
+1.27933410688494864 a3_x4
+0.67732240915929154 a3_x3
+1.47640176447317528 a3_x6
<= 145.524029

a3_local_4: 
+0.88217110480703187 a3_x4
+0.92949395153058523 a3_x5
+1.13356694018984272 a3_x2
<= 162.138368

a3_local_5: 
+1.59590810830689778 a3_x4
+0.62660249346116936 a3_x6
+1.37012093386959632 a3_x5
<= 147.845691

a3_local_6: 
+0.98295152504275141 a3_x1
+0.94198524843132214 a3_x5
+1.06158774955901825 a3_x3
<= 98.937617

a3_local_7: 
+0.96604189395861917 a3_x6
+0.75661321084049016 a3_x4
+1.32167927505408156 a3_x1
<= 114.772620

a3_local_8: 
+1.43055455384777264 a3_x4
+0.69902961569014810 a3_x2
+1.34317926854284431 a3_x1
<= 219.649230

a3_act_1: 
+0.09999999999999999 a3_x1
-10.00000000000000000 a3_z1
<= 0.000000

a3_act_2: 
+0.10000000000000001 a3_x2
-10.00000000000000000 a3_z2
<= 0.000000

a4_local_1: 
+0.91845120334564068 a4_x5
+1.15310035865435334 a4_x2
+0.86722720402843434 a4_x1
<= 196.619958

a4_local_2: 
+1.26375798396321559 a4_x4
+0.69306098668998728 a4_x2
+1.44287446444782996 a4_x6
<= 212.224900

a4_local_3: 
+1.18346942863511884 a4_x1
+0.84497324206615798 a4_x3
+0.89349973214392187 a4_x6
<= 144.747486

a4_local_4: 
+0.87093098926996493 a4_x3
+1.14819659917971650 a4_x4
+0.93811347763415986 a4_x1
<= 178.515875

a4_local_5: 
+1.33073631453956853 a4_x6
+1.37477731143616078 a4_x3
+0.72739053203849469 a4_x4
<= 164.211317

a4_local_6: 
+0.55410477173770900 a4_x5
+1.18679902591218145 a4_x4
+0.58959751205058930 a4_x2
<= 130.505282

a4_local_7: 
+1.17423824900846996 a4_x6
+0.85161593130218904 a4_x2
+0.91435662811412177 a4_x4
<= 198.992215

a4_local_8: 
+0.77979263868378690 a4_x6
+1.28239220325021419 a4_x2
+1.25930750453414775 a4_x1
<= 120.033972

a4_act_1: 
+0.09999999999999999 a4_x1
-10.00000000000000000 a4_z1
<= 0.000000

a4_act_2: 
+0.09999999999999999 a4_x2
-10.00000000000000000 a4_z2
<= 0.000000

coupling_1: 
+0.07958253964077944 a1_x1
+0.59953206198516584 a2_x1
+2.43166398359038727 a3_x1
+12.56557034386954008 a4_x1
+0.93269153993910758 short_1
-0.93269153993910758 surp_1
= 328.181767

coupling_2: 
+0.08610636424502491 a1_x2
+0.58206644714660771 a2_x2
+2.31721454187213860 a3_x2
+11.61354342118536742 a4_x2
+0.89711849428698087 short_2
-0.89711849428698087 surp_2
= 1146.558430

coupling_3: 
+0.07151902617563974 a1_x3
+0.35630531152761036 a2_x3
+3.33560567999626434 a3_x3
+13.98229329275476474 a4_x3
+1.18072991841881647 short_3
-1.18072991841881647 surp_3
= 986.498027

bounds
  0.000000 <= a1_x1 <= 100.000000
  0.000000 <= a1_x2 <= 100.000000
  0.000000 <= a1_x3 <= 100.000000
  0.000000 <= a1_x4 <= 100.000000
  0.000000 <= a1_x5 <= 100.000000
  0.000000 <= a1_x6 <= 100.000000
  0.000000 <= a2_x1 <= 100.000000
  0.000000 <= a2_x2 <= 100.000000
  0.000000 <= a2_x3 <= 100.000000
  0.000000 <= a2_x4 <= 100.000000
  0.000000 <= a2_x5 <= 100.000000
  0.000000 <= a2_x6 <= 100.000000
  0.000000 <= a3_x1 <= 100.000000
  0.000000 <= a3_x2 <= 100.000000
  0.000000 <= a3_x3 <= 100.000000
  0.000000 <= a3_x4 <= 100.000000
  0.000000 <= a3_x5 <= 100.000000
  0.000000 <= a3_x6 <= 100.000000
  0.000000 <= a4_x1 <= 100.000000
  0.000000 <= a4_x2 <= 100.000000
  0.000000 <= a4_x3 <= 100.000000
  0.000000 <= a4_x4 <= 100.000000
  0.000000 <= a4_x5 <= 100.000000
  0.000000 <= a4_x6 <= 100.000000
  0.000000 <= short_1 <= +inf
  0.000000 <= surp_1 <= +inf
  0.000000 <= short_2 <= +inf
  0.000000 <= surp_2 <= +inf
  0.000000 <= short_3 <= +inf
  0.000000 <= surp_3 <= +inf
 0 <= a1_z1 <= 1
 0 <= a1_z2 <= 1
 0 <= a2_z1 <= 1
 0 <= a2_z2 <= 1
 0 <= a3_z1 <= 1
 0 <= a3_z2 <= 1
 0 <= a4_z1 <= 1
 0 <= a4_z2 <= 1

binary
  a1_z1
  a1_z2
  a2_z1
  a2_z2
  a3_z1
  a3_z2
  a4_z1
  a4_z2
end
