min
obj: 
  +4.68205187695116365 a1_x1
  +5.71291625483064269 a1_x2
  +9.00563589084773142 a1_x3
  +9.01724711762336106 a1_x4
  +9.40638568868457803 a1_x5
  +5.77535620951187667 a1_x6
  +36.44079832510822570 a1_z1
  +20.35589591192510284 a1_z2
  +9.85237733259970305 a2_x1
  +8.66656609951932211 a2_x2
  +1.31834896047554095 a2_x3
  +8.26919439786070853 a2_x4
  +6.06353184831551140 a2_x5
  +3.26315819103542193 a2_x6
  +31.01579944565894920 a2_z1
  +42.14273897613190911 a2_z2
  +3.40700085697226296 a3_x1
  +9.41882509326676143 a3_x2
  +9.74900107951637906 a3_x3
  +7.04508203399397814 a3_x4
  +9.97637618984075480 a3_x5
  +5.84735535483849578 a3_x6
  +49.07354774414897491 a3_z1
  +13.99914181947612590 a3_z2
  +1.91431389506638183 a4_x1
  +6.10422017205319989 a4_x2
  +2.25748963263893865 a4_x3
  +5.65946667698913863 a4_x4
  +4.35204976180165826 a4_x5
  +6.78234121926408484 a4_x6
  +29.95675458969477134 a4_z1
  +32.97214499302464219 a4_z2
  +1000000.00000000000000000 short_1
  +1000000.00000000000000000 surp_1
  +1000000.00000000000000000 short_2
  +1000000.00000000000000000 surp_2
  +1000000.00000000000000000 short_3
  +1000000.00000000000000000 surp_3

s.t.

a1_local_1: 
+1.36239454542144500 a1_x4
+1.11471004010267372 a1_x2
+0.73400176429116459 a1_x6
<= 140.876444

a1_local_2: 
+1.49530127330705986 a1_x3
+0.66876155183655095 a1_x4
+1.34757996016478310 a1_x5
<= 147.516850

a1_local_3: 
+0.75418227837105534 a1_x1
+1.32593940308420111 a1_x3
+0.99171137006251386 a1_x6
<= 159.952193

a1_local_4: 
+0.81799788854876521 a1_x2
+0.71068903451150733 a1_x1
+1.40708516867345601 a1_x5
<= 140.440268

a1_local_5: 
+0.77395509511110960 a1_x2
+1.26015014184626373 a1_x3
+1.29206462534682243 a1_x5
<= 141.653909

a1_local_6: 
+1.19230963765816678 a1_x6
+0.83870830899607163 a1_x1
+1.05908132036306601 a1_x3
<= 161.215047

a1_local_7: 
+1.15787803002376477 a1_x4
+0.93740203579326953 a1_x2
+0.86364882489347816 a1_x5
<= 155.811052

a1_local_8: 
+1.11961694160423453 a1_x6
+1.09288009297621502 a1_x2
+0.89316261914289863 a1_x4
<= 194.266594

a1_act_1: 
+0.09999999999999999 a1_x1
-10.00000000000000000 a1_z1
<= 0.000000

a1_act_2: 
+0.07273068583572291 a1_x2
-7.27306858357229125 a1_z2
<= 0.000000

a2_local_1: 
+0.83322734713048530 a2_x2
+1.14513098429086102 a2_x6
+1.20015263954532392 a2_x5
<= 105.389257

a2_local_2: 
+0.82255223736599736 a2_x1
+0.96510171389543442 a2_x4
+1.21572825964492104 a2_x5
<= 208.554766

a2_local_3: 
+1.52431605120596969 a2_x2
+1.05855831870770722 a2_x5
+0.65603192934224208 a2_x1
<= 204.441632

a2_local_4: 
+0.72182797607453419 a2_x6
+1.38537163028541666 a2_x4
+0.76786776819486413 a2_x5
<= 107.216599

a2_local_5: 
+0.73462857105759249 a2_x5
+1.36123211020825252 a2_x3
+0.95584220545224452 a2_x6
<= 157.714823

a2_local_6: 
+1.19591252181658292 a2_x6
+0.83618156157526236 a2_x4
+1.09237610674333241 a2_x1
<= 164.448113

a2_local_7: 
+0.98123234262351178 a2_x3
+0.89617254994848894 a2_x6
+1.11585653907551485 a2_x1
<= 139.908988

a2_local_8: 
+0.96150893426335293 a2_x5
+0.96362970282087101 a2_x3
+1.04003193768151170 a2_x6
<= 206.246695

a2_act_1: 
+0.09999999999999999 a2_x1
-10.00000000000000000 a2_z1
<= 0.000000

a2_act_2: 
+0.09999999999999999 a2_x2
-10.00000000000000000 a2_z2
<= 0.000000

a3_local_1: 
+1.21619835899852791 a3_x5
+0.82223429476047383 a3_x2
+0.98414990542296277 a3_x3
<= 117.044752

a3_local_2: 
+1.23350544512000382 a3_x2
+0.81069767787098268 a3_x3
+1.10747539294270969 a3_x4
<= 159.772695

a3_local_3: 
+0.70141346562245210 a3_x6
+1.42569261785211743 a3_x4
+1.22383492363242863 a3_x1
<= 229.930499

a3_local_4: 
+1.40062176360039836 a3_x4
+1.57615600289032032 a3_x2
+0.63445496395421641 a3_x1
<= 177.789166

a3_local_5: 
+0.66190003401050879 a3_x3
+1.29458188561954946 a3_x5
+1.51080215835753107 a3_x2
<= 171.505359

a3_local_6: 
+1.10784933803536689 a3_x1
+1.00365164757835279 a3_x6
+0.90264981497698571 a3_x2
<= 136.787274

a3_local_7: 
+0.99801149312313953 a3_x1
+1.33146329326840451 a3_x4
+0.75105337492650970 a3_x6
<= 105.145413

a3_local_8: 
+1.44858762107791139 a3_x4
+0.69032758905939562 a3_x3
+1.11090800299880454 a3_x5
<= 206.575136

a3_act_1: 
+0.10000000000000001 a3_x1
-10.00000000000000000 a3_z1
<= 0.000000

a3_act_2: 
+0.09999999999999999 a3_x2
-10.00000000000000000 a3_z2
<= 0.000000

a4_local_1: 
+1.14537784401327092 a4_x3
+0.87307433544909196 a4_x5
+0.99980797331340987 a4_x2
<= 192.848527

a4_local_2: 
+1.67350088815468689 a4_x3
+0.78555872959909845 a4_x2
+1.17059154665047904 a4_x6
<= 124.705930

a4_local_3: 
+0.73632386902872871 a4_x5
+1.14133217823223032 a4_x6
+1.35809803547327812 a4_x3
<= 189.504627

a4_local_4: 
+0.98904665465250385 a4_x3
+0.93424173670005251 a4_x6
+1.07038677541020588 a4_x1
<= 203.488854

a4_local_5: 
+1.59904084269523139 a4_x3
+1.64760294830835674 a4_x6
+0.60694234677519254 a4_x5
<= 199.145638

a4_local_6: 
+0.84295729347153858 a4_x3
+0.87648915554291307 a4_x4
+1.18629971855598382 a4_x6
<= 170.331096

a4_local_7: 
+0.91987683469109616 a4_x6
+0.82290019375446899 a4_x3
+1.21521419923054808 a4_x1
<= 200.139374

a4_local_8: 
+0.66328798980764081 a4_x1
+1.50764074635213619 a4_x6
+1.15017900346028523 a4_x3
<= 175.869160

a4_act_1: 
+0.09999999999999999 a4_x1
-10.00000000000000000 a4_z1
<= 0.000000

a4_act_2: 
+0.10000000000000001 a4_x2
-10.00000000000000178 a4_z2
<= 0.000000

coupling_1: 
+0.00740712830844714 a1_x1
+0.02281511458580364 a2_x1
+0.10194319734160776 a3_x1
+0.98698402570955490 a4_x1
+0.08257644576786453 short_1
-0.08257644576786453 surp_1
= 56.475440

coupling_2: 
+0.00862851892717797 a1_x2
+0.01900905935027944 a2_x2
+0.09129858710504349 a3_x2
+0.99000296439476176 a4_x2
+0.07139239593390578 short_2
-0.07139239593390578 surp_2
= 26.389770

coupling_3: 
+0.00612736478846730 a1_x3
+0.04763200015086251 a2_x3
+0.10855548435702435 a3_x3
+0.98558899714039450 a4_x3
+0.07964094269545079 short_3
-0.07964094269545079 surp_3
= 69.024108

bounds
  0.000000 <= a1_x1 <= 100.000000
  0.000000 <= a1_x2 <= 100.000000
  0.000000 <= a1_x3 <= 100.000000
  0.000000 <= a1_x4 <= 100.000000
  0.000000 <= a1_x5 <= 100.000000
  0.000000 <= a1_x6 <= 100.000000
  0.000000 <= a2_x1 <= 100.000000
  0.000000 <= a2_x2 <= 100.000000
  0.000000 <= a2_x3 <= 100.000000
  0.000000 <= a2_x4 <= 100.000000
  0.000000 <= a2_x5 <= 100.000000
  0.000000 <= a2_x6 <= 100.000000
  0.000000 <= a3_x1 <= 100.000000
  0.000000 <= a3_x2 <= 100.000000
  0.000000 <= a3_x3 <= 100.000000
  0.000000 <= a3_x4 <= 100.000000
  0.000000 <= a3_x5 <= 100.000000
  0.000000 <= a3_x6 <= 100.000000
  0.000000 <= a4_x1 <= 100.000000
  0.000000 <= a4_x2 <= 100.000000
  0.000000 <= a4_x3 <= 100.000000
  0.000000 <= a4_x4 <= 100.000000
  0.000000 <= a4_x5 <= 100.000000
  0.000000 <= a4_x6 <= 100.000000
  0.000000 <= short_1 <= +inf
  0.000000 <= surp_1 <= +inf
  0.000000 <= short_2 <= +inf
  0.000000 <= surp_2 <= +inf
  0.000000 <= short_3 <= +inf
  0.000000 <= surp_3 <= +inf
 0 <= a1_z1 <= 1
 0 <= a1_z2 <= 1
 0 <= a2_z1 <= 1
 0 <= a2_z2 <= 1
 0 <= a3_z1 <= 1
 0 <= a3_z2 <= 1
 0 <= a4_z1 <= 1
 0 <= a4_z2 <= 1

binary
  a1_z1
  a1_z2
  a2_z1
  a2_z2
  a3_z1
  a3_z2
  a4_z1
  a4_z2
end
