min
obj: 
  +4.68205187695116365 a1_x1
  +5.71291625483064269 a1_x2
  +9.00563589084773142 a1_x3
  +9.01724711762336106 a1_x4
  +9.40638568868457803 a1_x5
  +5.77535620951187667 a1_x6
  +36.44079832510822570 a1_z1
  +20.35589591192510284 a1_z2
  +9.85237733259970305 a2_x1
  +8.66656609951932211 a2_x2
  +1.31834896047554095 a2_x3
  +8.26919439786070853 a2_x4
  +6.06353184831551140 a2_x5
  +3.26315819103542193 a2_x6
  +31.01579944565894920 a2_z1
  +42.14273897613190911 a2_z2
  +3.40700085697226296 a3_x1
  +9.41882509326676143 a3_x2
  +9.74900107951637906 a3_x3
  +7.04508203399397814 a3_x4
  +9.97637618984075480 a3_x5
  +5.84735535483849578 a3_x6
  +49.07354774414897491 a3_z1
  +13.99914181947612590 a3_z2
  +1.91431389506638183 a4_x1
  +6.10422017205319989 a4_x2
  +2.25748963263893865 a4_x3
  +5.65946667698913863 a4_x4
  +4.35204976180165826 a4_x5
  +6.78234121926408484 a4_x6
  +29.95675458969477134 a4_z1
  +32.97214499302464219 a4_z2
  +1000000.00000000000000000 short_1
  +1000000.00000000000000000 surp_1
  +1000000.00000000000000000 short_2
  +1000000.00000000000000000 surp_2
  +1000000.00000000000000000 short_3
  +1000000.00000000000000000 surp_3

s.t.

a1_local_1: 
+0.71433844523206802 a1_x4
+0.58447109877792247 a1_x2
+0.38485597352355061 a1_x6
<= 73.865137

a1_local_2: 
+0.70495917278386278 a1_x3
+0.31528735967011728 a1_x4
+0.63531602021367128 a1_x5
<= 69.546758

a1_local_3: 
+0.41451117236781232 a1_x1
+0.72875843443075417 a1_x3
+0.54506112705667975 a1_x6
<= 87.912396

a1_local_4: 
+0.46059081302182608 a1_x2
+0.40016831925090907 a1_x1
+0.79228872213846102 a1_x5
<= 79.077829

a1_local_5: 
+0.39411578841246075 a1_x2
+0.64169752199966557 a1_x3
+0.65794911321736205 a1_x5
<= 72.133438

a1_local_6: 
+0.66171173080293666 a1_x6
+0.46546895978685998 a1_x1
+0.58777226269425165 a1_x3
<= 89.471631

a1_local_7: 
+0.67240197120697542 a1_x4
+0.54436733432785611 a1_x2
+0.50153743074047596 a1_x5
<= 90.482465

a1_local_8: 
+0.62146601471376817 a1_x6
+0.60662518643990138 a1_x2
+0.49576796561752656 a1_x4
<= 107.831600

a1_act_1: 
+0.00999950003749688 a1_x1
-0.99995000374968757 a1_z1
<= 0.000000

a1_act_2: 
+0.00999950003749688 a1_x2
-0.99995000374968757 a1_z2
<= 0.000000

a2_local_1: 
+0.44885746616390759 a2_x2
+0.61687916725815728 a2_x6
+0.64651919389280244 a2_x5
<= 56.772926

a2_local_2: 
+0.46823612257877850 a2_x1
+0.54938211080138299 a2_x4
+0.69205074224641072 a2_x5
<= 118.719360

a2_local_3: 
+0.77440698609889358 a2_x2
+0.53778542616001102 a2_x5
+0.33328764647241838 a2_x1
<= 103.863649

a2_local_4: 
+0.41468542146143300 a2_x6
+0.79588688361712900 a2_x4
+0.44113497901840470 a2_x5
<= 61.595230

a2_local_5: 
+0.40401631066425492 a2_x5
+0.74862317746819784 a2_x3
+0.52567495553304000 a2_x6
<= 86.736840

a2_local_6: 
+0.65607633883902949 a2_x6
+0.45872831625651234 a2_x4
+0.59927637153490398 a2_x1
<= 90.216060

a2_local_7: 
+0.56547167327310022 a2_x3
+0.51645280057307630 a2_x6
+0.64305387916250556 a2_x1
<= 80.627764

a2_local_8: 
+0.56126493618842443 a2_x5
+0.56250289975453283 a2_x3
+0.60710144059551197 a2_x6
<= 120.393097

a2_act_1: 
+0.00999950003749687 a2_x1
-0.99995000374968745 a2_z1
<= 0.000000

a2_act_2: 
+0.00999950003749688 a2_x2
-0.99995000374968757 a2_z2
<= 0.000000

a3_local_1: 
+0.68812236348274247 a3_x5
+0.46521836019664292 a3_x2
+0.55682985750664571 a3_x3
<= 66.223664

a3_local_2: 
+0.66844458967972231 a3_x2
+0.43932232223429896 a3_x3
+0.60014808815372422 a3_x4
<= 86.581858

a3_local_3: 
+0.34973093666598259 a3_x6
+0.71086290622709913 a3_x4
+0.61021488058641848 a3_x1
<= 114.645373

a3_local_4: 
+0.63608518661876157 a3_x4
+0.71580316063459859 a3_x2
+0.28813446616067034 a3_x1
<= 80.742038

a3_local_5: 
+0.31567127026281783 a3_x3
+0.61740789740806823 a3_x5
+0.72052698585743968 a3_x2
<= 81.793793

a3_local_6: 
+0.63441264836813482 a3_x1
+0.57474358463614283 a3_x6
+0.51690463676593812 a3_x2
<= 78.331569

a3_local_7: 
+0.54666872771579833 a3_x1
+0.72931960157448539 a3_x4
+0.41139545561032176 a3_x6
<= 57.594236

a3_local_8: 
+0.74222403752031085 a3_x4
+0.35370848328944032 a3_x3
+0.56920452121898313 a3_x5
<= 105.844499

a3_act_1: 
+0.00999950003749687 a3_x1
-0.99995000374968745 a3_z1
<= 0.000000

a3_act_2: 
+0.00999950003749688 a3_x2
-0.99995000374968757 a3_z2
<= 0.000000

a4_local_1: 
+0.65330116758955559 a4_x3
+0.49798456092255117 a4_x5
+0.57027095446717035 a4_x2
<= 109.997036

a4_local_2: 
+0.76480237003958962 a4_x3
+0.35900619022984709 a4_x2
+0.53496905532794825 a4_x6
<= 56.991539

a4_local_3: 
+0.38335425840995246 a4_x5
+0.59421481387365060 a4_x6
+0.70707019986141273 a4_x3
<= 98.662299

a4_local_4: 
+0.57133602830775065 a4_x3
+0.53967723445066307 a4_x6
+0.61832323696688729 a4_x1
<= 117.548058

a4_local_5: 
+0.67332326360099481 a4_x3
+0.69377176908360172 a4_x6
+0.25557095906286953 a4_x5
<= 83.856139

a4_local_6: 
+0.49619066165061454 a4_x3
+0.51592854986444281 a4_x4
+0.69829260251380210 a4_x6
<= 100.262137

a4_local_7: 
+0.53108373222857952 a4_x6
+0.47509502323482611 a4_x3
+0.70159446139465975 a4_x1
<= 115.548910

a4_local_8: 
+0.33016800447811762 a4_x1
+0.75046547554304965 a4_x6
+0.57253005059724316 a4_x3
<= 87.543225

a4_act_1: 
+0.00999950003749688 a4_x1
-0.99995000374968757 a4_z1
<= 0.000000

a4_act_2: 
+0.00999950003749688 a4_x2
-0.99995000374968768 a4_z2
<= 0.000000

coupling_1: 
+0.00741178802162563 a1_x1
+0.02282946723175187 a2_x1
+0.10200732827607105 a3_x1
+0.98760492253758947 a4_x1
+0.08262839336976292 short_1
-0.08262839336976292 surp_1
= 56.510967

coupling_2: 
+0.00863253033602148 a1_x2
+0.01901789668487048 a2_x2
+0.09134103192817067 a3_x2
+0.99046321796550729 a4_x2
+0.07142558634477768 short_2
-0.07142558634477768 surp_2
= 26.402039

coupling_3: 
+0.00613300460635390 a1_x3
+0.04767584213117532 a2_x3
+0.10865540221461913 a3_x3
+0.98649616402971874 a4_x3
+0.07971424670600438 short_3
-0.07971424670600438 surp_3
= 69.087640

bounds
  0.000000 <= a1_x1 <= 100.000000
  0.000000 <= a1_x2 <= 100.000000
  0.000000 <= a1_x3 <= 100.000000
  0.000000 <= a1_x4 <= 100.000000
  0.000000 <= a1_x5 <= 100.000000
  0.000000 <= a1_x6 <= 100.000000
  0.000000 <= a2_x1 <= 100.000000
  0.000000 <= a2_x2 <= 100.000000
  0.000000 <= a2_x3 <= 100.000000
  0.000000 <= a2_x4 <= 100.000000
  0.000000 <= a2_x5 <= 100.000000
  0.000000 <= a2_x6 <= 100.000000
  0.000000 <= a3_x1 <= 100.000000
  0.000000 <= a3_x2 <= 100.000000
  0.000000 <= a3_x3 <= 100.000000
  0.000000 <= a3_x4 <= 100.000000
  0.000000 <= a3_x5 <= 100.000000
  0.000000 <= a3_x6 <= 100.000000
  0.000000 <= a4_x1 <= 100.000000
  0.000000 <= a4_x2 <= 100.000000
  0.000000 <= a4_x3 <= 100.000000
  0.000000 <= a4_x4 <= 100.000000
  0.000000 <= a4_x5 <= 100.000000
  0.000000 <= a4_x6 <= 100.000000
  0.000000 <= short_1 <= +inf
  0.000000 <= surp_1 <= +inf
  0.000000 <= short_2 <= +inf
  0.000000 <= surp_2 <= +inf
  0.000000 <= short_3 <= +inf
  0.000000 <= surp_3 <= +inf
 0 <= a1_z1 <= 1
 0 <= a1_z2 <= 1
 0 <= a2_z1 <= 1
 0 <= a2_z2 <= 1
 0 <= a3_z1 <= 1
 0 <= a3_z2 <= 1
 0 <= a4_z1 <= 1
 0 <= a4_z2 <= 1

binary
  a1_z1
  a1_z2
  a2_z1
  a2_z2
  a3_z1
  a3_z2
  a4_z1
  a4_z2
end
