min
obj: 
  +7.78207569299738466 a1_x1
  +2.62040292120299334 a1_x2
  +1.02293933329670939 a1_x3
  +7.19109322240713489 a1_x4
  +4.26327457704359070 a1_x5
  +6.02462654690972954 a1_x6
  +42.77102711119731282 a1_z1
  +28.11411837117618262 a1_z2
  +5.79112125901829966 a2_x1
  +5.43489317194582089 a2_x2
  +9.42596272358853859 a2_x3
  +8.92130525199075564 a2_x4
  +6.14845489869399664 a2_x5
  +2.14640938868183095 a2_x6
  +31.66094613130910673 a2_z1
  +6.98996133690631005 a2_z2
  +2.81862526144540748 a3_x1
  +1.36412059178846468 a3_x2
  +2.33366974601915000 a3_x3
  +2.45567759910651384 a3_x4
  +5.22782650613177147 a3_x5
  +6.66961894421152923 a3_x6
  +49.85791959361311854 a3_z1
  +30.64094479818616890 a3_z2
  +7.09948941464576322 a4_x1
  +9.56749156260526412 a4_x2
  +9.23547813869581802 a4_x3
  +8.94781396766327930 a4_x4
  +7.43389970639344355 a4_x5
  +1.79601697429660612 a4_x6
  +7.43041409826294341 a4_z1
  +14.53020430166953325 a4_z2
  +1000000.00000000000000000 short_1
  +1000000.00000000000000000 surp_1
  +1000000.00000000000000000 short_2
  +1000000.00000000000000000 surp_2
  +1000000.00000000000000000 short_3
  +1000000.00000000000000000 surp_3

s.t.

a1_local_1: 
+3782.77816797877812860 a1_x4
+5812.15787638735400833 a1_x6
+2700.51367606351914219 a1_x3
<= 614609.001723

a1_local_2: 
+0.00659954516596568 a1_x6
+0.00462673288410452 a1_x5
+0.00673273558993336 a1_x4
<= 0.951581

a1_local_3: 
+629.29668684932460110 a1_x4
+830.29331815531475058 a1_x2
+883.42838822564090151 a1_x3
<= 135912.456616

a1_local_4: 
+0.00209337799542023 a1_x4
+0.00139380747008968 a1_x5
+0.00219219738780045 a1_x2
<= 0.289407

a1_local_5: 
+12.35588765228444608 a1_x2
+30.06644431724701150 a1_x5
+14.66447645693955515 a1_x4
<= 3158.057514

a1_local_6: 
+676.31746507896912135 a1_x2
+779.93066675885950190 a1_x3
+397.90595847448400946 a1_x1
<= 100502.284707

a1_local_7: 
+10665.96688202037694282 a1_x5
+22278.51969657100926270 a1_x2
+10720.10549054997136409 a1_x6
<= 2395946.685742

a1_local_8: 
+38.98205028927463900 a1_x5
+69.54609157402427400 a1_x1
+50.60246174194461588 a1_x6
<= 9777.752145

a1_act_1: 
+7.52113787054972516 a1_x1
-752.11378705497247665 a1_z1
<= 0.000000

a1_act_2: 
+133684.08856022861436941 a1_x2
-13368408.85602286085486412 a1_z2
<= 0.000000

a2_local_1: 
+0.00000335272971515 a2_x6
+0.00000500467215779 a2_x4
+0.00000497872521260 a2_x3
<= 0.000839

a2_local_2: 
+3.72410899072700508 a2_x5
+5.16371891867775279 a2_x4
+7.75776712840382210 a2_x6
<= 755.218852

a2_local_3: 
+0.01276411286382505 a2_x4
+0.00863404887778260 a2_x5
+0.01700849785490595 a2_x3
<= 1.189782

a2_local_4: 
+0.24963117209817026 a2_x5
+0.24651234127808794 a2_x6
+0.70894168111643163 a2_x4
<= 45.023300

a2_local_5: 
+18.50190470467614645 a2_x4
+11.52083492563074252 a2_x2
+23.08183404711501652 a2_x3
<= 2529.189369

a2_local_6: 
+0.03608467486046979 a2_x5
+0.03189737669850801 a2_x4
+0.03286215555705291 a2_x3
<= 3.815723

a2_local_7: 
+214697.09395861273515038 a2_x1
+344381.98950838553719223 a2_x6
+230085.54278796273865737 a2_x4
<= 55105371.401003

a2_local_8: 
+0.00001821170472457 a2_x4
+0.00001691499080540 a2_x3
+0.00001137480708552 a2_x5
<= 0.001782

a2_act_1: 
+421.10662114422365221 a2_x1
-42110.66211442236817675 a2_z1
<= 0.000000

a2_act_2: 
+0.00032430849539006 a2_x2
-0.03243084953900593 a2_z2
<= 0.000000

a3_local_1: 
+8353.82751649868259847 a3_x6
+12781.62457126432309451 a3_x2
+10528.13972088201080624 a3_x1
<= 2114629.108286

a3_local_2: 
+9.29759830767381068 a3_x1
+6.25537184128671697 a3_x6
+5.18438834488559408 a3_x2
<= 1422.466784

a3_local_3: 
+0.05377099346778740 a3_x6
+0.12872796508092285 a3_x5
+0.06059081813035751 a3_x3
<= 12.889722

a3_local_4: 
+3699.77996920193845654 a3_x2
+1702.44054859299581040 a3_x6
+4060.74835880047112369 a3_x4
<= 401370.980377

a3_local_5: 
+0.00000960225903207 a3_x1
+0.00001280427255046 a3_x5
+0.00000857645558558 a3_x3
<= 0.001536

a3_local_6: 
+38543.79853778403048636 a3_x5
+45625.44779584222123958 a3_x2
+37748.41643083909730194 a3_x3
<= 6282367.145320

a3_local_7: 
+0.70790540794073165 a3_x2
+0.57887892531735796 a3_x3
+0.84218047523525597 a3_x1
<= 113.698353

a3_local_8: 
+22.15665267256563808 a3_x6
+10.30006993449339525 a3_x1
+18.04117089039932154 a3_x2
<= 2297.181682

a3_act_1: 
+0.00096353767655553 a3_x1
-0.09635376765555276 a3_z1
<= 0.000000

a3_act_2: 
+0.00038953720416157 a3_x2
-0.03895372041615673 a3_z2
<= 0.000000

a4_local_1: 
+160028.88067796154064126 a4_x1
+367688.66759776161052287 a4_x6
+194050.63579190551536158 a4_x5
<= 45591479.404151

a4_local_2: 
+70281.69690701588115189 a4_x2
+33407.28237722400808707 a4_x5
+65520.03800874968874268 a4_x4
<= 11376037.067473

a4_local_3: 
+45807.55762564748874865 a4_x6
+35631.11376879670569906 a4_x2
+20986.95846145527320914 a4_x5
<= 5964849.151765

a4_local_4: 
+2736.63937273577857923 a4_x6
+1662.27239531134659956 a4_x3
+2870.80363380477410828 a4_x4
<= 460320.702517

a4_local_5: 
+143.66369190748474693 a4_x5
+146.14716381919197374 a4_x2
+250.41530958476917590 a4_x3
<= 21645.333301

a4_local_6: 
+52032.84502975137002068 a4_x1
+44372.70661754380125785 a4_x5
+53267.58360425019782269 a4_x4
<= 8253672.730202

a4_local_7: 
+0.00042017830588909 a4_x6
+0.00080895459704313 a4_x3
+0.00066972415205509 a4_x2
<= 0.114170

a4_local_8: 
+1689.96583667065010559 a4_x3
+2677.95954358099515957 a4_x6
+1343.56276911181248579 a4_x4
<= 205847.677783

a4_act_1: 
+270.67735686498156156 a4_x1
-27067.73568649815570097 a4_z1
<= 0.000000

a4_act_2: 
+0.83645193683873353 a4_x2
-83.64519368387335874 a4_z2
<= 0.000000

coupling_1: 
+302.07103395789556544 a1_x1
+1753.52641150844715412 a2_x1
+6550.65099940350955876 a3_x1
+19930.73214424158504698 a4_x1
+3067.02099612179608812 short_1
-3067.02099612179608812 surp_1
= 2020810.136414

coupling_2: 
+0.00050413325550352 a1_x2
+0.00208017819069816 a2_x2
+0.01015640215500207 a3_x2
+0.03561602846406805 a4_x2
+0.00360863110506360 short_2
-0.00360863110506360 surp_2
= 1.354107

coupling_3: 
+0.13042866560825331 a1_x3
+0.42614923099454272 a2_x3
+1.26823805916265386 a3_x3
+5.81608841068616833 a4_x3
+1.11546251570934163 short_3
-1.11546251570934163 surp_3
= 171.365433

bounds
  0.000000 <= a1_x1 <= 100.000000
  0.000000 <= a1_x2 <= 100.000000
  0.000000 <= a1_x3 <= 100.000000
  0.000000 <= a1_x4 <= 100.000000
  0.000000 <= a1_x5 <= 100.000000
  0.000000 <= a1_x6 <= 100.000000
  0.000000 <= a2_x1 <= 100.000000
  0.000000 <= a2_x2 <= 100.000000
  0.000000 <= a2_x3 <= 100.000000
  0.000000 <= a2_x4 <= 100.000000
  0.000000 <= a2_x5 <= 100.000000
  0.000000 <= a2_x6 <= 100.000000
  0.000000 <= a3_x1 <= 100.000000
  0.000000 <= a3_x2 <= 100.000000
  0.000000 <= a3_x3 <= 100.000000
  0.000000 <= a3_x4 <= 100.000000
  0.000000 <= a3_x5 <= 100.000000
  0.000000 <= a3_x6 <= 100.000000
  0.000000 <= a4_x1 <= 100.000000
  0.000000 <= a4_x2 <= 100.000000
  0.000000 <= a4_x3 <= 100.000000
  0.000000 <= a4_x4 <= 100.000000
  0.000000 <= a4_x5 <= 100.000000
  0.000000 <= a4_x6 <= 100.000000
  0.000000 <= short_1 <= +inf
  0.000000 <= surp_1 <= +inf
  0.000000 <= short_2 <= +inf
  0.000000 <= surp_2 <= +inf
  0.000000 <= short_3 <= +inf
  0.000000 <= surp_3 <= +inf
 0 <= a1_z1 <= 1
 0 <= a1_z2 <= 1
 0 <= a2_z1 <= 1
 0 <= a2_z2 <= 1
 0 <= a3_z1 <= 1
 0 <= a3_z2 <= 1
 0 <= a4_z1 <= 1
 0 <= a4_z2 <= 1

binary
  a1_z1
  a1_z2
  a2_z1
  a2_z2
  a3_z1
  a3_z2
  a4_z1
  a4_z2
end
