min
obj: 
  +4.68205187695116365 a1_x1
  +5.71291625483064269 a1_x2
  +9.00563589084773142 a1_x3
  +9.01724711762336106 a1_x4
  +9.40638568868457803 a1_x5
  +5.77535620951187667 a1_x6
  +36.44079832510822570 a1_z1
  +20.35589591192510284 a1_z2
  +9.85237733259970305 a2_x1
  +8.66656609951932211 a2_x2
  +1.31834896047554095 a2_x3
  +8.26919439786070853 a2_x4
  +6.06353184831551140 a2_x5
  +3.26315819103542193 a2_x6
  +31.01579944565894920 a2_z1
  +42.14273897613190911 a2_z2
  +3.40700085697226296 a3_x1
  +9.41882509326676143 a3_x2
  +9.74900107951637906 a3_x3
  +7.04508203399397814 a3_x4
  +9.97637618984075480 a3_x5
  +5.84735535483849578 a3_x6
  +49.07354774414897491 a3_z1
  +13.99914181947612590 a3_z2
  +1.91431389506638183 a4_x1
  +6.10422017205319989 a4_x2
  +2.25748963263893865 a4_x3
  +5.65946667698913863 a4_x4
  +4.35204976180165826 a4_x5
  +6.78234121926408484 a4_x6
  +29.95675458969477134 a4_z1
  +32.97214499302464219 a4_z2
  +1000000.00000000000000000 short_1
  +1000000.00000000000000000 surp_1
  +1000000.00000000000000000 short_2
  +1000000.00000000000000000 surp_2
  +1000000.00000000000000000 short_3
  +1000000.00000000000000000 surp_3

s.t.

a1_local_1: 
+0.00000395135610996 a1_x4
+0.00000323299615563 a1_x2
+0.00000212882704632 a1_x6
<= 0.000409

a1_local_2: 
+0.02081474307004581 a1_x3
+0.00930922759519676 a1_x4
+0.01875844763720238 a1_x5
<= 2.053449

a1_local_3: 
+61.17000027796202488 a1_x1
+107.54391342952855837 a1_x3
+80.43544183165766981 a1_x6
<= 12973.356648

a1_local_4: 
+0.00000433567683663 a1_x2
+0.00000376690212543 a1_x1
+0.00000745804684631 a1_x5
<= 0.000744

a1_local_5: 
+251.44701491567116136 a1_x2
+409.40487828601192177 a1_x3
+419.77344057015693579 a1_x5
<= 46021.342672

a1_local_6: 
+0.00000182360657529 a1_x6
+0.00000128278254132 a1_x1
+0.00000161983732965 a1_x3
<= 0.000247

a1_local_7: 
+183.39865253154357561 a1_x4
+148.47701207465078710 a1_x2
+136.79509122620109451 a1_x5
<= 24679.229006

a1_local_8: 
+0.00000071549196507 a1_x6
+0.00000069840576384 a1_x2
+0.00000057077617688 a1_x4
<= 0.000124

a1_act_1: 
+0.00001962820109460 a1_x1
-0.00196282010946048 a1_z1
<= 0.000000

a1_act_2: 
+0.07273068583572291 a1_x2
-7.27306858357229125 a1_z2
<= 0.000000

a2_local_1: 
+119712.36893106112256646 a2_x2
+164524.53623602524749003 a2_x6
+172429.66886963817523792 a2_x5
<= 15141602.877398

a2_local_2: 
+6.03181494817347463 a2_x1
+7.07713708617889026 a2_x4
+8.91499354852559200 a2_x5
<= 1529.342089

a2_local_3: 
+893.53508706043567145 a2_x2
+620.51370430477254558 a2_x5
+384.55774747991461027 a2_x1
<= 119841.138732

a2_local_4: 
+19.90326962814251033 a2_x6
+38.19944087329589166 a2_x4
+21.17274438745820930 a2_x5
<= 2956.328858

a2_local_5: 
+0.00000680675823906 a2_x5
+0.00001261260213184 a2_x3
+0.00000885643039698 a2_x6
<= 0.001461

a2_local_6: 
+1151.30238635528030500 a2_x6
+804.99017252997145988 a2_x4
+1051.62810452115627413 a2_x1
<= 158313.841532

a2_local_7: 
+5218.41697682339508901 a2_x3
+4766.04963541103734315 a2_x6
+5934.37910091931098577 a2_x1
<= 744067.848828

a2_local_8: 
+6.06794292585546291 a2_x5
+6.08132678752059430 a2_x3
+6.56349017053414485 a2_x6
<= 1301.592869

a2_act_1: 
+0.36369542065584565 a2_x1
-36.36954206558456804 a2_z1
<= 0.000000

a2_act_2: 
+0.00000836674068245 a2_x2
-0.00083667406824458 a2_z2
<= 0.000000

a3_local_1: 
+253.11276561303392896 a3_x5
+171.12175393829647874 a3_x2
+204.81930640371254526 a3_x3
<= 24359.119303

a3_local_2: 
+27.59737525277649439 a3_x2
+18.13784294286874044 a3_x3
+24.77768875943846538 a3_x4
<= 3574.614968

a3_local_3: 
+0.04400047993647706 a3_x6
+0.08943535090492784 a3_x4
+0.07677258370718811 a3_x1
<= 14.423807

a3_local_4: 
+0.00008945798015108 a3_x4
+0.00010066938561565 a3_x2
+0.00004052275999644 a3_x1
<= 0.011355

a3_local_5: 
+4.31099071882334961 a3_x3
+8.43168183546898220 a3_x5
+9.83993616557843431 a3_x2
<= 1117.023680

a3_local_6: 
+0.01867883505020913 a3_x1
+0.01692201541252191 a3_x6
+0.01521907936683594 a3_x2
<= 2.306295

a3_local_7: 
+18439.17311738308490021 a3_x1
+24599.99943205852468964 a3_x4
+13876.39651055201102281 a3_x6
<= 1942657.463799

a3_local_8: 
+83.61514790391774454 a3_x4
+39.84698103274194381 a3_x3
+64.12365784906495492 a3_x5
<= 11923.897634

a3_act_1: 
+0.00051177465597418 a3_x1
-0.05117746559741759 a3_z1
<= 0.000000

a3_act_2: 
+3.54435386823029752 a3_x2
-354.43538682302977350 a3_z2
<= 0.000000

a4_local_1: 
+302.75091572593203182 a4_x3
+230.77454827296236317 a4_x5
+264.27329728163999789 a4_x2
<= 50974.504695

a4_local_2: 
+1.67350088815468689 a4_x3
+0.78555872959909845 a4_x2
+1.17059154665047904 a4_x6
<= 124.705930

a4_local_3: 
+0.00033082813769359 a4_x5
+0.00051279717376594 a4_x6
+0.00061018943263866 a4_x3
<= 0.085144

a4_local_4: 
+48.21565778436463034 a4_x3
+45.54393834983098799 a4_x6
+52.18095851931345663 a4_x1
<= 9920.006202

a4_local_5: 
+0.00081296123256712 a4_x3
+0.00083765047638203 a4_x6
+0.00030857285514976 a4_x5
<= 0.101247

a4_local_6: 
+17.63390259155609385 a4_x3
+18.33535875553918260 a4_x4
+24.81631494669894167 a4_x6
<= 3563.172157

a4_local_7: 
+0.00826839016371657 a4_x6
+0.00739670748426313 a4_x3
+0.01092305486212265 a4_x1
<= 1.798970

a4_local_8: 
+0.00035286654699673 a4_x1
+0.00080205882279149 a4_x6
+0.00061189061104042 a4_x3
<= 0.093562

a4_act_1: 
+0.00039842227169960 a4_x1
-0.03984222716995969 a4_z1
<= 0.000000

a4_act_2: 
+0.00232057670786040 a4_x2
-0.23205767078603992 a4_z2
<= 0.000000

coupling_1: 
+59885.74716936292679748 a1_x1
+184457.47485801528091542 a2_x1
+824198.56757089972961694 a3_x1
+7979647.89626193139702082 a4_x1
+667620.69556152552831918 short_1
-667620.69556152552831918 surp_1
= 456597179.453916

coupling_2: 
+0.03501774095400585 a1_x2
+0.07714583716224356 a2_x2
+0.37052364370912744 a3_x2
+4.01780046418835468 a4_x2
+0.28973691174563837 short_2
-0.28973691174563837 surp_2
= 107.099508

coupling_3: 
+12.03080726469236339 a1_x3
+93.52330622217905898 a2_x3
+213.14384811604679726 a3_x3
+1935.16000371238624211 a4_x3
+156.37143617608060708 short_3
-156.37143617608060708 surp_3
= 135525.754954

bounds
  0.000000 <= a1_x1 <= 100.000000
  0.000000 <= a1_x2 <= 100.000000
  0.000000 <= a1_x3 <= 100.000000
  0.000000 <= a1_x4 <= 100.000000
  0.000000 <= a1_x5 <= 100.000000
  0.000000 <= a1_x6 <= 100.000000
  0.000000 <= a2_x1 <= 100.000000
  0.000000 <= a2_x2 <= 100.000000
  0.000000 <= a2_x3 <= 100.000000
  0.000000 <= a2_x4 <= 100.000000
  0.000000 <= a2_x5 <= 100.000000
  0.000000 <= a2_x6 <= 100.000000
  0.000000 <= a3_x1 <= 100.000000
  0.000000 <= a3_x2 <= 100.000000
  0.000000 <= a3_x3 <= 100.000000
  0.000000 <= a3_x4 <= 100.000000
  0.000000 <= a3_x5 <= 100.000000
  0.000000 <= a3_x6 <= 100.000000
  0.000000 <= a4_x1 <= 100.000000
  0.000000 <= a4_x2 <= 100.000000
  0.000000 <= a4_x3 <= 100.000000
  0.000000 <= a4_x4 <= 100.000000
  0.000000 <= a4_x5 <= 100.000000
  0.000000 <= a4_x6 <= 100.000000
  0.000000 <= short_1 <= +inf
  0.000000 <= surp_1 <= +inf
  0.000000 <= short_2 <= +inf
  0.000000 <= surp_2 <= +inf
  0.000000 <= short_3 <= +inf
  0.000000 <= surp_3 <= +inf
 0 <= a1_z1 <= 1
 0 <= a1_z2 <= 1
 0 <= a2_z1 <= 1
 0 <= a2_z2 <= 1
 0 <= a3_z1 <= 1
 0 <= a3_z2 <= 1
 0 <= a4_z1 <= 1
 0 <= a4_z2 <= 1

binary
  a1_z1
  a1_z2
  a2_z1
  a2_z2
  a3_z1
  a3_z2
  a4_z1
  a4_z2
end
