min
obj: 
  +2.8670230128866887 a1_x1
  +4.6121734767481746 a1_x2
  +8.3726653944305163 a1_x3
  +3.8874111784256438 a1_x4
  +3.5735214707131471 a1_x5
  +7.9063268225890937 a1_x6
  +32.521673256282952 a1_z1
  +46.9551209495583 a1_z2
  +6.1895710982011405 a2_x1
  +7.6567171580139357 a2_x2
  +8.2043744709301158 a2_x3
  +3.6188691473828523 a2_x4
  +5.2859257046209569 a2_x5
  +3.3947769180807601 a2_x6
  +12.605481383042026 a2_z1
  +31.130882329794158 a2_z2
  +1.0038469274140069 a3_x1
  +6.9874663911383514 a3_x2
  +2.0892016241128126 a3_x3
  +9.3610808006140438 a3_x4
  +4.8509819599704116 a3_x5
  +1.7243146015797635 a3_x6
  +35.019467218819287 a3_z1
  +33.012677472845496 a3_z2
  +2.5033216672460403 a4_x1
  +6.4216192335644386 a4_x2
  +2.3877334915960096 a4_x3
  +7.475862409648836 a4_x4
  +7.4106096914751971 a4_x5
  +8.5860247699785965 a4_x6
  +17.162878658753439 a4_z1
  +23.317265071624306 a4_z2
  +1000000 short_1
  +1000000 surp_1
  +1000000 short_2
  +1000000 surp_2
  +1000000 short_3
  +1000000 surp_3

s.t.

a1_local_1: 
+0.0073514418900838627 a1_x3
+0.012906075671666125 a1_x1
+0.011467248542671235 a1_x2
<= 1.9079447617879086

a1_local_2: 
+0.0073593099284625643 a1_x6
+0.010554806069745442 a1_x4
+0.0079273265620465119 a1_x3
<= 1.0121332376029322

a1_local_3: 
+0.01089460187343665 a1_x5
+0.014722491353981428 a1_x6
+0.014175620560284772 a1_x4
<= 1.4596635645669711

a1_local_4: 
+0.012907684170365079 a1_x3
+0.014888987575584069 a1_x6
+0.0076569309833190973 a1_x4
<= 1.1950861320420283

a1_local_5: 
+0.011600272033728763 a1_x4
+0.0092224108861290628 a1_x5
+0.0059949888588088553 a1_x2
<= 0.98204690024964125

a1_local_6: 
+0.013554193383096023 a1_x5
+0.013144594820566922 a1_x4
+0.01122535029781292 a1_x2
<= 1.8447966188656593

a1_local_7: 
+0.0077147845633171366 a1_x2
+0.0098248048786009415 a1_x3
+0.0050034323992626355 a1_x6
<= 1.4026289386932864

a1_local_8: 
+0.014909461757358531 a1_x2
+0.014330935271795202 a1_x5
+0.0084067474227746356 a1_x1
<= 1.9657573516711297

a1_act_1: 
+1 a1_x1
-100 a1_z1
<= 0

a1_act_2: 
+1 a1_x2
-100 a1_z2
<= 0

a2_local_1: 
+0.2970076228560441 a2_x4
+0.24954467943807185 a2_x3
+0.29615767446211622 a2_x1
<= 45.41007430674663

a2_local_2: 
+0.20162443768555385 a2_x6
+0.11907684876301175 a2_x2
+0.2381330155259139 a2_x5
<= 21.854558066517534

a2_local_3: 
+0.30885363783993341 a2_x6
+0.25638747576578313 a2_x4
+0.18962956189367389 a2_x5
<= 45.415000449774297

a2_local_4: 
+0.32170342620618347 a2_x3
+0.20132770131500413 a2_x4
+0.23329173389944624 a2_x1
<= 49.209735786294736

a2_local_5: 
+0.17153871170193938 a2_x5
+0.16664654923996713 a2_x4
+0.23222594331460619 a2_x3
<= 38.417451667709734

a2_local_6: 
+0.15752571116317041 a2_x6
+0.30910520966661253 a2_x4
+0.28154169459691719 a2_x3
<= 41.917081295254022

a2_local_7: 
+0.14594410538453736 a2_x6
+0.15314705749223745 a2_x3
+0.16920873276373505 a2_x5
<= 17.453058743112631

a2_local_8: 
+0.11067542248375593 a2_x5
+0.18113064842450569 a2_x3
+0.14763682098582023 a2_x4
<= 18.492884558182833

a2_act_1: 
+1 a2_x1
-100 a2_z1
<= 0

a2_act_2: 
+1 a2_x2
-100 a2_z2
<= 0

a3_local_1: 
+4.4915954193705359 a3_x4
+5.1790656290444916 a3_x2
+4.568565139109074 a3_x6
<= 472.87902761977227

a3_local_2: 
+3.7020122517388434 a3_x4
+6.4371944819320621 a3_x6
+2.5604514812363197 a3_x3
<= 474.20756229589648

a3_local_3: 
+3.8423545173345177 a3_x4
+3.204654564256503 a3_x2
+3.3673965706799383 a3_x3
<= 327.0589297828248

a3_local_4: 
+3.6608781322370203 a3_x2
+4.7685471515653193 a3_x4
+2.4541319344894057 a3_x3
<= 564.29959934472151

a3_local_5: 
+3.8972863202089871 a3_x4
+4.7832209274500483 a3_x6
+4.1395112513969403 a3_x1
<= 483.12044601253154

a3_local_6: 
+4.5424791106091984 a3_x3
+5.2800660214055091 a3_x4
+5.529299901587696 a3_x1
<= 524.31084249580567

a3_local_7: 
+5.6732114022679783 a3_x4
+4.5857953932615843 a3_x1
+6.7141791682031551 a3_x6
<= 989.17320635200338

a3_local_8: 
+4.7937697469923064 a3_x2
+4.7124115120798598 a3_x3
+4.7440921449510309 a3_x1
<= 552.44492888743923

a3_act_1: 
+1 a3_x1
-100 a3_z1
<= 0

a3_act_2: 
+1 a3_x2
-100 a3_z2
<= 0

a4_local_1: 
+117.7641303440561 a4_x1
+146.57794852031415 a4_x4
+129.94366992459976 a4_x5
<= 12394.82191153567

a4_local_2: 
+56.442982571877295 a4_x6
+66.215781913343704 a4_x2
+61.318597815332652 a4_x3
<= 7173.4054572748

a4_local_3: 
+138.58583500901767 a4_x1
+135.06309721080564 a4_x4
+137.85670775857756 a4_x5
<= 20136.425652687085

a4_local_4: 
+56.81699809891623 a4_x2
+112.65438555262686 a4_x6
+106.16597028209291 a4_x5
<= 9626.1546965275775

a4_local_5: 
+58.069692442736262 a4_x2
+50.58192092992001 a4_x5
+92.679728276381951 a4_x1
<= 10900.937184939561

a4_local_6: 
+93.054395096373099 a4_x5
+131.49184448795239 a4_x6
+108.43883221419119 a4_x4
<= 23185.381140359495

a4_local_7: 
+75.185613369095478 a4_x1
+120.74929441352027 a4_x5
+149.2725686799852 a4_x2
<= 11603.517556289295

a4_local_8: 
+99.559283898788237 a4_x1
+92.289612476474929 a4_x6
+104.38199234269862 a4_x5
<= 14646.264773951996

a4_act_1: 
+1 a4_x1
-100 a4_z1
<= 0

a4_act_2: 
+1 a4_x2
-100 a4_z2
<= 0

coupling_1: 
+0.00079411710807684814 a1_x1
+0.028890816827765321 a2_x1
+0.66397687053915355 a3_x1
+13.12616574674686 a4_x1
+0.1210209812682166 short_1
-0.1210209812682166 surp_1
= 821.20231046551055

coupling_2: 
+2.7651234956269542e-05 a1_x2
+0.00068618260098106247 a2_x2
+0.015276748908445983 a3_x2
+0.48395317855108744 a4_x2
+0.0040122852268294875 short_2
-0.0040122852268294875 surp_2
= 19.9169981727172

coupling_3: 
+8.5732529458516531 a1_x3
+145.13461276458548 a2_x3
+3428.7944637240553 a3_x3
+51766.054006894083 a4_x3
+925.52692505670439 short_3
-925.52692505670439 surp_3
= 2450902.781677925

bounds
  0 <= a1_x1 <= 100
  0 <= a1_x2 <= 100
  0 <= a1_x3 <= 100
  0 <= a1_x4 <= 100
  0 <= a1_x5 <= 100
  0 <= a1_x6 <= 100
  0 <= a2_x1 <= 100
  0 <= a2_x2 <= 100
  0 <= a2_x3 <= 100
  0 <= a2_x4 <= 100
  0 <= a2_x5 <= 100
  0 <= a2_x6 <= 100
  0 <= a3_x1 <= 100
  0 <= a3_x2 <= 100
  0 <= a3_x3 <= 100
  0 <= a3_x4 <= 100
  0 <= a3_x5 <= 100
  0 <= a3_x6 <= 100
  0 <= a4_x1 <= 100
  0 <= a4_x2 <= 100
  0 <= a4_x3 <= 100
  0 <= a4_x4 <= 100
  0 <= a4_x5 <= 100
  0 <= a4_x6 <= 100
  0 <= short_1 <= +inf
  0 <= surp_1 <= +inf
  0 <= short_2 <= +inf
  0 <= surp_2 <= +inf
  0 <= short_3 <= +inf
  0 <= surp_3 <= +inf
 0 <= a1_z1 <= 1
 0 <= a1_z2 <= 1
 0 <= a2_z1 <= 1
 0 <= a2_z2 <= 1
 0 <= a3_z1 <= 1
 0 <= a3_z2 <= 1
 0 <= a4_z1 <= 1
 0 <= a4_z2 <= 1

binary
  a1_z1
  a1_z2
  a2_z1
  a2_z2
  a3_z1
  a3_z2
  a4_z1
  a4_z2
end
