min
obj: 
  +4.6820518769511636 a1_x1
  +5.7129162548306427 a1_x2
  +9.0056358908477314 a1_x3
  +9.0172471176233611 a1_x4
  +9.406385688684578 a1_x5
  +5.7753562095118767 a1_x6
  +36.440798325108226 a1_z1
  +20.355895911925103 a1_z2
  +7.5922132430360731 a2_x1
  +9.5705581106952309 a2_x2
  +1.2604999258751248 a2_x3
  +5.3940318901522675 a2_x4
  +5.1816392623674004 a2_x5
  +3.5951202349319828 a2_x6
  +41.62149658815251 a2_z1
  +8.2240572055779673 a2_z2
  +7.862026295743088 a3_x1
  +4.4443242856945142 a3_x2
  +6.878356128261002 a3_x3
  +6.0922718983064614 a3_x4
  +7.9699820931728009 a3_x5
  +3.3886243612057902 a3_x6
  +44.384252789712569 a3_z1
  +46.436857763791892 a3_z2
  +5.3272595951622712 a4_x1
  +2.1426688948262615 a4_x2
  +3.7175386403807593 a4_x3
  +7.4752828100284079 a4_x4
  +1.4623010448148774 a4_x5
  +9.334818787187654 a4_x6
  +27.5499217848452 a4_z1
  +29.024926983261683 a4_z2
  +1000000 short_1
  +1000000 surp_1
  +1000000 short_2
  +1000000 surp_2
  +1000000 short_3
  +1000000 surp_3

s.t.

a1_local_1: 
+0.71433844523206802 a1_x4
+0.58447109877792236 a1_x2
+0.38485597352355055 a1_x6
<= 73.865137022017976

a1_local_2: 
+0.63507832848342716 a1_x5
+0.70513762142893033 a1_x4
+0.3153671694013927 a1_x1
<= 87.462344294708487

a1_local_3: 
+0.73282679124353733 a1_x6
+0.57933278676796429 a1_x2
+0.35684508713356994 a1_x1
<= 88.193063718139683

a1_local_4: 
+0.69073629674759385 a1_x5
+0.45689189619863818 a1_x2
+0.56047583671683199 a1_x6
<= 61.887982276581596

a1_local_5: 
+0.6741533881349917 a1_x6
+0.65482511177276703 a1_x2
+0.34164496521666199 a1_x1
<= 89.007603634038972

a1_local_6: 
+0.72264038807664055 a1_x5
+0.49351272606175889 a1_x4
+0.48397939908175219 a1_x2
<= 68.392650472563815

a1_local_7: 
+0.69642447315368705 a1_x1
+0.40880718903925833 a1_x4
+0.58980474343839362 a1_x3
<= 109.98056815811317

a1_local_8: 
+0.49110413697685434 a1_x5
+0.62941656160882153 a1_x6
+0.60220554515609359 a1_x4
<= 65.254215562775684

a1_act_1: 
+0.0099995000374968751 a1_x1
-0.99995000374968757 a1_z1
<= 0

a1_act_2: 
+0.0099995000374968751 a1_x2
-0.99995000374968757 a1_z2
<= 0

a2_local_1: 
+0.38951833761824839 a2_x3
+0.52478819809236765 a2_x4
+0.75688361839987128 a2_x5
<= 95.281270196296589

a2_local_2: 
+0.40261040061091313 a2_x3
+0.5776285249890043 a2_x2
+0.71010573328128213 a2_x5
<= 106.76247289549046

a2_local_3: 
+0.65985280170855598 a2_x4
+0.69155764060677405 a2_x6
+0.29384061971715392 a2_x5
<= 112.07236459497345

a2_local_4: 
+0.46823612257877839 a2_x1
+0.54938211080138299 a2_x4
+0.69205074224641061 a2_x5
<= 118.71935989283287

a2_local_5: 
+0.46815634139722812 a2_x2
+0.72579877151780448 a2_x5
+0.50402954603158712 a2_x1
<= 56.046424972762459

a2_local_6: 
+0.71717789227412976 a2_x5
+0.53788526000785097 a2_x4
+0.44309741355544291 a2_x3
<= 113.85102744378888

a2_local_7: 
+0.54884622668452887 a2_x3
+0.62289241071838297 a2_x5
+0.55747005670582539 a2_x6
<= 55.597239595371562

a2_local_8: 
+0.68152136429795562 a2_x2
+0.42810071574506542 a2_x6
+0.59351361162488603 a2_x4
<= 106.98434432294792

a2_act_1: 
+0.0099995000374968751 a2_x1
-0.99995000374968757 a2_z1
<= 0

a2_act_2: 
+0.0099995000374968751 a2_x2
-0.99995000374968757 a2_z2
<= 0

a3_local_1: 
+0.47165918475742163 a3_x2
+0.69047543130792344 a3_x6
+0.54843531267971934 a3_x5
<= 116.9042554616895

a3_local_2: 
+0.45912010802469039 a3_x4
+0.71509657562696161 a3_x5
+0.52711062779457396 a3_x3
<= 82.575269832625182

a3_local_3: 
+0.5710383692622425 a3_x4
+0.63428405376980923 a3_x5
+0.52115153263101566 a3_x1
<= 97.519879195786288

a3_local_4: 
+0.67410012765829042 a3_x3
+0.31894913582251783 a3_x4
+0.66622853935353576 a3_x5
<= 67.676638339284537

a3_local_5: 
+0.51714418357569147 a3_x5
+0.44727244801312249 a3_x3
+0.72973231437437402 a3_x2
<= 85.451339276243431

a3_local_6: 
+0.43747467947771446 a3_x1
+0.59762406601363383 a3_x3
+0.67190875908653158 a3_x5
<= 91.632926449614715

a3_local_7: 
+0.34973093666598259 a3_x6
+0.71086290622709902 a3_x4
+0.6102148805864186 a3_x1
<= 114.64537337574724

a3_local_8: 
+0.62124283604109276 a3_x4
+0.52052328412134752 a3_x3
+0.58575835406347121 a3_x5
<= 56.205868108235052

a3_act_1: 
+0.0099995000374968751 a3_x1
-0.99995000374968757 a3_z1
<= 0

a3_act_2: 
+0.0099995000374968751 a3_x2
-0.99995000374968757 a3_z2
<= 0

a4_local_1: 
+0.40619392836994894 a4_x1
+0.63037479663045715 a4_x4
+0.66153919636594372 a4_x6
<= 58.102038659642545

a4_local_2: 
+0.67935752393686388 a4_x3
+0.54322306387818686 a4_x5
+0.49333767091229608 a4_x2
<= 77.834655028212879

a4_local_3: 
+0.6160116730198596 a4_x5
+0.4225041683882424 a4_x1
+0.66484573127743962 a4_x3
<= 96.155774226156254

a4_local_4: 
+0.70787620322294342 a4_x3
+0.59306796611274459 a4_x1
+0.38364263120977904 a4_x5
<= 87.315149705663472

a4_local_5: 
+0.52441771081369926 a4_x6
+0.53802423647095943 a4_x4
+0.65993634962378034 a4_x2
<= 90.344570108916898

a4_local_6: 
+0.73208625377010117 a4_x1
+0.53810842559023664 a4_x4
+0.41771885204004833 a4_x5
<= 69.51072037264278

a4_local_7: 
+0.71213741234336159 a4_x2
+0.59501038812936236 a4_x5
+0.37258951133794216 a4_x4
<= 66.015852474322813

a4_local_8: 
+0.58309573455085473 a4_x5
+0.44485242451755302 a4_x6
+0.67978355728088458 a4_x2
<= 98.894411062553601

a4_act_1: 
+0.0099995000374968751 a4_x1
-0.99995000374968757 a4_z1
<= 0

a4_act_2: 
+0.0099995000374968751 a4_x2
-0.99995000374968757 a4_z2
<= 0

coupling_1: 
+9.2595599601582608e-05 a1_x1
+0.0026477779923589221 a2_x1
+0.025371051020648291 a3_x1
+0.99958591419230325 a4_x1
+0.0094151637320658062 short_1
-0.0094151637320658062 surp_1
= 25.166050231580066

coupling_2: 
+9.2586213155736318e-05 a1_x2
+0.001988988356972872 a2_x2
+0.040476976171851163 a3_x2
+0.99913198916872548 a4_x2
+0.006816082923431617 short_2
-0.006816082923431617 surp_2
= 80.167864052667952

coupling_3: 
+9.9378552746270395e-05 a1_x3
+0.0020245425061284554 a2_x3
+0.052330594704083667 a3_x3
+0.99838530512152779 a4_x3
+0.015559285440777093 short_3
-0.015559285440777093 surp_3
= 40.774556334906599

bounds
  0 <= a1_x1 <= 100
  0 <= a1_x2 <= 100
  0 <= a1_x3 <= 100
  0 <= a1_x4 <= 100
  0 <= a1_x5 <= 100
  0 <= a1_x6 <= 100
  0 <= a2_x1 <= 100
  0 <= a2_x2 <= 100
  0 <= a2_x3 <= 100
  0 <= a2_x4 <= 100
  0 <= a2_x5 <= 100
  0 <= a2_x6 <= 100
  0 <= a3_x1 <= 100
  0 <= a3_x2 <= 100
  0 <= a3_x3 <= 100
  0 <= a3_x4 <= 100
  0 <= a3_x5 <= 100
  0 <= a3_x6 <= 100
  0 <= a4_x1 <= 100
  0 <= a4_x2 <= 100
  0 <= a4_x3 <= 100
  0 <= a4_x4 <= 100
  0 <= a4_x5 <= 100
  0 <= a4_x6 <= 100
  0 <= short_1 <= +inf
  0 <= surp_1 <= +inf
  0 <= short_2 <= +inf
  0 <= surp_2 <= +inf
  0 <= short_3 <= +inf
  0 <= surp_3 <= +inf
 0 <= a1_z1 <= 1
 0 <= a1_z2 <= 1
 0 <= a2_z1 <= 1
 0 <= a2_z2 <= 1
 0 <= a3_z1 <= 1
 0 <= a3_z2 <= 1
 0 <= a4_z1 <= 1
 0 <= a4_z2 <= 1

binary
  a1_z1
  a1_z2
  a2_z1
  a2_z2
  a3_z1
  a3_z2
  a4_z1
  a4_z2
end
