min
obj: 
  +4.6820518769511636 a1_x1
  +5.7129162548306427 a1_x2
  +9.0056358908477314 a1_x3
  +9.0172471176233611 a1_x4
  +9.406385688684578 a1_x5
  +5.7753562095118767 a1_x6
  +36.440798325108226 a1_z1
  +20.355895911925103 a1_z2
  +7.5922132430360731 a2_x1
  +9.5705581106952309 a2_x2
  +1.2604999258751248 a2_x3
  +5.3940318901522675 a2_x4
  +5.1816392623674004 a2_x5
  +3.5951202349319828 a2_x6
  +41.62149658815251 a2_z1
  +8.2240572055779673 a2_z2
  +7.862026295743088 a3_x1
  +4.4443242856945142 a3_x2
  +6.878356128261002 a3_x3
  +6.0922718983064614 a3_x4
  +7.9699820931728009 a3_x5
  +3.3886243612057902 a3_x6
  +44.384252789712569 a3_z1
  +46.436857763791892 a3_z2
  +5.3272595951622712 a4_x1
  +2.1426688948262615 a4_x2
  +3.7175386403807593 a4_x3
  +7.4752828100284079 a4_x4
  +1.4623010448148774 a4_x5
  +9.334818787187654 a4_x6
  +27.5499217848452 a4_z1
  +29.024926983261683 a4_z2
  +1000000 short_1
  +1000000 surp_1
  +1000000 short_2
  +1000000 surp_2
  +1000000 short_3
  +1000000 surp_3

s.t.

a1_local_1: 
+0.01295758023750051 a1_x4
+0.010601880956378677 a1_x2
+0.0069810076583414317 a1_x6
<= 1.339859902690564

a1_local_2: 
+0.010700466556347484 a1_x5
+0.011880899091204907 a1_x4
+0.0053136372283527477 a1_x1
<= 1.4736574184481874

a1_local_3: 
+0.012510684960142151 a1_x6
+0.0098902633868452033 a1_x2
+0.0060919940674206887 a1_x1
<= 1.5056158549759062

a1_local_4: 
+0.012445424349400601 a1_x5
+0.0082321047218287084 a1_x2
+0.010098440835338417 a1_x6
<= 1.1150741682273184

a1_local_5: 
+0.01205365072150733 a1_x6
+0.011708067214223418 a1_x2
+0.0061085046132833007 a1_x1
<= 1.5914279815919916

a1_local_6: 
+0.012462886668514833 a1_x5
+0.0085112779134138266 a1_x4
+0.0083468631150077389 a1_x2
<= 1.1795214685793496

a1_local_7: 
+0.014761759920281536 a1_x1
+0.008665280746029928 a1_x4
+0.012501795037520814 a1_x3
<= 2.3312028879374993

a1_local_8: 
+0.0096086537733216272 a1_x5
+0.012314793063897081 a1_x6
+0.011782398371553562 a1_x4
<= 1.2767254791461025

a1_act_1: 
+1 a1_x1
-100 a1_z1
<= 0

a1_act_2: 
+1 a1_x2
-100 a1_z2
<= 0

a2_local_1: 
+0.11651745964308745 a2_x3
+0.15698102447829759 a2_x4
+0.22640822766052343 a2_x5
<= 28.501691660328625

a2_local_2: 
+0.16189758467711102 a2_x3
+0.2322758252007939 a2_x2
+0.28554752413043394 a2_x5
<= 42.931296533095384

a2_local_3: 
+0.28008325554158237 a2_x4
+0.29354079405932654 a2_x6
+0.12472454033329508 a2_x5
<= 47.570598549746713

a2_local_4: 
+0.19613442715238791 a2_x1
+0.23012480326455395 a2_x4
+0.28988574214081031 a2_x5
<= 49.729084369310641

a2_local_5: 
+0.18572470737277522 a2_x2
+0.28793535947703408 a2_x5
+0.19995615068369019 a2_x1
<= 22.234465192311372

a2_local_6: 
+0.2591053596874805 a2_x5
+0.19432968481919774 a2_x4
+0.16008429143266378 a2_x3
<= 41.132627949630738

a2_local_7: 
+0.12539266157614043 a2_x3
+0.14230969160046911 a2_x5
+0.12736291289021598 a2_x6
<= 12.702074843920096

a2_local_8: 
+0.22120290528980655 a2_x2
+0.13894960164161968 a2_x6
+0.19263803322689838 a2_x4
<= 34.724146629121442

a2_act_1: 
+1 a2_x1
-100 a2_z1
<= 0

a2_act_2: 
+1 a2_x2
-100 a2_z2
<= 0

a3_local_1: 
+4.2634524236655844 a3_x2
+6.2413904917495291 a3_x6
+4.9574521998775714 a3_x5
<= 1056.7285603508394

a3_local_2: 
+4.4370772007363541 a3_x4
+6.9109121046564974 a3_x5
+5.0941583868231568 a3_x3
<= 798.03267318296139

a3_local_3: 
+4.035547513206228 a3_x4
+4.4825069095866921 a3_x5
+3.6829955476194485 a3_x1
<= 689.17629210305449

a3_local_4: 
+6.866823018293978 a3_x3
+3.2490236652814586 a3_x4
+6.7866378921623554 a3_x5
<= 689.39832360413061

a3_local_5: 
+3.8537400216799189 a3_x5
+3.3330583389431796 a3_x3
+5.4379391943910971 a3_x2
<= 636.7803342543242

a3_local_6: 
+3.0745727229122335 a3_x1
+4.2001028587873286 a3_x3
+4.7221757964131355 a3_x5
<= 643.99634858629611

a3_local_7: 
+2.5100574171202084 a3_x6
+5.1019413019074555 a3_x4
+4.3795793464960688 a3_x1
<= 822.82246038515905

a3_local_8: 
+6.8899350425626773 a3_x4
+5.7728981449377343 a3_x3
+6.4963920322274618 a3_x5
<= 623.35492308352241

a3_act_1: 
+1 a3_x1
-100 a3_z1
<= 0

a3_act_2: 
+1 a3_x2
-100 a3_z2
<= 0

a4_local_1: 
+89.610255459542827 a4_x1
+139.06669355693828 a4_x4
+145.94185742939479 a4_x6
<= 12817.863989017696

a4_local_2: 
+128.8543303916066 a4_x3
+103.03358935906309 a4_x5
+93.571783637545238 a4_x2
<= 14762.966481628519

a4_local_3: 
+132.71102850498562 a4_x5
+91.022565302329284 a4_x1
+143.23163774225068 a4_x3
<= 20715.40565406621

a4_local_4: 
+133.91259458899515 a4_x3
+112.19372786962161 a4_x1
+72.575656458492716 a4_x5
<= 16517.857488040721

a4_local_5: 
+97.147721903564772 a4_x6
+99.668313682538482 a4_x4
+122.25237943971806 a4_x2
<= 16736.218078561687

a4_local_6: 
+112.16032220672143 a4_x1
+82.44167143630834 a4_x4
+63.997214529514309 a4_x5
<= 10649.489392359545

a4_local_7: 
+134.73484533009844 a4_x2
+112.57466778863412 a4_x5
+70.493122972634907 a4_x4
<= 12490.055315579848

a4_local_8: 
+79.817396698449045 a4_x5
+60.893881289209887 a4_x6
+93.052565205892549 a4_x2
<= 13537.218626919825

a4_act_1: 
+1 a4_x1
-100 a4_z1
<= 0

a4_act_2: 
+1 a4_x2
-100 a4_z2
<= 0

coupling_1: 
+3.6232722503558596 a1_x1
+103.60773693454284 a2_x1
+992.77099042519183 a3_x1
+39113.86632111256 a4_x1
+368.4160114490785 short_1
-368.4160114490785 surp_1
= 984749.29529574781

coupling_2: 
+0.025628517395041833 a1_x2
+0.55056601806871397 a2_x2
+11.20431274334617 a3_x2
+276.56678777089559 a4_x2
+1.8867398699564573 short_2
-1.8867398699564573 surp_2
= 22191.030698503673

coupling_3: 
+0.00038116255442430258 a1_x3
+0.007765053644388697 a2_x3
+0.20071195042332698 a3_x3
+3.8292678116515426 a4_x3
+0.059677031107157358 short_3
-0.059677031107157358 surp_3
= 156.38921697532868

bounds
  0 <= a1_x1 <= 100
  0 <= a1_x2 <= 100
  0 <= a1_x3 <= 100
  0 <= a1_x4 <= 100
  0 <= a1_x5 <= 100
  0 <= a1_x6 <= 100
  0 <= a2_x1 <= 100
  0 <= a2_x2 <= 100
  0 <= a2_x3 <= 100
  0 <= a2_x4 <= 100
  0 <= a2_x5 <= 100
  0 <= a2_x6 <= 100
  0 <= a3_x1 <= 100
  0 <= a3_x2 <= 100
  0 <= a3_x3 <= 100
  0 <= a3_x4 <= 100
  0 <= a3_x5 <= 100
  0 <= a3_x6 <= 100
  0 <= a4_x1 <= 100
  0 <= a4_x2 <= 100
  0 <= a4_x3 <= 100
  0 <= a4_x4 <= 100
  0 <= a4_x5 <= 100
  0 <= a4_x6 <= 100
  0 <= short_1 <= +inf
  0 <= surp_1 <= +inf
  0 <= short_2 <= +inf
  0 <= surp_2 <= +inf
  0 <= short_3 <= +inf
  0 <= surp_3 <= +inf
 0 <= a1_z1 <= 1
 0 <= a1_z2 <= 1
 0 <= a2_z1 <= 1
 0 <= a2_z2 <= 1
 0 <= a3_z1 <= 1
 0 <= a3_z2 <= 1
 0 <= a4_z1 <= 1
 0 <= a4_z2 <= 1

binary
  a1_z1
  a1_z2
  a2_z1
  a2_z2
  a3_z1
  a3_z2
  a4_z1
  a4_z2
end
