min
obj: 
  +2.370294118728955 a1_x1
  +4.0871141162290519 a1_x2
  +7.6613663727576089 a1_x3
  +4.8999168943267346 a1_x4
  +9.1856075433138287 a1_x5
  +7.8055232956727103 a1_x6
  +17.430873114549655 a1_z1
  +23.402378726140935 a1_z2
  +7.1371158046195609 a2_x1
  +9.867310978744726 a2_x2
  +9.2615292817302226 a2_x3
  +3.5007890513184758 a2_x4
  +7.1637373168446201 a2_x5
  +7.9245284991421201 a2_x6
  +12.291053398517668 a2_z1
  +33.658905491272137 a2_z2
  +4.0731411682260328 a3_x1
  +2.6732854397558619 a3_x2
  +9.8971817318039896 a3_x3
  +5.2211213282041085 a3_x4
  +8.0114291145185241 a3_x5
  +2.5829750625381869 a3_x6
  +49.512564365484344 a3_z1
  +27.0926152551414 a3_z2
  +6.6365056560112565 a4_x1
  +8.2046274155609638 a4_x2
  +7.1214056561276049 a4_x3
  +6.2664722965402984 a4_x4
  +7.507966634456313 a4_x5
  +5.5736057519875928 a4_x6
  +9.0405418509815796 a4_z1
  +27.561079601884479 a4_z2
  +1000000 short_1
  +1000000 surp_1
  +1000000 short_2
  +1000000 surp_2
  +1000000 short_3
  +1000000 surp_3

s.t.

a1_local_1: 
+0.01316564903937671 a1_x3
+0.0094617666374969475 a1_x2
+0.0052600100211459165 a1_x1
<= 1.9506841261227881

a1_local_2: 
+0.01118437474681652 a1_x2
+0.013536689756057896 a1_x1
+0.0080495281021142479 a1_x5
<= 1.3656955610811266

a1_local_3: 
+0.0050525508031605887 a1_x4
+0.0098919809361693641 a1_x1
+0.012946813061984646 a1_x2
<= 1.9496998386005702

a1_local_4: 
+0.0083718510275228586 a1_x2
+0.014474765578933678 a1_x5
+0.0057702725861034001 a1_x1
<= 1.1435869620561885

a1_local_5: 
+0.0062302457661853293 a1_x6
+0.010746080283071417 a1_x2
+0.011548177741338388 a1_x5
<= 1.2403982398674802

a1_local_6: 
+0.013582696462030639 a1_x1
+0.0092431027187921816 a1_x6
+0.011549181048212117 a1_x5
<= 1.2358367908750398

a1_local_7: 
+0.01219067942332943 a1_x5
+0.012579723798032077 a1_x4
+0.01247218607757229 a1_x1
<= 1.4611922388532057

a1_local_8: 
+0.014226835532643789 a1_x6
+0.010805879833041243 a1_x5
+0.01252387394653014 a1_x2
<= 2.6139631715449267

a1_act_1: 
+1 a1_x1
-100 a1_z1
<= 0

a1_act_2: 
+1 a1_x2
-100 a1_z2
<= 0

a2_local_1: 
+0.28306760413865661 a2_x6
+0.29556235574817136 a2_x1
+0.31344939745007699 a2_x3
<= 60.57610015776519

a2_local_2: 
+0.2578856736995061 a2_x5
+0.23374049545133882 a2_x4
+0.16689094321363124 a2_x2
<= 28.461378920500202

a2_local_3: 
+0.29044283215932087 a2_x1
+0.14447145449044582 a2_x6
+0.28726585180506514 a2_x3
<= 39.378118218682687

a2_local_4: 
+0.11365075220775571 a2_x6
+0.26873415981474785 a2_x2
+0.29696561877591282 a2_x1
<= 43.392810008637831

a2_local_5: 
+0.26133121334726356 a2_x1
+0.16646155626945464 a2_x6
+0.27535253944301363 a2_x2
<= 27.253491025801235

a2_local_6: 
+0.24834065219641593 a2_x2
+0.21657116516128166 a2_x3
+0.2491190640545001 a2_x5
<= 38.806848170727385

a2_local_7: 
+0.15000670660766716 a2_x1
+0.29937277191517903 a2_x4
+0.28927494988876151 a2_x3
<= 35.602140655994148

a2_local_8: 
+0.12529297302243531 a2_x1
+0.10949767788503528 a2_x5
+0.22234263135448182 a2_x3
<= 25.824664494284391

a2_act_1: 
+1 a2_x1
-100 a2_z1
<= 0

a2_act_2: 
+1 a2_x2
-100 a2_z2
<= 0

a3_local_1: 
+3.6116672282517022 a3_x2
+2.9394425393264112 a3_x1
+4.0236404222222735 a3_x5
<= 706.92284875884195

a3_local_2: 
+5.6817691160346007 a3_x6
+5.8541513505817591 a3_x5
+4.6916262260088581 a3_x3
<= 693.3153599787463

a3_local_3: 
+3.8608271024337979 a3_x5
+4.2118481974984556 a3_x1
+4.9555769682219735 a3_x4
<= 591.04580031416992

a3_local_4: 
+3.4555870428052735 a3_x5
+5.3751645210713948 a3_x2
+4.2696264774210002 a3_x6
<= 512.26537945265341

a3_local_5: 
+6.9418397510608498 a3_x5
+4.0482235548135668 a3_x1
+5.4404144240483783 a3_x6
<= 953.63368646256208

a3_local_6: 
+4.0804080604410613 a3_x2
+5.7763215754802006 a3_x3
+4.6806285027902526 a3_x1
<= 996.97094160980373

a3_local_7: 
+5.8115289467931985 a3_x4
+3.0768184526287481 a3_x3
+6.7067324674273143 a3_x6
<= 661.06039060269018

a3_local_8: 
+3.7298662590777396 a3_x5
+3.8382068045215805 a3_x6
+4.0441020909506289 a3_x4
<= 609.67000187686813

a3_act_1: 
+1 a3_x1
-100 a3_z1
<= 0

a3_act_2: 
+1 a3_x2
-100 a3_z2
<= 0

a4_local_1: 
+98.089186016257628 a4_x2
+141.80083872888764 a4_x3
+66.140910047170934 a4_x1
<= 11982.249706196368

a4_local_2: 
+92.965329186269699 a4_x2
+118.6378350859548 a4_x1
+107.39476495699036 a4_x6
<= 11666.156056183378

a4_local_3: 
+77.221997377676061 a4_x5
+50.120137467573919 a4_x3
+100.36271652007171 a4_x2
<= 12247.098202240146

a4_local_4: 
+133.12279907713648 a4_x2
+102.46754041028119 a4_x3
+129.83287565988826 a4_x4
<= 15708.387129624196

a4_local_5: 
+75.805903955648702 a4_x1
+54.29091819898435 a4_x3
+59.012186490742927 a4_x2
<= 7549.6751215838704

a4_local_6: 
+54.657744812032348 a4_x2
+82.682086774620501 a4_x6
+147.41064643450255 a4_x3
<= 15162.054108457034

a4_local_7: 
+142.26332100497305 a4_x4
+113.92564358033277 a4_x2
+51.199038198756533 a4_x5
<= 12995.905099313737

a4_local_8: 
+133.70298958141115 a4_x5
+131.06179207900942 a4_x2
+61.395194443455203 a4_x4
<= 17492.891792952403

a4_act_1: 
+1 a4_x1
-100 a4_z1
<= 0

a4_act_2: 
+1 a4_x2
-100 a4_z2
<= 0

coupling_1: 
+0.11807324756231483 a1_x1
+1.3826753967232432 a2_x1
+41.174325090890996 a3_x1
+1037.1234404268876 a4_x1
+8.3461817421915789 short_1
-8.3461817421915789 surp_1
= 72680.309267856384

coupling_2: 
+0.12615979137435288 a1_x2
+2.1714277475016508 a2_x2
+61.675294068261408 a3_x2
+1085.6346131249934 a4_x2
+8.9393333363137764 short_2
-8.9393333363137764 surp_2
= 75355.074174182038

coupling_3: 
+0.42147647553004741 a1_x3
+6.7568011917760442 a2_x3
+183.14274366798779 a3_x3
+4973.7864747034437 a4_x3
+38.931617553357043 short_3
-38.931617553357043 surp_3
= 377055.81723624305

bounds
  0 <= a1_x1 <= 100
  0 <= a1_x2 <= 100
  0 <= a1_x3 <= 100
  0 <= a1_x4 <= 100
  0 <= a1_x5 <= 100
  0 <= a1_x6 <= 100
  0 <= a2_x1 <= 100
  0 <= a2_x2 <= 100
  0 <= a2_x3 <= 100
  0 <= a2_x4 <= 100
  0 <= a2_x5 <= 100
  0 <= a2_x6 <= 100
  0 <= a3_x1 <= 100
  0 <= a3_x2 <= 100
  0 <= a3_x3 <= 100
  0 <= a3_x4 <= 100
  0 <= a3_x5 <= 100
  0 <= a3_x6 <= 100
  0 <= a4_x1 <= 100
  0 <= a4_x2 <= 100
  0 <= a4_x3 <= 100
  0 <= a4_x4 <= 100
  0 <= a4_x5 <= 100
  0 <= a4_x6 <= 100
  0 <= short_1 <= +inf
  0 <= surp_1 <= +inf
  0 <= short_2 <= +inf
  0 <= surp_2 <= +inf
  0 <= short_3 <= +inf
  0 <= surp_3 <= +inf
 0 <= a1_z1 <= 1
 0 <= a1_z2 <= 1
 0 <= a2_z1 <= 1
 0 <= a2_z2 <= 1
 0 <= a3_z1 <= 1
 0 <= a3_z2 <= 1
 0 <= a4_z1 <= 1
 0 <= a4_z2 <= 1

binary
  a1_z1
  a1_z2
  a2_z1
  a2_z2
  a3_z1
  a3_z2
  a4_z1
  a4_z2
end
