min
obj: 
  +2.370294118728955 a1_x1
  +4.0871141162290519 a1_x2
  +7.6613663727576089 a1_x3
  +4.8999168943267346 a1_x4
  +9.1856075433138287 a1_x5
  +7.8055232956727103 a1_x6
  +17.430873114549655 a1_z1
  +23.402378726140935 a1_z2
  +7.1371158046195609 a2_x1
  +9.867310978744726 a2_x2
  +9.2615292817302226 a2_x3
  +3.5007890513184758 a2_x4
  +7.1637373168446201 a2_x5
  +7.9245284991421201 a2_x6
  +12.291053398517668 a2_z1
  +33.658905491272137 a2_z2
  +4.0731411682260328 a3_x1
  +2.6732854397558619 a3_x2
  +9.8971817318039896 a3_x3
  +5.2211213282041085 a3_x4
  +8.0114291145185241 a3_x5
  +2.5829750625381869 a3_x6
  +49.512564365484344 a3_z1
  +27.0926152551414 a3_z2
  +6.6365056560112565 a4_x1
  +8.2046274155609638 a4_x2
  +7.1214056561276049 a4_x3
  +6.2664722965402984 a4_x4
  +7.507966634456313 a4_x5
  +5.5736057519875928 a4_x6
  +9.0405418509815796 a4_z1
  +27.561079601884479 a4_z2
  +1000000 short_1
  +1000000 surp_1
  +1000000 short_2
  +1000000 surp_2
  +1000000 short_3
  +1000000 surp_3

s.t.

a1_local_1: 
+0.77241195716615829 a1_x3
+0.55510986696212827 a1_x2
+0.30859812706501166 a1_x1
<= 114.44416748198475

a1_local_2: 
+0.57900632461119739 a1_x2
+0.70078383105752595 a1_x1
+0.41671776802599803 a1_x5
<= 70.700990020428748

a1_local_3: 
+0.29618601529088329 a1_x4
+0.57987866544253797 a1_x1
+0.75895624228982395 a1_x2
<= 114.29352196659683

a1_local_4: 
+0.47327851004709759 a1_x2
+0.8182892246836555 a1_x5
+0.32620575821744974 a1_x1
<= 64.649398529895407

a1_local_5: 
+0.36734108743170801 a1_x6
+0.63359889239632061 a1_x2
+0.68089130486344607 a1_x5
<= 73.13503437606488

a1_local_6: 
+0.67634375358820198 a1_x1
+0.46025579715374171 a1_x6
+0.57508584417336794 a1_x5
<= 61.537890970278006

a1_local_7: 
+0.5669056179184947 a1_x5
+0.58499742674880872 a1_x4
+0.57999657849828912 a1_x1
<= 67.950116666963439

a1_local_8: 
+0.65207408325029381 a1_x6
+0.49527768629049418 a1_x5
+0.57402038588888438 a1_x2
<= 119.80862749303462

a1_act_1: 
+0.0099995000374968751 a1_x1
-0.99995000374968757 a1_z1
<= 0

a1_act_2: 
+0.0099995000374968751 a1_x2
-0.99995000374968757 a1_z2
<= 0

a2_local_1: 
+0.28306760413865661 a2_x6
+0.29556235574817136 a2_x1
+0.31344939745007699 a2_x3
<= 60.57610015776519

a2_local_2: 
+0.66810605983726146 a2_x5
+0.60555299253408035 a2_x4
+0.43236543113638209 a2_x2
<= 73.735075916887183

a2_local_3: 
+0.6703010034316973 a2_x1
+0.33341969637268204 a2_x6
+0.66296898183037833 a2_x3
<= 90.879130874044307

a2_local_4: 
+0.27298831903800402 a2_x6
+0.64549758915640554 a2_x2
+0.71330935789604877 a2_x1
<= 104.22922886545706

a2_local_5: 
+0.6304509466665873 a2_x1
+0.40158174903591159 a2_x6
+0.66427682684891387 a2_x2
<= 65.747941078717858

a2_local_6: 
+0.6011902166326194 a2_x2
+0.52428172571888243 a2_x3
+0.60307461851951183 a2_x5
<= 93.944737811739827

a2_local_7: 
+0.33899836697336877 a2_x1
+0.67654895631412582 a2_x4
+0.65372900876407214 a2_x3
<= 80.45685300393977

a2_local_8: 
+0.45116048109391421 a2_x1
+0.39428408346917498 a2_x5
+0.80062118496950863 a2_x3
<= 92.990594574238401

a2_act_1: 
+0.0099995000374968751 a2_x1
-0.99995000374968757 a2_z1
<= 0

a2_act_2: 
+0.0099995000374968751 a2_x2
-0.99995000374968757 a2_z2
<= 0

a3_local_1: 
+0.58686243400301796 a3_x2
+0.47763215551731564 a3_x1
+0.65380425784170004 a3_x5
<= 114.86840770648338

a3_local_2: 
+0.6037437573653025 a3_x6
+0.62206106239179815 a3_x5
+0.49853135317491709 a3_x3
<= 73.671564599721492

a3_local_3: 
+0.51046909469657009 a3_x5
+0.55688024336056996 a3_x1
+0.65521423818041102 a3_x4
<= 78.146626773416244

a3_local_4: 
+0.44963840955300682 a3_x5
+0.69941239980407155 a3_x2
+0.55556061384420685 a3_x6
<= 66.655589233594142

a3_local_5: 
+0.71532916863256812 a3_x5
+0.417153448329174 a3_x1
+0.56061321876184655 a3_x6
<= 98.26818488759092

a3_local_6: 
+0.48113502172049771 a3_x2
+0.68110604761006099 a3_x3
+0.55190908923754634 a3_x1
<= 117.55629058194941

a3_local_7: 
+0.61873482797448964 a3_x4
+0.32757898195559443 a3_x3
+0.71404427259961634 a3_x6
<= 70.38097733058737

a3_local_8: 
+0.55602492840374218 a3_x5
+0.572175653346499 a3_x6
+0.60286922355608796 a3_x4
<= 90.885757181898342

a3_act_1: 
+0.0099995000374968751 a3_x1
-0.99995000374968757 a3_z1
<= 0

a3_act_2: 
+0.0099995000374968751 a3_x2
-0.99995000374968757 a3_z2
<= 0

a4_local_1: 
+0.53115479346048566 a4_x2
+0.76785421784499741 a4_x3
+0.35815427614590362 a4_x1
<= 64.884108293363099

a4_local_2: 
+0.50232361808292381 a4_x2
+0.64104098897445461 a4_x1
+0.58029081775497182 a4_x6
<= 63.036249863863809

a4_local_3: 
+0.56701322740703075 a4_x5
+0.36801406164856154 a4_x3
+0.7369271676186131 a4_x2
<= 89.926017376371732

a4_local_4: 
+0.62700475387235888 a4_x2
+0.4826193214103528 a4_x3
+0.61150930428152384 a4_x4
<= 73.98607506919025

a4_local_5: 
+0.68697701092450358 a4_x1
+0.49200142414376991 a4_x3
+0.53478704649770348 a4_x2
<= 68.417537128917843

a4_local_6: 
+0.30769936179685242 a4_x2
+0.46546423421008165 a4_x6
+0.82985790917543956 a4_x3
<= 85.355778741799512

a4_local_7: 
+0.75147322081669554 a4_x4
+0.60178596781059857 a4_x2
+0.27044712485371863 a4_x5
<= 68.64787489438703

a4_local_8: 
+0.67857253477884127 a4_x5
+0.66516786754090351 a4_x2
+0.31159432445875102 a4_x4
<= 88.780332898450212

a4_act_1: 
+0.0099995000374968751 a4_x1
-0.99995000374968757 a4_z1
<= 0

a4_act_2: 
+0.0099995000374968751 a4_x2
-0.99995000374968757 a4_z2
<= 0

coupling_1: 
+0.00011374979120462211 a1_x1
+0.0013320463435041094 a2_x1
+0.039666655900256011 a3_x1
+0.99914737027721801 a4_x1
+0.0080405718495129425 short_1
-0.0080405718495129425 surp_1
= 70.01899392614574

coupling_2: 
+0.0001160131893957659 a1_x2
+0.0019967872155291326 a2_x2
+0.056714960399303127 a3_x2
+0.99832072180069376 a4_x2
+0.00822037322763426 short_2
-0.00822037322763426 surp_2
= 69.294522421654648

coupling_3: 
+8.4676912672797364e-05 a1_x3
+0.0013574780508068581 a2_x3
+0.036794371720813013 a3_x3
+0.99926071186285914 a4_x3
+0.0078215733763801511 short_3
-0.0078215733763801511 surp_3
= 75.752561204587153

bounds
  0 <= a1_x1 <= 100
  0 <= a1_x2 <= 100
  0 <= a1_x3 <= 100
  0 <= a1_x4 <= 100
  0 <= a1_x5 <= 100
  0 <= a1_x6 <= 100
  0 <= a2_x1 <= 100
  0 <= a2_x2 <= 100
  0 <= a2_x3 <= 100
  0 <= a2_x4 <= 100
  0 <= a2_x5 <= 100
  0 <= a2_x6 <= 100
  0 <= a3_x1 <= 100
  0 <= a3_x2 <= 100
  0 <= a3_x3 <= 100
  0 <= a3_x4 <= 100
  0 <= a3_x5 <= 100
  0 <= a3_x6 <= 100
  0 <= a4_x1 <= 100
  0 <= a4_x2 <= 100
  0 <= a4_x3 <= 100
  0 <= a4_x4 <= 100
  0 <= a4_x5 <= 100
  0 <= a4_x6 <= 100
  0 <= short_1 <= +inf
  0 <= surp_1 <= +inf
  0 <= short_2 <= +inf
  0 <= surp_2 <= +inf
  0 <= short_3 <= +inf
  0 <= surp_3 <= +inf
 0 <= a1_z1 <= 1
 0 <= a1_z2 <= 1
 0 <= a2_z1 <= 1
 0 <= a2_z2 <= 1
 0 <= a3_z1 <= 1
 0 <= a3_z2 <= 1
 0 <= a4_z1 <= 1
 0 <= a4_z2 <= 1

binary
  a1_z1
  a1_z2
  a2_z1
  a2_z2
  a3_z1
  a3_z2
  a4_z1
  a4_z2
end
