min
obj: 
  +3.043052453503527 a1_x1
  +8.5242104678500681 a1_x2
  +7.6930756521091874 a1_x3
  +6.9189962156082423 a1_x4
  +9.2097073421305335 a1_x5
  +1.6783613276554563 a1_x6
  +29.957301038510835 a1_z1
  +31.080729858907144 a1_z2
  +8.695776775262491 a2_x1
  +6.9077742042221582 a2_x2
  +5.0875445936298673 a2_x3
  +7.5917023578038236 a2_x4
  +8.2794490372741638 a2_x5
  +1.0351287904006585 a2_x6
  +28.928861886453006 a2_z1
  +23.934213589769115 a2_z2
  +5.1403805558345264 a3_x1
  +3.338751629164217 a3_x2
  +6.1106898664601106 a3_x3
  +6.5508211726549801 a3_x4
  +5.1951326468311683 a3_x5
  +3.9370151452755238 a3_x6
  +16.85304582879688 a3_z1
  +38.539597563502319 a3_z2
  +1.4163415069349607 a4_x1
  +8.5438219758017482 a4_x2
  +7.1495610706401269 a4_x3
  +5.5659057933768521 a4_x4
  +2.526471255000704 a4_x5
  +2.3501129539553487 a4_x6
  +43.904023055410626 a4_z1
  +7.4539102618189466 a4_z2
  +1000000 short_1
  +1000000 surp_1
  +1000000 short_2
  +1000000 surp_2
  +1000000 short_3
  +1000000 surp_3

s.t.

a1_local_1: 
+0.0050697184382356465 a1_x4
+0.0063070814300599069 a1_x3
+0.013587378415029253 a1_x1
<= 1.5507791307576047

a1_local_2: 
+0.0066164660390064384 a1_x6
+0.011527811145222585 a1_x4
+0.0070176638952812757 a1_x2
<= 1.1248339228263182

a1_local_3: 
+0.014402458914565057 a1_x3
+0.0085063838979128076 a1_x1
+0.0056510120820102887 a1_x4
<= 1.1996111016040329

a1_local_4: 
+0.011941568485196919 a1_x3
+0.0066990276680099336 a1_x1
+0.012564030974360768 a1_x2
<= 1.5483620191602447

a1_local_5: 
+0.0065664062725785937 a1_x3
+0.011289596560646827 a1_x2
+0.01200766114697299 a1_x4
<= 1.179522995052571

a1_local_6: 
+0.0077678333966014644 a1_x3
+0.014644029138318368 a1_x5
+0.010218749081166198 a1_x4
<= 1.1336873851693559

a1_local_7: 
+0.013717009937621618 a1_x5
+0.011557767113027037 a1_x6
+0.0087832444884740138 a1_x1
<= 1.5048104713057797

a1_local_8: 
+0.0090391888862948449 a1_x2
+0.0073252222234778952 a1_x3
+0.0081837805538173356 a1_x6
<= 1.2247196392418678

a1_act_1: 
+1 a1_x1
-100 a1_z1
<= 0

a1_act_2: 
+1 a1_x2
-100 a1_z2
<= 0

a2_local_1: 
+0.11152089970013591 a2_x6
+0.13669675873606688 a2_x3
+0.1544646709636312 a2_x1
<= 13.609611370230297

a2_local_2: 
+0.15052952401648081 a2_x4
+0.1874276321977392 a2_x1
+0.28745219910292813 a2_x5
<= 32.860294103218067

a2_local_3: 
+0.18681982689014132 a2_x6
+0.221853947245397 a2_x5
+0.29978223631961465 a2_x3
<= 43.455032901620406

a2_local_4: 
+0.17898012512154285 a2_x4
+0.27909633329258809 a2_x3
+0.19010807522615744 a2_x6
<= 31.701930398428207

a2_local_5: 
+0.26537107348584227 a2_x6
+0.24112622656338359 a2_x2
+0.18055954248389533 a2_x5
<= 39.180017867276582

a2_local_6: 
+0.20794186060899947 a2_x2
+0.17686029438442633 a2_x1
+0.21899049145634322 a2_x4
<= 25.064922711342419

a2_local_7: 
+0.17668076844648395 a2_x6
+0.30873671389233587 a2_x2
+0.29361188992224996 a2_x5
<= 35.509656941986677

a2_local_8: 
+0.30492211106347583 a2_x2
+0.1583700709699708 a2_x4
+0.22041508877149205 a2_x5
<= 29.749501569482256

a2_act_1: 
+1 a2_x1
-100 a2_z1
<= 0

a2_act_2: 
+1 a2_x2
-100 a2_z2
<= 0

a3_local_1: 
+4.1909452971204688 a3_x6
+6.4133439159468013 a3_x5
+5.68980978179306 a3_x2
<= 1086.9302696126967

a3_local_2: 
+6.4041397292904554 a3_x4
+3.0107788713779371 a3_x3
+4.4876324215988745 a3_x1
<= 598.44733271947541

a3_local_3: 
+5.4787292292216492 a3_x2
+5.3111489715352658 a3_x4
+6.2331803502463661 a3_x3
<= 920.99434479707986

a3_local_4: 
+5.025084299024428 a3_x5
+6.4376870466854186 a3_x2
+5.782255533935964 a3_x1
<= 1145.2668021998388

a3_local_5: 
+4.3017204524145471 a3_x6
+5.0471869701025085 a3_x2
+2.5669795906104471 a3_x3
<= 828.71672418697551

a3_local_6: 
+6.1078142728531075 a3_x1
+6.3693757586174033 a3_x4
+2.5617231670555722 a3_x3
<= 850.84433327669831

a3_local_7: 
+6.4943046212924127 a3_x2
+5.5311109181873528 a3_x6
+4.9631275946711986 a3_x5
<= 1187.2922797468043

a3_local_8: 
+3.9103474921695671 a3_x2
+3.0779837249343767 a3_x3
+4.3991735897479733 a3_x4
<= 518.78442520821682

a3_act_1: 
+1 a3_x1
-100 a3_z1
<= 0

a3_act_2: 
+1 a3_x2
-100 a3_z2
<= 0

a4_local_1: 
+77.004214379245354 a4_x4
+63.981232959295276 a4_x5
+110.65667947026361 a4_x6
<= 9283.8201816159817

a4_local_2: 
+125.76350377333414 a4_x3
+146.29530018541871 a4_x1
+101.04540539742004 a4_x2
<= 24744.882097822836

a4_local_3: 
+56.516529911070421 a4_x4
+72.032831130866697 a4_x6
+117.00823344984271 a4_x2
<= 7612.1878957919635

a4_local_4: 
+98.679356709185171 a4_x2
+89.652566412003281 a4_x3
+70.870243523321193 a4_x1
<= 15382.272757718059

a4_local_5: 
+71.916633369188048 a4_x4
+130.14117074196287 a4_x5
+84.73153718567508 a4_x2
<= 19696.571947595799

a4_local_6: 
+127.03666453410993 a4_x6
+52.733861341418894 a4_x5
+96.916414774672845 a4_x3
<= 19000.106948836452

a4_local_7: 
+52.163364395311376 a4_x4
+122.4832470688753 a4_x3
+130.32917768911807 a4_x5
<= 20021.774025067687

a4_local_8: 
+97.925406698896495 a4_x1
+57.615560200627968 a4_x6
+136.63715836365404 a4_x4
<= 16139.903016250151

a4_act_1: 
+1 a4_x1
-100 a4_z1
<= 0

a4_act_2: 
+1 a4_x2
-100 a4_z2
<= 0

coupling_1: 
+2.3570392399642888 a1_x1
+19.832195741410693 a2_x1
+413.06534271525231 a3_x1
+20488.383097901922 a4_x1
+164.26021024460852 short_1
-164.26021024460852 surp_1
= 422245.92014296859

coupling_2: 
+1.5751516927128285e-05 a1_x2
+0.0004123371060573661 a2_x2
+0.012874706245427138 a3_x2
+0.25660397510464095 a4_x2
+0.0020997807452648076 short_2
-0.0020997807452648076 surp_2
= 8.9654805012071606

coupling_3: 
+1.1362463287758934e-05 a1_x3
+0.00035698098991925948 a2_x3
+0.0086929691835124431 a3_x3
+0.097227127719927073 a4_x3
+0.0017535794986970105 short_3
-0.0017535794986970105 surp_3
= 2.2150184948507823

bounds
  0 <= a1_x1 <= 100
  0 <= a1_x2 <= 100
  0 <= a1_x3 <= 100
  0 <= a1_x4 <= 100
  0 <= a1_x5 <= 100
  0 <= a1_x6 <= 100
  0 <= a2_x1 <= 100
  0 <= a2_x2 <= 100
  0 <= a2_x3 <= 100
  0 <= a2_x4 <= 100
  0 <= a2_x5 <= 100
  0 <= a2_x6 <= 100
  0 <= a3_x1 <= 100
  0 <= a3_x2 <= 100
  0 <= a3_x3 <= 100
  0 <= a3_x4 <= 100
  0 <= a3_x5 <= 100
  0 <= a3_x6 <= 100
  0 <= a4_x1 <= 100
  0 <= a4_x2 <= 100
  0 <= a4_x3 <= 100
  0 <= a4_x4 <= 100
  0 <= a4_x5 <= 100
  0 <= a4_x6 <= 100
  0 <= short_1 <= +inf
  0 <= surp_1 <= +inf
  0 <= short_2 <= +inf
  0 <= surp_2 <= +inf
  0 <= short_3 <= +inf
  0 <= surp_3 <= +inf
 0 <= a1_z1 <= 1
 0 <= a1_z2 <= 1
 0 <= a2_z1 <= 1
 0 <= a2_z2 <= 1
 0 <= a3_z1 <= 1
 0 <= a3_z2 <= 1
 0 <= a4_z1 <= 1
 0 <= a4_z2 <= 1

binary
  a1_z1
  a1_z2
  a2_z1
  a2_z2
  a3_z1
  a3_z2
  a4_z1
  a4_z2
end
