min
obj: 
  +3.0571104005516858 a1_x1
  +8.0556013187453051 a1_x2
  +1.9742345173811016 a1_x3
  +4.4385591714508195 a1_x4
  +2.091774352732247 a1_x5
  +8.3606733491801819 a1_x6
  +15.666425601953888 a1_z1
  +12.324732571684713 a1_z2
  +9.2229319073823621 a2_x1
  +7.6338140335244935 a2_x2
  +9.9611693691396663 a2_x3
  +9.9407775368738864 a2_x4
  +8.2998138303753102 a2_x5
  +5.1593396215897407 a2_x6
  +11.18650581061075 a2_z1
  +36.513419228591097 a2_z2
  +6.077667458974199 a3_x1
  +8.7735643157403977 a3_x2
  +3.6647749932252576 a3_x3
  +8.9894067496513301 a3_x4
  +1.8313374509796332 a3_x5
  +5.9661400049633215 a3_x6
  +11.771775193454559 a3_z1
  +18.836022336426041 a3_z2
  +3.5739044594919878 a4_x1
  +7.8515457332568142 a4_x2
  +9.0641405667365316 a4_x3
  +3.8803458463891136 a4_x4
  +5.5605295549433134 a4_x5
  +7.2488159045117166 a4_x6
  +49.908526082373854 a4_z1
  +15.565550238545768 a4_z2
  +1000000 short_1
  +1000000 surp_1
  +1000000 short_2
  +1000000 surp_2
  +1000000 short_3
  +1000000 surp_3

s.t.

a1_local_1: 
+0.0082781145254359444 a1_x5
+0.013625450699833156 a1_x1
+0.0057355998076485636 a1_x6
<= 1.0812862944139077

a1_local_2: 
+0.011213709759732286 a1_x6
+0.0055215626186556985 a1_x4
+0.011014589296677813 a1_x1
<= 1.3436872761213372

a1_local_3: 
+0.0063846559159221406 a1_x3
+0.0086628693024506636 a1_x1
+0.011610654624935744 a1_x2
<= 0.8171642487079277

a1_local_4: 
+0.0051157163523663065 a1_x4
+0.005198698779231588 a1_x5
+0.012581561841619036 a1_x2
<= 1.5988148061093426

a1_local_5: 
+0.014670888209154184 a1_x4
+0.012853150925022228 a1_x1
+0.01165216019819673 a1_x2
<= 1.7646747265280505

a1_local_6: 
+0.0088592150321655568 a1_x4
+0.0074751357227122927 a1_x2
+0.010524936581547828 a1_x6
<= 0.9477997280044862

a1_local_7: 
+0.0094173718296570903 a1_x3
+0.0077708703104756886 a1_x5
+0.01472051543132147 a1_x6
<= 1.0785006581177525

a1_local_8: 
+0.0056064992272181488 a1_x4
+0.0073383371916740563 a1_x6
+0.0099916557191105978 a1_x3
<= 0.71264393733053666

a1_act_1: 
+1 a1_x1
-100 a1_z1
<= 0

a1_act_2: 
+1 a1_x2
-100 a1_z2
<= 0

a2_local_1: 
+0.20436290719193509 a2_x3
+0.12438371508038815 a2_x4
+0.15882604960805602 a2_x1
<= 21.525885868330473

a2_local_2: 
+0.31993862625276109 a2_x5
+0.31087503384130694 a2_x1
+0.1317484676232529 a2_x6
<= 50.037141336633411

a2_local_3: 
+0.11090445887543587 a2_x1
+0.28454541512070847 a2_x5
+0.31264525051260073 a2_x3
<= 43.117711463321676

a2_local_4: 
+0.26033294739255264 a2_x2
+0.28230427538412667 a2_x5
+0.29343176046026076 a2_x3
<= 50.72855302804733

a2_local_5: 
+0.18483484506521319 a2_x5
+0.15946831748310236 a2_x6
+0.12638454045678918 a2_x4
<= 16.300658659151015

a2_local_6: 
+0.28495367441406233 a2_x4
+0.16624524888694245 a2_x5
+0.13219225462483111 a2_x1
<= 36.427220843962786

a2_local_7: 
+0.21215724857406335 a2_x4
+0.20069797212248824 a2_x5
+0.28766703175409564 a2_x1
<= 34.140209827201154

a2_local_8: 
+0.21526298720691248 a2_x4
+0.30446679216388128 a2_x2
+0.25097682618266642 a2_x6
<= 34.060409798178362

a2_act_1: 
+1 a2_x1
-100 a2_z1
<= 0

a2_act_2: 
+1 a2_x2
-100 a2_z2
<= 0

a3_local_1: 
+2.5250158737648931 a3_x3
+4.9355960620996262 a3_x1
+3.3646727793697329 a3_x2
<= 478.58734739763514

a3_local_2: 
+3.48206402149318 a3_x1
+5.0284908282679091 a3_x3
+4.1477732366184226 a3_x2
<= 735.93607712346693

a3_local_3: 
+3.9848213709797911 a3_x4
+2.9152203530339591 a3_x5
+2.7346370975916985 a3_x1
<= 598.01959714711234

a3_local_4: 
+4.5535960107362499 a3_x4
+4.4035989539790421 a3_x5
+2.9498997856440097 a3_x2
<= 749.35877002718587

a3_local_5: 
+2.9927781192370153 a3_x6
+4.2098616491306409 a3_x3
+4.834797706823271 a3_x2
<= 518.10583277643627

a3_local_6: 
+3.847195724049469 a3_x3
+6.6240917589805495 a3_x4
+6.3274499370530117 a3_x5
<= 1037.0857702972487

a3_local_7: 
+2.4927991571905954 a3_x6
+4.6635247057811684 a3_x2
+5.2693410830227148 a3_x3
<= 606.74456088501074

a3_local_8: 
+2.6059445803549179 a3_x5
+3.3422604148615762 a3_x3
+4.568482699034643 a3_x4
<= 479.59912312408812

a3_act_1: 
+1 a3_x1
-100 a3_z1
<= 0

a3_act_2: 
+1 a3_x2
-100 a3_z2
<= 0

a4_local_1: 
+87.292527892613506 a4_x2
+123.83584975054558 a4_x5
+68.51911352298761 a4_x1
<= 14157.369669024378

a4_local_2: 
+120.34888846563723 a4_x2
+104.90621161313686 a4_x6
+132.64710779025387 a4_x3
<= 23431.409837026396

a4_local_3: 
+139.30050684541752 a4_x5
+116.45687589596207 a4_x2
+77.948066741835646 a4_x1
<= 16903.722456789983

a4_local_4: 
+105.73190694235377 a4_x6
+102.86649802573926 a4_x4
+59.318389520992632 a4_x2
<= 14249.134471662383

a4_local_5: 
+79.824513523580194 a4_x6
+127.78799314134304 a4_x4
+65.291778694716257 a4_x1
<= 12109.708258909684

a4_local_6: 
+128.42606703765361 a4_x5
+51.63611996220655 a4_x2
+144.64758391664566 a4_x3
<= 10168.516045279217

a4_local_7: 
+135.72531138729869 a4_x6
+126.69083770121946 a4_x2
+92.646305316549515 a4_x3
<= 19022.389518350898

a4_local_8: 
+62.733224859489297 a4_x3
+107.87766288911374 a4_x2
+115.23808916613349 a4_x1
<= 13124.866803232462

a4_act_1: 
+1 a4_x1
-100 a4_z1
<= 0

a4_act_2: 
+1 a4_x2
-100 a4_z2
<= 0

coupling_1: 
+0.44165838880784947 a1_x1
+11.700199247073414 a2_x1
+452.8559558116159 a3_x1
+8494.5482841226149 a4_x1
+70.081588344068535 short_1
-70.081588344068535 surp_1
= 337130.97530736215

coupling_2: 
+0.015421926638559838 a1_x2
+0.17203638189260376 a2_x2
+7.0575134438404374 a3_x2
+92.229710872604656 a4_x2
+1.1533508692361314 short_2
-1.1533508692361314 surp_2
= 7803.0946900639201

coupling_3: 
+1.5254846851271244 a1_x3
+46.668844290667927 a2_x3
+1421.601520989831 a3_x3
+24881.875964054645 a4_x3
+209.31112232893454 short_3
-209.31112232893454 surp_3
= 893173.63245454698

bounds
  0 <= a1_x1 <= 100
  0 <= a1_x2 <= 100
  0 <= a1_x3 <= 100
  0 <= a1_x4 <= 100
  0 <= a1_x5 <= 100
  0 <= a1_x6 <= 100
  0 <= a2_x1 <= 100
  0 <= a2_x2 <= 100
  0 <= a2_x3 <= 100
  0 <= a2_x4 <= 100
  0 <= a2_x5 <= 100
  0 <= a2_x6 <= 100
  0 <= a3_x1 <= 100
  0 <= a3_x2 <= 100
  0 <= a3_x3 <= 100
  0 <= a3_x4 <= 100
  0 <= a3_x5 <= 100
  0 <= a3_x6 <= 100
  0 <= a4_x1 <= 100
  0 <= a4_x2 <= 100
  0 <= a4_x3 <= 100
  0 <= a4_x4 <= 100
  0 <= a4_x5 <= 100
  0 <= a4_x6 <= 100
  0 <= short_1 <= +inf
  0 <= surp_1 <= +inf
  0 <= short_2 <= +inf
  0 <= surp_2 <= +inf
  0 <= short_3 <= +inf
  0 <= surp_3 <= +inf
 0 <= a1_z1 <= 1
 0 <= a1_z2 <= 1
 0 <= a2_z1 <= 1
 0 <= a2_z2 <= 1
 0 <= a3_z1 <= 1
 0 <= a3_z2 <= 1
 0 <= a4_z1 <= 1
 0 <= a4_z2 <= 1

binary
  a1_z1
  a1_z2
  a2_z1
  a2_z2
  a3_z1
  a3_z2
  a4_z1
  a4_z2
end
