min
obj: 
  +4.6820518769511636 a1_x1
  +5.7129162548306427 a1_x2
  +9.0056358908477314 a1_x3
  +9.0172471176233611 a1_x4
  +9.406385688684578 a1_x5
  +5.7753562095118767 a1_x6
  +36.440798325108226 a1_z1
  +20.355895911925103 a1_z2
  +7.5922132430360731 a2_x1
  +9.5705581106952309 a2_x2
  +1.2604999258751248 a2_x3
  +5.3940318901522675 a2_x4
  +5.1816392623674004 a2_x5
  +3.5951202349319828 a2_x6
  +41.62149658815251 a2_z1
  +8.2240572055779673 a2_z2
  +7.862026295743088 a3_x1
  +4.4443242856945142 a3_x2
  +6.878356128261002 a3_x3
  +6.0922718983064614 a3_x4
  +7.9699820931728009 a3_x5
  +3.3886243612057902 a3_x6
  +44.384252789712569 a3_z1
  +46.436857763791892 a3_z2
  +5.3272595951622712 a4_x1
  +2.1426688948262615 a4_x2
  +3.7175386403807593 a4_x3
  +7.4752828100284079 a4_x4
  +1.4623010448148774 a4_x5
  +9.334818787187654 a4_x6
  +27.5499217848452 a4_z1
  +29.024926983261683 a4_z2
  +1000000 short_1
  +1000000 surp_1
  +1000000 short_2
  +1000000 surp_2
  +1000000 short_3
  +1000000 surp_3

s.t.

a1_local_1: 
+1.3623945454214452 a1_x4
+1.1147100401026737 a1_x2
+0.7340017642911647 a1_x6
<= 140.87644371837223

a1_local_2: 
+1.3467348846124503 a1_x5
+1.4953012733070601 a1_x4
+0.66876155183655095 a1_x1
<= 185.4709645547957

a1_local_3: 
+1.4330482335106731 a1_x6
+1.1328895676478425 a1_x2
+0.69781321843592525 a1_x1
<= 172.46219117441262

a1_local_4: 
+1.2295591084724917 a1_x5
+0.81329965603875842 a1_x2
+0.99768634333942352 a1_x6
<= 110.16495393604798

a1_local_5: 
+1.4047267356973552 a1_x6
+1.3644525977358508 a1_x2
+0.71188222918215149 a1_x1
<= 185.46426185141635

a1_local_6: 
+1.2219337977674274 a1_x5
+0.83449512309744422 a1_x4
+0.81837494128330135 a1_x2
<= 115.6471358510021

a1_local_7: 
+1.3052020581294261 a1_x1
+0.76616489666984433 a1_x4
+1.1053809777020958 a1_x3
<= 206.1197867791401

a1_local_8: 
+0.88331928695941897 a1_x5
+1.1320934737451753 a1_x6
+1.0831506654063452 a1_x4
<= 117.36880800237246

a1_act_1: 
+0.10000000000000001 a1_x1
-10 a1_z1
<= 0

a1_act_2: 
+0.10000000000000001 a1_x2
-10 a1_z2
<= 0

a2_local_1: 
+0.71738022542854685 a2_x3
+0.96650822179958495 a2_x4
+1.3939609213546724 a2_x5
<= 175.48056789954654

a2_local_2: 
+0.75297574241402376 a2_x3
+1.0803006250785949 a2_x2
+1.3280640313777201 a2_x5
<= 199.67082859374099

a2_local_3: 
+1.4637838707851336 a2_x4
+1.5341162717158956 a2_x6
+0.65184107517581358 a2_x5
<= 248.61562947084454

a2_local_4: 
+0.82255223736599736 a2_x1
+0.96510171389543453 a2_x4
+1.215728259644921 a2_x5
<= 208.5547662591519

a2_local_5: 
+0.80313275925127969 a2_x2
+1.2451241572218394 a2_x5
+0.8646740506395183 a2_x1
<= 96.148905727096604

a2_local_6: 
+1.2722247474885471 a2_x5
+0.95417182607426598 a2_x4
+0.78602464067301303 a2_x3
<= 201.96397044768582

a2_local_7: 
+0.93868271683434545 a2_x3
+1.065322693244469 a2_x5
+0.95343191214686274 a2_x6
<= 95.087048747937629

a2_local_8: 
+1.2617309616240644 a2_x2
+0.79256198858180371 a2_x6
+1.0987982756840557 a2_x4
<= 198.0648982007533

a2_act_1: 
+0.10000000000000001 a2_x1
-10 a2_z1
<= 0

a2_act_2: 
+0.10000000000000001 a2_x2
-10 a2_z2
<= 0

a3_local_1: 
+0.82649462397420292 a3_x2
+1.209929225179343 a3_x6
+0.96103044778089963 a3_x5
<= 204.85287211885017

a3_local_2: 
+0.80127355156801428 a3_x4
+1.2480132384790403 a3_x5
+0.91993314476980037 a3_x3
<= 144.11344346285193

a3_local_3: 
+0.99321068749748254 a3_x4
+1.1032143110231052 a3_x5
+0.90644219351416322 a3_x1
<= 169.6169495332766

a3_local_4: 
+1.4537893726584799 a3_x3
+0.68785755268752891 a3_x4
+1.4368132129548044 a3_x5
<= 145.95395188053897

a3_local_5: 
+0.90519840921893402 a3_x5
+0.78289637839401172 a3_x3
+1.277308246145348 a3_x2
<= 149.57224471453736

a3_local_6: 
+0.80690296163612485 a3_x1
+1.1022915186477422 a3_x3
+1.2393063943802363 a3_x5
<= 169.01293538600297

a3_local_7: 
+0.7014134656224521 a3_x6
+1.4256926178521172 a3_x4
+1.2238349236324289 a3_x1
<= 229.93049863891127

a3_local_8: 
+1.0924727581138489 a3_x4
+0.91535463248209226 a3_x3
+1.0300723123503679 a3_x5
<= 98.839578007343292

a3_act_1: 
+0.10000000000000001 a3_x1
-10 a3_z1
<= 0

a3_act_2: 
+0.10000000000000001 a3_x2
-10 a3_z2
<= 0

a4_local_1: 
+0.7835900686782663 a4_x1
+1.2160581330374507 a4_x4
+1.2761774810224009 a4_x6
<= 112.08483752172415

a4_local_2: 
+1.1734836830357429 a4_x3
+0.93833273239640758 a4_x5
+0.85216353193173555 a4_x2
<= 134.44717167629724

a4_local_3: 
+1.1622859835192203 a4_x5
+0.79717754452400935 a4_x1
+1.2544257008607722 a4_x3
<= 181.42595913746115

a4_local_4: 
+1.3583610685933272 a4_x3
+1.1380527167455261 a4_x1
+0.73618128722988641 a4_x5
<= 167.55118976815913

a4_local_5: 
+0.89143083019680402 a4_x6
+0.91455986686477886 a4_x4
+1.1217920293145198 a4_x2
<= 153.57211145863786

a4_local_6: 
+1.3238509402629128 a4_x1
+0.97307570182124936 a4_x4
+0.7553720510266837 a4_x5
<= 125.69807457766225

a4_local_7: 
+1.3825046113227297 a4_x2
+1.1551206145270552 a4_x5
+0.72332489295875602 a4_x4
<= 128.15956426980591

a4_local_8: 
+1.0603434445624413 a4_x5
+0.80895181388735837 a4_x6
+1.2361675724473298 a4_x2
<= 179.83674765656605

a4_act_1: 
+0.10000000000000001 a4_x1
-10 a4_z1
<= 0

a4_act_2: 
+0.10000000000000001 a4_x2
-10 a4_z2
<= 0

coupling_1: 
+9.2595599601582608e-05 a1_x1
+0.0026477779923589221 a2_x1
+0.025371051020648291 a3_x1
+0.99958591419230325 a4_x1
+0.0094151637320658062 short_1
-0.0094151637320658062 surp_1
= 25.166050231580066

coupling_2: 
+9.2586213155736318e-05 a1_x2
+0.001988988356972872 a2_x2
+0.040476976171851163 a3_x2
+0.99913198916872548 a4_x2
+0.006816082923431617 short_2
-0.006816082923431617 surp_2
= 80.167864052667952

coupling_3: 
+9.9378552746270395e-05 a1_x3
+0.0020245425061284554 a2_x3
+0.052330594704083667 a3_x3
+0.99838530512152779 a4_x3
+0.015559285440777093 short_3
-0.015559285440777093 surp_3
= 40.774556334906599

bounds
  0 <= a1_x1 <= 100
  0 <= a1_x2 <= 100
  0 <= a1_x3 <= 100
  0 <= a1_x4 <= 100
  0 <= a1_x5 <= 100
  0 <= a1_x6 <= 100
  0 <= a2_x1 <= 100
  0 <= a2_x2 <= 100
  0 <= a2_x3 <= 100
  0 <= a2_x4 <= 100
  0 <= a2_x5 <= 100
  0 <= a2_x6 <= 100
  0 <= a3_x1 <= 100
  0 <= a3_x2 <= 100
  0 <= a3_x3 <= 100
  0 <= a3_x4 <= 100
  0 <= a3_x5 <= 100
  0 <= a3_x6 <= 100
  0 <= a4_x1 <= 100
  0 <= a4_x2 <= 100
  0 <= a4_x3 <= 100
  0 <= a4_x4 <= 100
  0 <= a4_x5 <= 100
  0 <= a4_x6 <= 100
  0 <= short_1 <= +inf
  0 <= surp_1 <= +inf
  0 <= short_2 <= +inf
  0 <= surp_2 <= +inf
  0 <= short_3 <= +inf
  0 <= surp_3 <= +inf
 0 <= a1_z1 <= 1
 0 <= a1_z2 <= 1
 0 <= a2_z1 <= 1
 0 <= a2_z2 <= 1
 0 <= a3_z1 <= 1
 0 <= a3_z2 <= 1
 0 <= a4_z1 <= 1
 0 <= a4_z2 <= 1

binary
  a1_z1
  a1_z2
  a2_z1
  a2_z2
  a3_z1
  a3_z2
  a4_z1
  a4_z2
end
