min
obj: 
  +7.7820756929973847 a1_x1
  +2.6204029212029933 a1_x2
  +1.0229393332967094 a1_x3
  +7.1910932224071349 a1_x4
  +4.2632745770435907 a1_x5
  +6.0246265469097295 a1_x6
  +42.771027111197313 a1_z1
  +28.114118371176183 a1_z2
  +1.0942907269569377 a2_x1
  +2.3925011221889392 a2_x2
  +1.8354708126815493 a2_x3
  +3.2680190161516656 a2_x4
  +8.5745129304172316 a2_x5
  +5.2855415708546367 a2_x6
  +40.375428510282923 a2_z1
  +37.679921062184903 a2_z2
  +8.2763747483341881 a3_x1
  +6.9098336189226917 a3_x2
  +7.224692972136415 a3_x3
  +2.7635056217757095 a3_x4
  +4.5804152664090756 a3_x5
  +5.5391766018428115 a3_x6
  +12.640130628939682 a3_z1
  +24.719908715545547 a3_z2
  +3.7933549198548668 a4_x1
  +7.8772143187643042 a4_x2
  +7.8222341244321543 a4_x3
  +1.2624357252124174 a4_x4
  +2.9341291076023293 a4_x5
  +4.8680356039416175 a4_x6
  +47.52172151037577 a4_z1
  +34.587285029007681 a4_z2
  +1000000 short_1
  +1000000 surp_1
  +1000000 short_2
  +1000000 surp_2
  +1000000 short_3
  +1000000 surp_3

s.t.

a1_local_1: 
+0.95481444815371719 a1_x4
+1.4670520101606459 a1_x6
+0.68163909191637817 a1_x3
<= 155.13401229239372

a1_local_2: 
+0.71963475570136226 a1_x6
+1.3895938072437752 a1_x2
+0.97420037318314245 a1_x4
<= 204.89764998789005

a1_local_3: 
+1.1633000613165916 a1_x2
+1.1665244502122574 a1_x5
+0.85724735543952202 a1_x4
<= 210.97803295142532

a1_local_4: 
+1.3559316972520228 a1_x2
+0.73750027529161966 a1_x1
+1.1545234604436827 a1_x3
<= 187.65403366586176

a1_local_5: 
+1.6177757801592965 a1_x3
+0.61813263139687613 a1_x2
+1.0568130285346164 a1_x6
<= 143.78767098743148

a1_local_6: 
+1.0322148212935391 a1_x4
+1.1999253139699957 a1_x5
+0.83338520186015919 a1_x2
<= 112.51439425005969

a1_local_7: 
+0.7512838092901406 a1_x1
+1.3673342509007429 a1_x5
+0.73135006991980311 a1_x3
<= 187.95769312466285

a1_local_8: 
+0.92785192085900003 a1_x1
+1.0585134982600268 a1_x5
+1.0777581826572125 a1_x4
<= 97.84001788857519

a1_act_1: 
+0.10000000000000001 a1_x1
-10 a1_z1
<= 0

a1_act_2: 
+0.10000000000000001 a1_x2
-10 a1_z2
<= 0

a2_local_1: 
+0.96681237961033706 a2_x2
+1.1164257192170761 a2_x3
+0.89571566006314962 a2_x4
<= 207.64422064588064

a2_local_2: 
+0.81365107293509686 a2_x1
+1.4168245273331916 a2_x4
+0.70580370448713425 a2_x5
<= 181.13372029620194

a2_local_3: 
+0.81206693121382045 a2_x5
+0.80785673412339298 a2_x2
+1.237843243437343 a2_x6
<= 96.155872040029905

a2_local_4: 
+0.69285574422466212 a2_x5
+0.96068947586547837 a2_x4
+1.4433018825860309 a2_x6
<= 140.50547961287535

a2_local_5: 
+0.9560929117545568 a2_x1
+1.2158725853464409 a2_x3
+0.82245459931565756 a2_x2
<= 201.6646645750447

a2_local_6: 
+1.1306515624270175 a2_x5
+0.9695178179904943 a2_x6
+0.8844457773121851 a2_x1
<= 89.870045651971751

a2_local_7: 
+1.0926949955493548 a2_x5
+0.91516846336177093 a2_x6
+0.91880279789158736 a2_x3
<= 167.08700390848446

a2_local_8: 
+0.95080818726687988 a2_x5
+1.0644818752845659 a2_x2
+0.93942416796215722 a2_x4
<= 105.57285381076377

a2_act_1: 
+0.10000000000000001 a2_x1
-10 a2_z1
<= 0

a2_act_2: 
+0.10000000000000001 a2_x2
-10 a2_z2
<= 0

a3_local_1: 
+1.2966254030874389 a3_x1
+1.2832863123614713 a3_x5
+0.77123276901629889 a3_x3
<= 187.72295671711134

a3_local_2: 
+1.0712366867270049 a3_x1
+1.053103465323227 a3_x3
+0.93350051617009389 a3_x5
<= 179.64194274741658

a3_local_3: 
+1.5237082992424524 a3_x5
+1.3065495409032344 a3_x2
+0.65629359667934717 a3_x4
<= 166.54719308023769

a3_local_4: 
+1.3755049623833697 a3_x6
+0.98307829076727848 a3_x3
+0.72700573778176469 a3_x4
<= 190.62357902605149

a3_local_5: 
+0.92457207616445081 a3_x2
+1.0815814426804435 a3_x4
+0.99077038187629907 a3_x1
<= 162.91886696417191

a3_local_6: 
+0.7131634761181842 a3_x6
+0.59106261104770386 a3_x4
+1.6918681393624668 a3_x5
<= 156.51896900339375

a3_local_7: 
+0.64630509300298711 a3_x6
+1.547256877326477 a3_x5
+0.72827656365187821 a3_x3
<= 154.92913101766192

a3_local_8: 
+1.4486150837281242 a3_x4
+1.4741849427334122 a3_x6
+0.67834094014405988 a3_x2
<= 219.73027982731443

a3_act_1: 
+0.10000000000000001 a3_x1
-10 a3_z1
<= 0

a3_act_2: 
+0.10000000000000001 a3_x2
-10 a3_z2
<= 0

a4_local_1: 
+0.67063518076601991 a4_x2
+1.4911236819663556 a4_x3
+1.1222589139376518 a4_x4
<= 180.96317765110572

a4_local_2: 
+1.0736735451062871 a4_x4
+0.77026570777014092 a4_x6
+1.298253303908494 a4_x1
<= 119.50879265831225

a4_local_3: 
+1.2919950909132234 a4_x3
+0.77399674892972548 a4_x2
+1.164002310172108 a4_x5
<= 209.07275699718923

a4_local_4: 
+0.98880498936821359 a4_x2
+1.1985636053515982 a4_x1
+0.8343320250464723 a4_x5
<= 116.74389641354139

a4_local_5: 
+1.1398545341782134 a4_x6
+1.5377741940402769 a4_x2
+0.65029053282045657 a4_x3
<= 213.20567654941246

a4_local_6: 
+0.70813553775724336 a4_x5
+1.4121590383207274 a4_x6
+0.91381062462241536 a4_x2
<= 122.2889612829774

a4_local_7: 
+1.1022737767982003 a4_x6
+1.1355353794836796 a4_x5
+0.88064186996506733 a4_x3
<= 146.24416803062749

a4_local_8: 
+0.87988340984292224 a4_x5
+1.1365142117846285 a4_x6
+1.0440234387397498 a4_x4
<= 99.224503724441789

a4_act_1: 
+0.10000000000000001 a4_x1
-10 a4_z1
<= 0

a4_act_2: 
+0.10000000000000001 a4_x2
-10 a4_z2
<= 0

coupling_1: 
+5.3659984178460885e-05 a1_x1
+0.001160447214211913 a2_x1
+0.044791276724151979 a3_x1
+0.99894261980434518 a4_x1
+0.007281289402325186 short_1
-0.007281289402325186 surp_1
= 67.789633804252887

coupling_2: 
+4.2523273280599531e-05 a1_x2
+0.0020528567707475739 a2_x2
+0.026864366549328896 a3_x2
+0.99956544091767152 a4_x2
+0.0084563320598918228 short_2
-0.0084563320598918228 surp_2
= 71.976685669563992

coupling_3: 
+0.00016136294489142825 a1_x3
+0.0035248671412710505 a2_x3
+0.079068512007979888 a3_x3
+0.9966900511595318 a4_x3
+0.013127482662152804 short_3
-0.013127482662152804 surp_3
= 55.288562970812229

bounds
  0 <= a1_x1 <= 100
  0 <= a1_x2 <= 100
  0 <= a1_x3 <= 100
  0 <= a1_x4 <= 100
  0 <= a1_x5 <= 100
  0 <= a1_x6 <= 100
  0 <= a2_x1 <= 100
  0 <= a2_x2 <= 100
  0 <= a2_x3 <= 100
  0 <= a2_x4 <= 100
  0 <= a2_x5 <= 100
  0 <= a2_x6 <= 100
  0 <= a3_x1 <= 100
  0 <= a3_x2 <= 100
  0 <= a3_x3 <= 100
  0 <= a3_x4 <= 100
  0 <= a3_x5 <= 100
  0 <= a3_x6 <= 100
  0 <= a4_x1 <= 100
  0 <= a4_x2 <= 100
  0 <= a4_x3 <= 100
  0 <= a4_x4 <= 100
  0 <= a4_x5 <= 100
  0 <= a4_x6 <= 100
  0 <= short_1 <= +inf
  0 <= surp_1 <= +inf
  0 <= short_2 <= +inf
  0 <= surp_2 <= +inf
  0 <= short_3 <= +inf
  0 <= surp_3 <= +inf
 0 <= a1_z1 <= 1
 0 <= a1_z2 <= 1
 0 <= a2_z1 <= 1
 0 <= a2_z2 <= 1
 0 <= a3_z1 <= 1
 0 <= a3_z2 <= 1
 0 <= a4_z1 <= 1
 0 <= a4_z2 <= 1

binary
  a1_z1
  a1_z2
  a2_z1
  a2_z2
  a3_z1
  a3_z2
  a4_z1
  a4_z2
end
