min
obj: 
  +9.9278906915658744 a1_x1
  +4.1029321056614965 a1_x2
  +3.3290118192963942 a1_x3
  +9.1017647242801925 a1_x4
  +1.0276781995025082 a1_x5
  +7.5015228430107515 a1_x6
  +48.476105885704612 a1_z1
  +46.462393702811802 a1_z2
  +6.9375805284658387 a2_x1
  +8.736124438174345 a2_x2
  +2.0422875685559534 a2_x3
  +7.9141637375248139 a2_x4
  +8.8510497644699591 a2_x5
  +5.3589026031734779 a2_x6
  +22.325512980558837 a2_z1
  +43.599104627831977 a2_z2
  +2.4447445858231625 a3_x1
  +8.7712175698219141 a3_x2
  +5.7628145052800139 a3_x3
  +8.5270938060320436 a3_x4
  +1.138926571582954 a3_x5
  +2.911442950069294 a3_x6
  +15.137864115812766 a3_z1
  +21.64888772902043 a3_z2
  +4.3135462509833289 a4_x1
  +3.737467766634015 a4_x2
  +6.3047039607963935 a4_x3
  +7.2324424815448989 a4_x4
  +3.5312943582825165 a4_x5
  +2.1943254476366931 a4_x6
  +13.983355852863056 a4_z1
  +25.767819676338174 a4_z2
  +1000000 short_1
  +1000000 surp_1
  +1000000 short_2
  +1000000 surp_2
  +1000000 short_3
  +1000000 surp_3

s.t.

a1_local_1: 
+1.2150186794697522 a1_x4
+1.1816463149053791 a1_x6
+0.82303261414582618 a1_x1
<= 128.3735455034824

a1_local_2: 
+1.0514811634811225 a1_x4
+0.91201026733257162 a1_x3
+1.0964788838669315 a1_x5
<= 154.3460762621153

a1_local_3: 
+0.75664890650966599 a1_x4
+0.94991445195648339 a1_x3
+1.3216169235119686 a1_x2
<= 162.94102728533696

a1_local_4: 
+1.071924801789937 a1_x4
+1.352167566116325 a1_x5
+0.73955331059462159 a1_x2
<= 207.25997348784543

a1_local_5: 
+1.5255472106778933 a1_x2
+0.65550249313860243 a1_x1
+1.3591827482845731 a1_x6
<= 178.36323294927729

a1_local_6: 
+0.70229148870958735 a1_x3
+1.4239101798562759 a1_x5
+1.1411645345041119 a1_x4
<= 223.83103243504124

a1_local_7: 
+0.72880026951819588 a1_x6
+0.81002640736533738 a1_x4
+1.3721180436185789 a1_x3
<= 97.55820581342779

a1_local_8: 
+1.3512753128595731 a1_x1
+0.74004164102117476 a1_x3
+1.2157268821184195 a1_x4
<= 201.1961277540868

a1_act_1: 
+0.10000000000000001 a1_x1
-10 a1_z1
<= 0

a1_act_2: 
+0.10000000000000001 a1_x2
-10 a1_z2
<= 0

a2_local_1: 
+0.76527659051235042 a2_x3
+0.73916055019772742 a2_x1
+1.3528860539601273 a2_x6
<= 171.85302778181688

a2_local_2: 
+0.74840880784559671 a2_x4
+1.3361681336683422 a2_x1
+1.1871135353521689 a2_x5
<= 115.0326374623608

a2_local_3: 
+0.60709627354040496 a2_x2
+1.4318996228979739 a2_x5
+1.6471852053518581 a2_x1
<= 190.27326391381482

a2_local_4: 
+1.0769540369010855 a2_x2
+1.0399443164295965 a2_x1
+0.92854473425577255 a2_x4
<= 169.61908749502484

a2_local_5: 
+0.85101975162979593 a2_x4
+1.142479344616053 a2_x5
+1.1750608585580893 a2_x2
<= 122.89661338770675

a2_local_6: 
+1.0678720859348678 a2_x1
+1.236400844556917 a2_x2
+0.80879918871162293 a2_x3
<= 203.36934612121797

a2_local_7: 
+0.86430641799258312 a2_x1
+0.97576147649340239 a2_x2
+1.1569970778680265 a2_x4
<= 191.33590579877421

a2_local_8: 
+0.65568429538975681 a2_x6
+1.5251242206519104 a2_x3
+1.2665132985632825 a2_x5
<= 155.20640027269212

a2_act_1: 
+0.10000000000000001 a2_x1
-10 a2_z1
<= 0

a2_act_2: 
+0.10000000000000001 a2_x2
-10 a2_z2
<= 0

a3_local_1: 
+1.5945680555842408 a3_x4
+0.61429344521114027 a3_x6
+1.6278864894224736 a3_x3
<= 164.40038133328147

a3_local_2: 
+1.0701667257215925 a3_x6
+1.0555106601991862 a3_x4
+0.93443383723757589 a3_x3
<= 122.10131017064741

a3_local_3: 
+1.1695803001653837 a3_x2
+0.85500756113846643 a3_x1
+0.93444786978920158 a3_x4
<= 136.270181332471

a3_local_4: 
+0.73418617648838647 a3_x5
+0.78901750512116542 a3_x3
+1.362052340433596 a3_x2
<= 167.83304290196264

a3_local_5: 
+0.61735490789970071 a3_x1
+0.8383634473377426 a3_x2
+1.6198138011117362 a3_x5
<= 107.0886594930045

a3_local_6: 
+1.1396632365158166 a3_x6
+0.97547903340670139 a3_x4
+0.87745218759289334 a3_x2
<= 175.53061900209616

a3_local_7: 
+1.3962420443705423 a3_x2
+0.85747778462066959 a3_x3
+0.7162081990238468 a3_x5
<= 155.36918079975092

a3_local_8: 
+0.64367469071505246 a3_x5
+0.86223092083818242 a3_x2
+1.55357980424725 a3_x3
<= 174.37793126146966

a3_act_1: 
+0.10000000000000001 a3_x1
-10 a3_z1
<= 0

a3_act_2: 
+0.10000000000000001 a3_x2
-10 a3_z2
<= 0

a4_local_1: 
+0.7032452915378874 a4_x1
+1.4219789482175649 a4_x4
+1.074839319099776 a4_x6
<= 137.38206198648376

a4_local_2: 
+1.1200986268678288 a4_x6
+1.1184610386543066 a4_x3
+0.8927785250450091 a4_x4
<= 209.44773083947234

a4_local_3: 
+0.80718506019082659 a4_x1
+1.5283503300854906 a4_x2
+0.65430024799619313 a4_x5
<= 105.25152796402332

a4_local_4: 
+1.0958079144291242 a4_x4
+0.91256869642245975 a4_x5
+1.0451802288454286 a4_x1
<= 111.20350858209646

a4_local_5: 
+0.67531843618071796 a4_x4
+1.4807829113262885 a4_x6
+1.0165521025378834 a4_x2
<= 216.06201268263754

a4_local_6: 
+1.2173894089617721 a4_x6
+1.1197911925884614 a4_x2
+0.82142985033263227 a4_x3
<= 159.54991379566493

a4_local_7: 
+1.4965610970058059 a4_x6
+1.3153249634514554 a4_x3
+0.66819858006513477 a4_x4
<= 216.63157024739053

a4_local_8: 
+0.94803023231847239 a4_x2
+0.93191586716542862 a4_x4
+1.0730582397332284 a4_x3
<= 134.27362408230894

a4_act_1: 
+0.10000000000000001 a4_x1
-10 a4_z1
<= 0

a4_act_2: 
+0.10000000000000001 a4_x2
-10 a4_z2
<= 0

coupling_1: 
+0.00024845053411702155 a1_x1
+0.003124379538371387 a2_x1
+0.11457332824529838 a3_x1
+0.99305260641036219 a4_x1
+0.018836797514622743 short_1
-0.018836797514622743 surp_1
= 49.414443615798902

coupling_2: 
+9.0502811407125065e-05 a1_x2
+0.0032662918953800064 a2_x2
+0.046067753326066503 a3_x2
+0.99873880261145376 a4_x2
+0.013926403129012456 short_2
-0.013926403129012456 surp_2
= 49.614787182599763

coupling_3: 
+0.00013834924500797022 a1_x3
+0.00141917093854662 a2_x3
+0.045122163719615534 a3_x3
+0.99882816707159872 a4_x3
+0.012333892714473806 short_3
-0.012333892714473806 surp_3
= 70.553842985774097

bounds
  0 <= a1_x1 <= 100
  0 <= a1_x2 <= 100
  0 <= a1_x3 <= 100
  0 <= a1_x4 <= 100
  0 <= a1_x5 <= 100
  0 <= a1_x6 <= 100
  0 <= a2_x1 <= 100
  0 <= a2_x2 <= 100
  0 <= a2_x3 <= 100
  0 <= a2_x4 <= 100
  0 <= a2_x5 <= 100
  0 <= a2_x6 <= 100
  0 <= a3_x1 <= 100
  0 <= a3_x2 <= 100
  0 <= a3_x3 <= 100
  0 <= a3_x4 <= 100
  0 <= a3_x5 <= 100
  0 <= a3_x6 <= 100
  0 <= a4_x1 <= 100
  0 <= a4_x2 <= 100
  0 <= a4_x3 <= 100
  0 <= a4_x4 <= 100
  0 <= a4_x5 <= 100
  0 <= a4_x6 <= 100
  0 <= short_1 <= +inf
  0 <= surp_1 <= +inf
  0 <= short_2 <= +inf
  0 <= surp_2 <= +inf
  0 <= short_3 <= +inf
  0 <= surp_3 <= +inf
 0 <= a1_z1 <= 1
 0 <= a1_z2 <= 1
 0 <= a2_z1 <= 1
 0 <= a2_z2 <= 1
 0 <= a3_z1 <= 1
 0 <= a3_z2 <= 1
 0 <= a4_z1 <= 1
 0 <= a4_z2 <= 1

binary
  a1_z1
  a1_z2
  a2_z1
  a2_z2
  a3_z1
  a3_z2
  a4_z1
  a4_z2
end
