min
obj: 
  +4.0092711480649195 a1_x1
  +1.9679731558453351 a1_x2
  +5.1245063990813229 a1_x3
  +5.3289660462088069 a1_x4
  +7.7326436197250805 a1_x5
  +5.1395422066191525 a1_x6
  +7.4601303692563201 a1_z1
  +49.872667351617643 a1_z2
  +4.2007388618696755 a2_x1
  +7.5341317217871078 a2_x2
  +3.4571921689270946 a2_x3
  +4.7657113746642423 a2_x4
  +9.3861788498988687 a2_x5
  +1.7288685547688603 a2_x6
  +29.540804107775944 a2_z1
  +23.537170412908246 a2_z2
  +8.2162616662184611 a3_x1
  +4.9087522557742478 a3_x2
  +9.9244206014586318 a3_x3
  +6.7861238771840311 a3_x4
  +8.6736711514090779 a3_x5
  +9.6443958243312533 a3_x6
  +44.884441558292828 a3_z1
  +12.682768889922908 a3_z2
  +8.6978778464740216 a4_x1
  +4.1276908151999692 a4_x2
  +7.0223714932865171 a4_x3
  +1.0610858298808366 a4_x4
  +7.0927412879620659 a4_x5
  +7.9355051703127861 a4_x6
  +37.985653916409667 a4_z1
  +17.373101516361629 a4_z2
  +1000000 short_1
  +1000000 surp_1
  +1000000 short_2
  +1000000 surp_2
  +1000000 short_3
  +1000000 surp_3

s.t.

a1_local_1: 
+1.5342020906071256 a1_x3
+0.65180461304434323 a1_x6
+1.037068538077017 a1_x4
<= 121.83398493957588

a1_local_2: 
+1.1127864586592255 a1_x2
+1.3435150093642723 a1_x5
+0.74431621011303961 a1_x3
<= 99.996033310445796

a1_local_3: 
+1.2850624035155882 a1_x4
+0.77817232631214361 a1_x2
+1.048626134996022 a1_x5
<= 174.39566554251988

a1_local_4: 
+1.4453356761077847 a1_x3
+0.69188079733349495 a1_x6
+0.86628748776881193 a1_x5
<= 175.24498812792299

a1_local_5: 
+0.65595763508653182 a1_x1
+1.5244886963897952 a1_x6
+1.4636198825631901 a1_x3
<= 253.37658705215716

a1_local_6: 
+1.4572489264575244 a1_x1
+1.4505932406887987 a1_x3
+0.68622455768825563 a1_x2
<= 250.18711513563522

a1_local_7: 
+0.66069759356104607 a1_x1
+1.5135517515814951 a1_x5
+0.91044694277086735 a1_x4
<= 120.70295413703423

a1_local_8: 
+1.2550546428624703 a1_x3
+0.79677805718422445 a1_x1
+0.97229321217293219 a1_x6
<= 108.76778960936667

a1_act_1: 
+0.10000000000000001 a1_x1
-10 a1_z1
<= 0

a1_act_2: 
+0.10000000000000001 a1_x2
-10 a1_z2
<= 0

a2_local_1: 
+0.952379666404509 a2_x6
+1.0500014177909434 a2_x5
+1.0481277126574351 a2_x3
<= 169.09502598158272

a2_local_2: 
+1.2036805221840323 a2_x4
+1.3058411628274291 a2_x5
+0.76578992029534709 a2_x3
<= 101.15459810589849

a2_local_3: 
+1.1184100288534704 a2_x1
+0.89709597059702362 a2_x5
+0.89412646006504648 a2_x6
<= 117.09210539019435

a2_local_4: 
+0.90666536941904252 a2_x1
+1.2510491916077482 a2_x4
+0.79932908050952034 a2_x5
<= 189.93990861834058

a2_local_5: 
+0.98905561698035471 a2_x5
+1.1631249513075979 a2_x1
+0.85975285705614801 a2_x3
<= 199.79752018033119

a2_local_6: 
+0.81941375927154747 a2_x6
+0.93798102820212959 a2_x2
+1.2203846819572477 a2_x4
<= 136.34925634893537

a2_local_7: 
+1.0561062096731628 a2_x6
+0.94687446285300558 a2_x4
+0.94897629678036366 a2_x3
<= 162.89717282780779

a2_local_8: 
+1.3222288064857903 a2_x3
+1.06598415727492 a2_x5
+0.75629875487117271 a2_x4
<= 122.29730658392012

a2_act_1: 
+0.10000000000000001 a2_x1
-10 a2_z1
<= 0

a2_act_2: 
+0.10000000000000001 a2_x2
-10 a2_z2
<= 0

a3_local_1: 
+1.2171056400547078 a3_x1
+0.93316711007291298 a3_x2
+0.82162136719295031 a3_x5
<= 109.27943141639859

a3_local_2: 
+0.81824039485710365 a3_x6
+1.194199452226804 a3_x2
+1.2221347250579564 a3_x3
<= 201.75420785209312

a3_local_3: 
+1.6001406872121191 a3_x1
+0.62494504888959002 a3_x6
+1.2408150540206375 a3_x3
<= 124.98502416534014

a3_local_4: 
+1.0882002815035219 a3_x1
+0.72139684909229052 a3_x2
+1.3861995672122309 a3_x3
<= 105.36195632304533

a3_local_5: 
+1.2382143136559542 a3_x6
+0.80761463421255197 a3_x5
+1.0784151054942492 a3_x3
<= 209.70372275543346

a3_local_6: 
+0.69598732747975822 a3_x5
+1.4368077700798134 a3_x3
+1.1035551115838447 a3_x4
<= 128.06658536367246

a3_local_7: 
+0.91130667672903876 a3_x1
+0.70396555294661345 a3_x5
+1.4205240523691316 a3_x2
<= 157.24552080336105

a3_local_8: 
+0.86788193626099075 a3_x1
+0.81069305837257788 a3_x3
+1.233512473891716 a3_x6
<= 179.25845410838815

a3_act_1: 
+0.10000000000000001 a3_x1
-10 a3_z1
<= 0

a3_act_2: 
+0.10000000000000001 a3_x2
-10 a3_z2
<= 0

a4_local_1: 
+0.87153560648869477 a4_x3
+1.1474000517648062 a4_x5
+1.1125015849824369 a4_x2
<= 178.95403361872013

a4_local_2: 
+1.1797500785450012 a4_x6
+0.84763715483987179 a4_x4
+0.86915693443033981 a4_x5
<= 114.58289428619065

a4_local_3: 
+1.0942402044502175 a4_x6
+0.91387612695370946 a4_x3
+0.95683690475189265 a4_x2
<= 195.71115316432099

a4_local_4: 
+0.72176562294919278 a4_x3
+0.71620093032760879 a4_x6
+1.3962562147784061 a4_x5
<= 104.95433676534132

a4_local_5: 
+0.79051140347389837 a4_x1
+1.3589296617212792 a4_x6
+0.73587325979282603 a4_x3
<= 113.66169983994571

a4_local_6: 
+0.83436693204328749 a4_x6
+0.9419893083225972 a4_x3
+1.198513461638625 a4_x4
<= 173.74920279111555

a4_local_7: 
+0.99167645099652602 a4_x6
+0.97330624719013004 a4_x4
+1.0274258517161821 a4_x5
<= 99.315702386605224

a4_local_8: 
+1.1794754987999088 a4_x2
+1.2086339014672749 a4_x4
+0.82738039929709539 a4_x1
<= 99.234546196623612

a4_act_1: 
+0.10000000000000001 a4_x1
-10 a4_z1
<= 0

a4_act_2: 
+0.10000000000000001 a4_x2
-10 a4_z2
<= 0

coupling_1: 
+4.919915368729572e-05 a1_x1
+0.0024754786230910372 a2_x1
+0.046685112904795656 a3_x1
+0.9988394998896889 a4_x1
+0.0081860637125597113 short_1
-0.0081860637125597113 surp_1
= 77.782593965702802

coupling_2: 
+9.1871622265821365e-05 a1_x2
+0.0025472562629628407 a2_x2
+0.055909053980913892 a3_x2
+0.99821950801054826 a4_x2
+0.014585858824110145 short_2
-0.014585858824110145 surp_2
= 26.033887429023963

coupling_3: 
+8.5177307583953886e-05 a1_x3
+0.0017113556633309808 a2_x3
+0.031952951199819037 a3_x3
+0.99939862787005695 a4_x3
+0.0094460448783981153 short_3
-0.0094460448783981153 surp_3
= 51.338182964041565

bounds
  0 <= a1_x1 <= 100
  0 <= a1_x2 <= 100
  0 <= a1_x3 <= 100
  0 <= a1_x4 <= 100
  0 <= a1_x5 <= 100
  0 <= a1_x6 <= 100
  0 <= a2_x1 <= 100
  0 <= a2_x2 <= 100
  0 <= a2_x3 <= 100
  0 <= a2_x4 <= 100
  0 <= a2_x5 <= 100
  0 <= a2_x6 <= 100
  0 <= a3_x1 <= 100
  0 <= a3_x2 <= 100
  0 <= a3_x3 <= 100
  0 <= a3_x4 <= 100
  0 <= a3_x5 <= 100
  0 <= a3_x6 <= 100
  0 <= a4_x1 <= 100
  0 <= a4_x2 <= 100
  0 <= a4_x3 <= 100
  0 <= a4_x4 <= 100
  0 <= a4_x5 <= 100
  0 <= a4_x6 <= 100
  0 <= short_1 <= +inf
  0 <= surp_1 <= +inf
  0 <= short_2 <= +inf
  0 <= surp_2 <= +inf
  0 <= short_3 <= +inf
  0 <= surp_3 <= +inf
 0 <= a1_z1 <= 1
 0 <= a1_z2 <= 1
 0 <= a2_z1 <= 1
 0 <= a2_z2 <= 1
 0 <= a3_z1 <= 1
 0 <= a3_z2 <= 1
 0 <= a4_z1 <= 1
 0 <= a4_z2 <= 1

binary
  a1_z1
  a1_z2
  a2_z1
  a2_z2
  a3_z1
  a3_z2
  a4_z1
  a4_z2
end
