min
obj: 
  +1.5770974257819579 a1_x1
  +5.2436233239928463 a1_x2
  +8.0695966456126804 a1_x3
  +3.4781022885686368 a1_x4
  +9.412058306823841 a1_x5
  +8.3165688602967034 a1_x6
  +34.001400959855452 a1_z1
  +10.410503430419741 a1_z2
  +7.418259317223229 a2_x1
  +8.2806614137575387 a2_x2
  +6.0649431138157652 a2_x3
  +8.6541766135972331 a2_x4
  +4.3292904508020413 a2_x5
  +7.270244042047584 a2_x6
  +22.659258388720176 a2_z1
  +14.3292458598275 a2_z2
  +6.5706299309399387 a3_x1
  +3.4667216339522406 a3_x2
  +8.7306868906336064 a3_x3
  +5.7873163324378032 a3_x4
  +5.6599350909197002 a3_x5
  +4.8869920304691288 a3_x6
  +21.678337067529544 a3_z1
  +5.900585939248967 a3_z2
  +6.0616245234979713 a4_x1
  +4.5273516228701549 a4_x2
  +9.793261850532609 a4_x3
  +5.1742521510836195 a4_x4
  +5.4489998276629183 a4_x5
  +4.6550473123840108 a4_x6
  +25.907898635489875 a4_z1
  +20.492987297835271 a4_z2
  +1000000 short_1
  +1000000 surp_1
  +1000000 short_2
  +1000000 surp_2
  +1000000 short_3
  +1000000 surp_3

s.t.

a1_local_1: 
+0.013596352847283126 a1_x1
+0.013899837350269163 a1_x6
+0.008477497689183433 a1_x5
<= 1.8923278198867663

a1_local_2: 
+0.0068309729952000598 a1_x5
+0.0090677427658082 a1_x2
+0.0050009063877707828 a1_x4
<= 1.3891990291781158

a1_local_3: 
+0.0095733733688663763 a1_x4
+0.010315489260569351 a1_x2
+0.0071461148554972462 a1_x6
<= 1.3738424291027582

a1_local_4: 
+0.0088454130087827661 a1_x3
+0.0073758039142452119 a1_x4
+0.014156802199848759 a1_x1
<= 2.0968324870626205

a1_local_5: 
+0.0069880301739105033 a1_x4
+0.010382173348933012 a1_x6
+0.01367313182647463 a1_x3
<= 2.1165634876039383

a1_local_6: 
+0.010902814260508551 a1_x2
+0.0081728509743204981 a1_x4
+0.00594379314738457 a1_x3
<= 1.1094097830047918

a1_local_7: 
+0.0077255037158126521 a1_x2
+0.0063596028887263657 a1_x4
+0.014513754083666612 a1_x3
<= 1.1147067851790111

a1_local_8: 
+0.0089489294982925197 a1_x6
+0.011579374288391541 a1_x4
+0.014877492569468567 a1_x3
<= 1.8190154639248799

a1_act_1: 
+1 a1_x1
-100 a1_z1
<= 0

a1_act_2: 
+1 a1_x2
-100 a1_z2
<= 0

a2_local_1: 
+0.16519974473781238 a2_x1
+0.1554977348418006 a2_x3
+0.28614973564456536 a2_x6
<= 35.28881389811739

a2_local_2: 
+0.13585586133385183 a2_x2
+0.30794502961675574 a2_x3
+0.23277392761240767 a2_x5
<= 25.758628267012774

a2_local_3: 
+0.27193773508355984 a2_x6
+0.2719578648811885 a2_x5
+0.24539620759546835 a2_x1
<= 40.257203452794634

a2_local_4: 
+0.31234796823400807 a2_x6
+0.12919267122959416 a2_x4
+0.29067584955044695 a2_x2
<= 39.345313501510574

a2_local_5: 
+0.18613750055171757 a2_x1
+0.15631377962156742 a2_x2
+0.22345047144837188 a2_x3
<= 33.995625571044684

a2_local_6: 
+0.28723513179138049 a2_x4
+0.15398930945176681 a2_x6
+0.18203223809216323 a2_x1
<= 30.159441420056684

a2_local_7: 
+0.15802026462503507 a2_x5
+0.24136644458441386 a2_x1
+0.15657609303068945 a2_x6
<= 36.82879795503893

a2_local_8: 
+0.1571292539672173 a2_x1
+0.18134795039596788 a2_x2
+0.2213302283506178 a2_x6
<= 22.713623085255861

a2_act_1: 
+1 a2_x1
-100 a2_z1
<= 0

a2_act_2: 
+1 a2_x2
-100 a2_z2
<= 0

a3_local_1: 
+4.9526144262496423 a3_x2
+5.7012028663511325 a3_x4
+3.9053704974037542 a3_x6
<= 535.91154943037304

a3_local_2: 
+5.6859787090240372 a3_x2
+2.5768140377256161 a3_x4
+2.3780187797037864 a3_x6
<= 664.45551293350491

a3_local_3: 
+4.3727197881052993 a3_x6
+6.700427782785102 a3_x3
+5.1406544243299477 a3_x2
<= 1006.9429772730475

a3_local_4: 
+6.4887836251117506 a3_x3
+6.7236444549621748 a3_x2
+3.0186971459001173 a3_x5
<= 798.61131121114306

a3_local_5: 
+5.846718607383421 a3_x4
+5.2868003454581851 a3_x2
+2.7345894389474683 a3_x6
<= 462.99378434659627

a3_local_6: 
+4.5168423686471773 a3_x3
+6.6064011107229739 a3_x5
+6.4271910205536287 a3_x1
<= 879.84072818288587

a3_local_7: 
+4.0340163803763174 a3_x2
+6.4339383247955144 a3_x3
+3.9063234880689381 a3_x5
<= 541.00202231677019

a3_local_8: 
+3.8291273098781646 a3_x2
+3.1459812237646929 a3_x5
+5.1551721839880846 a3_x3
<= 596.07843173081369

a3_act_1: 
+1 a3_x1
-100 a3_z1
<= 0

a3_act_2: 
+1 a3_x2
-100 a3_z2
<= 0

a4_local_1: 
+54.958064319463361 a4_x4
+141.40868601021492 a4_x5
+74.029898216289297 a4_x1
<= 10602.08871311521

a4_local_2: 
+66.404099881629648 a4_x6
+130.68785430691463 a4_x4
+69.913069661309976 a4_x1
<= 16826.827367933642

a4_local_3: 
+110.70484916385777 a4_x1
+87.042591759120839 a4_x3
+86.530039461971526 a4_x4
<= 17469.469619041647

a4_local_4: 
+114.24015401583041 a4_x3
+112.88921474436341 a4_x6
+102.08682802230183 a4_x5
<= 22215.413767490554

a4_local_5: 
+149.73328683873206 a4_x4
+121.86004115751996 a4_x5
+69.16035168262178 a4_x6
<= 16621.949066427191

a4_local_6: 
+89.233748435442649 a4_x5
+121.25653890802934 a4_x3
+122.5695822995239 a4_x2
<= 19267.281048121164

a4_local_7: 
+68.386147291638892 a4_x6
+52.865619798879415 a4_x3
+128.35579708471337 a4_x4
<= 8066.871974538798

a4_local_8: 
+86.558493735763165 a4_x6
+115.45036559333455 a4_x4
+136.37189998905586 a4_x1
<= 13945.880254828491

a4_act_1: 
+1 a4_x1
-100 a4_z1
<= 0

a4_act_2: 
+1 a4_x2
-100 a4_z2
<= 0

coupling_1: 
+7.8761603989975615e-05 a1_x1
+0.0013979277596339974 a2_x1
+0.02185679100845983 a3_x1
+0.702570358047234 a4_x1
+0.0062588407602889359 short_1
-0.0062588407602889359 surp_1
= 51.194166340853876

coupling_2: 
+0.095137825492814354 a1_x2
+1.7691960861160776 a2_x2
+57.501120951080289 a3_x2
+1272.4535243832865 a4_x2
+10.780783071140641 short_2
-10.780783071140641 surp_2
= 89555.917931160613

coupling_3: 
+0.20060486540454797 a1_x3
+4.8248940829633415 a2_x3
+83.045398225064758 a3_x3
+2466.294802834766 a4_x3
+24.253445585937623 short_3
-24.253445585937623 surp_3
= 168031.0900370655

bounds
  0 <= a1_x1 <= 100
  0 <= a1_x2 <= 100
  0 <= a1_x3 <= 100
  0 <= a1_x4 <= 100
  0 <= a1_x5 <= 100
  0 <= a1_x6 <= 100
  0 <= a2_x1 <= 100
  0 <= a2_x2 <= 100
  0 <= a2_x3 <= 100
  0 <= a2_x4 <= 100
  0 <= a2_x5 <= 100
  0 <= a2_x6 <= 100
  0 <= a3_x1 <= 100
  0 <= a3_x2 <= 100
  0 <= a3_x3 <= 100
  0 <= a3_x4 <= 100
  0 <= a3_x5 <= 100
  0 <= a3_x6 <= 100
  0 <= a4_x1 <= 100
  0 <= a4_x2 <= 100
  0 <= a4_x3 <= 100
  0 <= a4_x4 <= 100
  0 <= a4_x5 <= 100
  0 <= a4_x6 <= 100
  0 <= short_1 <= +inf
  0 <= surp_1 <= +inf
  0 <= short_2 <= +inf
  0 <= surp_2 <= +inf
  0 <= short_3 <= +inf
  0 <= surp_3 <= +inf
 0 <= a1_z1 <= 1
 0 <= a1_z2 <= 1
 0 <= a2_z1 <= 1
 0 <= a2_z2 <= 1
 0 <= a3_z1 <= 1
 0 <= a3_z2 <= 1
 0 <= a4_z1 <= 1
 0 <= a4_z2 <= 1

binary
  a1_z1
  a1_z2
  a2_z1
  a2_z2
  a3_z1
  a3_z2
  a4_z1
  a4_z2
end
