min
obj: 
  +4.0092711480649195 a1_x1
  +1.9679731558453351 a1_x2
  +5.1245063990813229 a1_x3
  +5.3289660462088069 a1_x4
  +7.7326436197250805 a1_x5
  +5.1395422066191525 a1_x6
  +7.4601303692563201 a1_z1
  +49.872667351617643 a1_z2
  +4.2007388618696755 a2_x1
  +7.5341317217871078 a2_x2
  +3.4571921689270946 a2_x3
  +4.7657113746642423 a2_x4
  +9.3861788498988687 a2_x5
  +1.7288685547688603 a2_x6
  +29.540804107775944 a2_z1
  +23.537170412908246 a2_z2
  +8.2162616662184611 a3_x1
  +4.9087522557742478 a3_x2
  +9.9244206014586318 a3_x3
  +6.7861238771840311 a3_x4
  +8.6736711514090779 a3_x5
  +9.6443958243312533 a3_x6
  +44.884441558292828 a3_z1
  +12.682768889922908 a3_z2
  +8.6978778464740216 a4_x1
  +4.1276908151999692 a4_x2
  +7.0223714932865171 a4_x3
  +1.0610858298808366 a4_x4
  +7.0927412879620659 a4_x5
  +7.9355051703127861 a4_x6
  +37.985653916409667 a4_z1
  +17.373101516361629 a4_z2
  +1000000 short_1
  +1000000 surp_1
  +1000000 short_2
  +1000000 surp_2
  +1000000 short_3
  +1000000 surp_3

s.t.

a1_local_1: 
+0.013463297193691534 a1_x3
+0.0057198717635448017 a1_x6
+0.009100731920416558 a1_x4
<= 1.0691467294795187

a1_local_2: 
+0.011360950830885895 a1_x2
+0.013716565153331863 a1_x5
+0.0075990679073451471 a1_x3
<= 1.0209056813042163

a1_local_3: 
+0.0083410003067604845 a1_x4
+0.0050509108310422806 a1_x2
+0.0068063549985981535 a1_x5
<= 1.131956156999353

a1_local_4: 
+0.014002056070224245 a1_x3
+0.0067027707669014861 a1_x6
+0.0083923798306408341 a1_x5
<= 1.6977302853278291

a1_local_5: 
+0.0060010966400185538 a1_x1
+0.013946943376067588 a1_x6
+0.013390078702804705 a1_x3
<= 2.3180420562030419

a1_local_6: 
+0.013463490246850496 a1_x1
+0.013401998514857136 a1_x3
+0.0063400133442159867 a1_x2
<= 2.3114731624504432

a1_local_7: 
+0.0062975314302053196 a1_x1
+0.014426630003982435 a1_x5
+0.0086780522488827862 a1_x4
<= 1.1504970727979063

a1_local_8: 
+0.013070260743489708 a1_x3
+0.0082977239447813832 a1_x1
+0.010125555787149859 a1_x6
<= 1.1327183073440377

a1_act_1: 
+1 a1_x1
-100 a1_z1
<= 0

a1_act_2: 
+1 a1_x2
-100 a1_z2
<= 0

a2_local_1: 
+0.24537258450035124 a2_x6
+0.27052400497488932 a2_x5
+0.27004126065829109 a2_x3
<= 43.565906554783787

a2_local_2: 
+0.24133503768795897 a2_x4
+0.26181799940870254 a2_x5
+0.15353902955927415 a2_x3
<= 20.281252621669445

a2_local_3: 
+0.32139945820190752 a2_x1
+0.25780004780587773 a2_x5
+0.256946694338473 a2_x6
<= 33.648964388050643

a2_local_4: 
+0.15085248796495773 a2_x1
+0.20815163949793866 a2_x4
+0.13299369818753179 a2_x5
<= 31.602517031474484

a2_local_5: 
+0.17860060978129594 a2_x5
+0.21003351276605031 a2_x1
+0.15525151659341857 a2_x3
<= 36.078819354914707

a2_local_6: 
+0.19122208559643558 a2_x6
+0.21889147751454935 a2_x2
+0.28479446613303988 a2_x4
<= 31.819076594155732

a2_local_7: 
+0.23673768898669176 a2_x6
+0.21225220535887915 a2_x4
+0.21272335428503739 a2_x3
<= 36.515172323108914

a2_local_8: 
+0.23763051977665606 a2_x3
+0.19157831694815841 a2_x5
+0.13592175979294546 a2_x4
<= 21.979231119658955

a2_act_1: 
+1 a2_x1
-100 a2_z1
<= 0

a2_act_2: 
+1 a2_x2
-100 a2_z2
<= 0

a3_local_1: 
+6.5766466480651706 a3_x1
+5.0423809935428672 a3_x2
+4.4396420760036541 a3_x5
<= 590.49287315341087

a3_local_2: 
+4.484541886168552 a3_x6
+6.5450660925703978 a3_x2
+6.6981713436680632 a3_x3
<= 1105.7571851869723

a3_local_3: 
+6.0663547049942945 a3_x1
+2.3692531337975349 a3_x6
+4.7041015212858062 a3_x3
<= 473.8355167508638

a3_local_4: 
+5.3709353193418679 a3_x1
+3.5605355759496549 a3_x2
+6.8417444304552744 a3_x3
<= 520.02582810264414

a3_local_5: 
+6.2559581144339447 a3_x6
+4.0803948625984461 a3_x5
+5.4485880639072066 a3_x3
<= 1059.5077859545559

a3_local_6: 
+2.4188773060674409 a3_x5
+4.9935703869960255 a3_x3
+3.8353635332282954 a3_x4
<= 445.09051353488246

a3_local_7: 
+3.3295115435576412 a3_x1
+2.5719787802011176 a3_x5
+5.1899666172100067 a3_x2
<= 574.50558638142468

a3_local_8: 
+4.4705215520328538 a3_x1
+4.1759375764310835 a3_x3
+6.3539104443072167 a3_x6
<= 923.37304072503434

a3_act_1: 
+1 a3_x1
-100 a3_z1
<= 0

a3_act_2: 
+1 a3_x2
-100 a3_z2
<= 0

a4_local_1: 
+106.24662179156226 a4_x3
+139.87653336921429 a4_x5
+135.62215274067034 a4_x2
<= 21815.817261402168

a4_local_2: 
+138.85905477343903 a4_x6
+99.768668171715717 a4_x4
+102.30159129434058 a4_x5
<= 13486.646606888449

a4_local_3: 
+89.35872128409963 a4_x6
+74.629685314550358 a4_x3
+78.137982810660716 a4_x2
<= 15982.321172879125

a4_local_4: 
+76.836115453843121 a4_x3
+76.243721813661011 a4_x6
+148.63953104817179 a4_x5
<= 11172.994779291346

a4_local_5: 
+77.483512694042972 a4_x1
+133.19813380499696 a4_x6
+72.128048774247546 a4_x3
<= 11140.772572885127

a4_local_6: 
+63.803244202547745 a4_x6
+72.033024760355175 a4_x3
+91.649182315632288 a4_x4
<= 13286.435967124831

a4_local_7: 
+123.97093788335916 a4_x6
+121.67445157202357 a4_x4
+128.44002327056404 a4_x5
<= 12415.602648464173

a4_local_8: 
+144.39534246687865 a4_x2
+147.96501181840432 a4_x4
+101.29068066987821 a4_x1
<= 12148.625636722607

a4_act_1: 
+1 a4_x1
-100 a4_z1
<= 0

a4_act_2: 
+1 a4_x2
-100 a4_z2
<= 0

coupling_1: 
+0.0011639484373601149 a1_x1
+0.058564614614685997 a2_x1
+1.1044715232072977 a3_x1
+23.630440524637923 a4_x1
+0.19366503999081172 short_1
-0.19366503999081172 surp_1
= 1840.1724809257064

coupling_2: 
+2.217538628049478 a1_x2
+61.484047188339453 a2_x2
+1349.49708955454 a3_x2
+24094.385879908965 a4_x2
+352.06415831163196 short_2
-352.06415831163196 surp_2
= 628389.3719119603

coupling_3: 
+0.0073657455720324925 a1_x3
+0.14799024243550485 a2_x3
+2.7631456721200136 a3_x3
+86.423441016536444 a4_x3
+0.81685093377368523 short_3
-0.81685093377368523 surp_3
= 4439.4922141777079

bounds
  0 <= a1_x1 <= 100
  0 <= a1_x2 <= 100
  0 <= a1_x3 <= 100
  0 <= a1_x4 <= 100
  0 <= a1_x5 <= 100
  0 <= a1_x6 <= 100
  0 <= a2_x1 <= 100
  0 <= a2_x2 <= 100
  0 <= a2_x3 <= 100
  0 <= a2_x4 <= 100
  0 <= a2_x5 <= 100
  0 <= a2_x6 <= 100
  0 <= a3_x1 <= 100
  0 <= a3_x2 <= 100
  0 <= a3_x3 <= 100
  0 <= a3_x4 <= 100
  0 <= a3_x5 <= 100
  0 <= a3_x6 <= 100
  0 <= a4_x1 <= 100
  0 <= a4_x2 <= 100
  0 <= a4_x3 <= 100
  0 <= a4_x4 <= 100
  0 <= a4_x5 <= 100
  0 <= a4_x6 <= 100
  0 <= short_1 <= +inf
  0 <= surp_1 <= +inf
  0 <= short_2 <= +inf
  0 <= surp_2 <= +inf
  0 <= short_3 <= +inf
  0 <= surp_3 <= +inf
 0 <= a1_z1 <= 1
 0 <= a1_z2 <= 1
 0 <= a2_z1 <= 1
 0 <= a2_z2 <= 1
 0 <= a3_z1 <= 1
 0 <= a3_z2 <= 1
 0 <= a4_z1 <= 1
 0 <= a4_z2 <= 1

binary
  a1_z1
  a1_z2
  a2_z1
  a2_z2
  a3_z1
  a3_z2
  a4_z1
  a4_z2
end
