min
obj: 
  +3.043052453503527 a1_x1
  +8.5242104678500681 a1_x2
  +7.6930756521091874 a1_x3
  +6.9189962156082423 a1_x4
  +9.2097073421305335 a1_x5
  +1.6783613276554563 a1_x6
  +29.957301038510835 a1_z1
  +31.080729858907144 a1_z2
  +8.695776775262491 a2_x1
  +6.9077742042221582 a2_x2
  +5.0875445936298673 a2_x3
  +7.5917023578038236 a2_x4
  +8.2794490372741638 a2_x5
  +1.0351287904006585 a2_x6
  +28.928861886453006 a2_z1
  +23.934213589769115 a2_z2
  +5.1403805558345264 a3_x1
  +3.338751629164217 a3_x2
  +6.1106898664601106 a3_x3
  +6.5508211726549801 a3_x4
  +5.1951326468311683 a3_x5
  +3.9370151452755238 a3_x6
  +16.85304582879688 a3_z1
  +38.539597563502319 a3_z2
  +1.4163415069349607 a4_x1
  +8.5438219758017482 a4_x2
  +7.1495610706401269 a4_x3
  +5.5659057933768521 a4_x4
  +2.526471255000704 a4_x5
  +2.3501129539553487 a4_x6
  +43.904023055410626 a4_z1
  +7.4539102618189466 a4_z2
  +1000000 short_1
  +1000000 surp_1
  +1000000 short_2
  +1000000 surp_2
  +1000000 short_3
  +1000000 surp_3

s.t.

a1_local_1: 
+0.32057420966845834 a1_x4
+0.39881655547319073 a1_x3
+0.85917258520971374 a1_x1
<= 98.060632019235271

a1_local_2: 
+0.44020292127886668 a1_x6
+0.76696171523614187 a1_x4
+0.46689518680276298 a1_x2
<= 74.836805004755618

a1_local_3: 
+0.81574044103210486 a1_x3
+0.48179282396386136 a1_x1
+0.32006750481995988 a1_x4
<= 67.944737415627273

a1_local_4: 
+0.64260247416647354 a1_x3
+0.36048964248785259 a1_x1
+0.67609857110787253 a1_x2
<= 83.320818839767554

a1_local_5: 
+0.3701180977001175 a1_x3
+0.6363425943164378 a1_x2
+0.67681658993664717 a1_x4
<= 66.484282117220673

a1_local_6: 
+0.39889648326338084 a1_x3
+0.75200527944347917 a1_x5
+0.52475675825018409 a1_x4
<= 58.21750904981667

a1_local_7: 
+0.68680950089366732 a1_x5
+0.5786963994661728 a1_x6
+0.43977629168371424 a1_x1
<= 75.345730114436861

a1_local_8: 
+0.6354604155922301 a1_x2
+0.51496752828059755 a1_x3
+0.57532469530859009 a1_x6
<= 86.098527282309277

a1_act_1: 
+0.0099995000374968751 a1_x1
-0.99995000374968757 a1_z1
<= 0

a1_act_2: 
+0.0099995000374968751 a1_x2
-0.99995000374968757 a1_z2
<= 0

a2_local_1: 
+0.47560346757652106 a2_x6
+0.58297101831276987 a2_x3
+0.65874587925584882 a2_x1
<= 58.040944589352954

a2_local_2: 
+0.40170922928354119 a2_x4
+0.50017702619154969 a2_x1
+0.76710666636303015 a2_x5
<= 87.692321519524512

a2_local_3: 
+0.44787885382424342 a2_x6
+0.53186909153428885 a2_x5
+0.7186931207181354 a2_x3
<= 104.17839826132285

a2_local_4: 
+0.4683005803784383 a2_x4
+0.73025412611403584 a2_x3
+0.49741680481327122 a2_x6
<= 82.947938463106212

a2_local_5: 
+0.66102465728570348 a2_x6
+0.60063208541513902 a2_x2
+0.44976382739186516 a2_x5
<= 97.595256118018341

a2_local_6: 
+0.59417728467194963 a2_x2
+0.50536418773908043 a2_x1
+0.62574786626139478 a2_x4
<= 71.621017882212641

a2_local_7: 
+0.38305599011855623 a2_x6
+0.66936231184550099 a2_x2
+0.63657065901213095 a2_x5
<= 76.987364942342495

a2_local_8: 
+0.7469602397484344 a2_x2
+0.38795529051050082 a2_x4
+0.53994545354125756 a2_x5
<= 72.876626582553683

a2_act_1: 
+0.0099995000374968751 a2_x1
-0.99995000374968757 a2_z1
<= 0

a2_act_2: 
+0.0099995000374968751 a2_x2
-0.99995000374968757 a2_z2
<= 0

a3_local_1: 
+0.43916412540896543 a3_x6
+0.67204660813131245 a3_x5
+0.596228334996733 a3_x2
<= 113.89811782152445

a3_local_2: 
+0.76425937996545001 a3_x4
+0.35930134111975726 a3_x3
+0.53554658658642373 a3_x1
<= 71.417708978819817

a3_local_3: 
+0.55605910967858829 a3_x2
+0.53905068947928647 a3_x4
+0.63263150468132823 a3_x3
<= 93.475562299258911

a3_local_4: 
+0.50218270487831185 a3_x5
+0.64335141499858828 a3_x2
+0.57785074867167596 a3_x1
<= 114.4524442401307

a3_local_5: 
+0.60492717680726626 a3_x6
+0.70975801389622761 a3_x2
+0.36098015523027449 a3_x3
<= 116.5378536055282

a3_local_6: 
+0.66469134061111479 a3_x1
+0.69315613126423525 a3_x4
+0.27878306872440656 a3_x3
<= 92.594312019392362

a3_local_7: 
+0.65803520434094132 a3_x2
+0.56043963372902372 a3_x6
+0.50288874196352173 a3_x5
<= 120.30235159497802

a3_local_8: 
+0.5887213146905721 a3_x2
+0.46340501164364861 a3_x3
+0.66231639630357519 a3_x4
<= 78.105449569679848

a3_act_1: 
+0.0099995000374968751 a3_x1
-0.99995000374968757 a3_z1
<= 0

a3_act_2: 
+0.0099995000374968751 a3_x2
-0.99995000374968757 a3_z2
<= 0

a4_local_1: 
+0.51602702371966702 a4_x4
+0.42875634124771345 a4_x5
+0.74154171199663255 a4_x6
<= 62.213505269642653

a4_local_2: 
+0.57747459613667129 a4_x3
+0.67175147683171188 a4_x1
+0.46397526247764792 a4_x2
<= 113.62231781999404

a4_local_3: 
+0.38039709920775333 a4_x4
+0.48483302235681558 a4_x6
+0.7875499903794565 a4_x2
<= 51.235526999622742

a4_local_4: 
+0.65355168662442198 a4_x2
+0.59376740934225092 a4_x3
+0.46937240706433203 a4_x1
<= 101.87652858896053

a4_local_5: 
+0.42022637349550412 a4_x4
+0.76044650119543977 a4_x5
+0.49510697211656329 a4_x2
<= 115.09185861552949

a4_local_6: 
+0.75499499136017845 a4_x6
+0.31340401870487727 a4_x5
+0.57598653116255849 a4_x3
<= 112.92004268442949

a4_local_7: 
+0.27999188131792924 a4_x4
+0.65744062282580895 a4_x3
+0.69955441093202964 a4_x5
<= 107.46880002059513

a4_local_8: 
+0.55105963022109283 a4_x1
+0.32422238895329442 a4_x6
+0.76890384733203865 a4_x4
<= 90.824733720910203

a4_act_1: 
+0.0099995000374968751 a4_x1
-0.99995000374968757 a4_z1
<= 0

a4_act_2: 
+0.0099995000374968751 a4_x2
-0.99995000374968757 a4_z2
<= 0

coupling_1: 
+0.0001150118989652979 a1_x1
+0.00096771341528692424 a2_x1
+0.020155553058655285 a3_x1
+0.99973212446557103 a4_x1
+0.0080150887538714601 short_1
-0.0080150887538714601 surp_1
= 20.603519993467792

coupling_2: 
+6.1303247906426458e-05 a1_x2
+0.0016047726673307538 a2_x2
+0.050107003175454162 a3_x2
+0.99867569405470591 a4_x2
+0.0081721259083570325 short_2
-0.0081721259083570325 surp_2
= 34.892707560067173

coupling_3: 
+0.00011636250488778075 a1_x3
+0.0036558271857367285 a2_x3
+0.089024328923073104 a3_x3
+0.9956988936301614 a4_x3
+0.017958333313875006 short_3
-0.017958333313875006 surp_3
= 22.683910513600878

bounds
  0 <= a1_x1 <= 100
  0 <= a1_x2 <= 100
  0 <= a1_x3 <= 100
  0 <= a1_x4 <= 100
  0 <= a1_x5 <= 100
  0 <= a1_x6 <= 100
  0 <= a2_x1 <= 100
  0 <= a2_x2 <= 100
  0 <= a2_x3 <= 100
  0 <= a2_x4 <= 100
  0 <= a2_x5 <= 100
  0 <= a2_x6 <= 100
  0 <= a3_x1 <= 100
  0 <= a3_x2 <= 100
  0 <= a3_x3 <= 100
  0 <= a3_x4 <= 100
  0 <= a3_x5 <= 100
  0 <= a3_x6 <= 100
  0 <= a4_x1 <= 100
  0 <= a4_x2 <= 100
  0 <= a4_x3 <= 100
  0 <= a4_x4 <= 100
  0 <= a4_x5 <= 100
  0 <= a4_x6 <= 100
  0 <= short_1 <= +inf
  0 <= surp_1 <= +inf
  0 <= short_2 <= +inf
  0 <= surp_2 <= +inf
  0 <= short_3 <= +inf
  0 <= surp_3 <= +inf
 0 <= a1_z1 <= 1
 0 <= a1_z2 <= 1
 0 <= a2_z1 <= 1
 0 <= a2_z2 <= 1
 0 <= a3_z1 <= 1
 0 <= a3_z2 <= 1
 0 <= a4_z1 <= 1
 0 <= a4_z2 <= 1

binary
  a1_z1
  a1_z2
  a2_z1
  a2_z2
  a3_z1
  a3_z2
  a4_z1
  a4_z2
end
