min
obj: 
  +1.5770974257819579 a1_x1
  +5.2436233239928463 a1_x2
  +8.0695966456126804 a1_x3
  +3.4781022885686368 a1_x4
  +9.412058306823841 a1_x5
  +8.3165688602967034 a1_x6
  +34.001400959855452 a1_z1
  +10.410503430419741 a1_z2
  +7.418259317223229 a2_x1
  +8.2806614137575387 a2_x2
  +6.0649431138157652 a2_x3
  +8.6541766135972331 a2_x4
  +4.3292904508020413 a2_x5
  +7.270244042047584 a2_x6
  +22.659258388720176 a2_z1
  +14.3292458598275 a2_z2
  +6.5706299309399387 a3_x1
  +3.4667216339522406 a3_x2
  +8.7306868906336064 a3_x3
  +5.7873163324378032 a3_x4
  +5.6599350909197002 a3_x5
  +4.8869920304691288 a3_x6
  +21.678337067529544 a3_z1
  +5.900585939248967 a3_z2
  +6.0616245234979713 a4_x1
  +4.5273516228701549 a4_x2
  +9.793261850532609 a4_x3
  +5.1742521510836195 a4_x4
  +5.4489998276629183 a4_x5
  +4.6550473123840108 a4_x6
  +25.907898635489875 a4_z1
  +20.492987297835271 a4_z2
  +1000000 short_1
  +1000000 surp_1
  +1000000 short_2
  +1000000 surp_2
  +1000000 short_3
  +1000000 surp_3

s.t.

a1_local_1: 
+0.64098504467401418 a1_x1
+0.65529248652179228 a1_x6
+0.39966226943800792 a1_x5
<= 89.211705947332462

a1_local_2: 
+0.55064285615084863 a1_x5
+0.73094825274735109 a1_x2
+0.40312168978564067 a1_x4
<= 111.98295202252085

a1_local_3: 
+0.60653474482124858 a1_x4
+0.65355255721177885 a1_x2
+0.45275231450161302 a1_x6
<= 87.041749554067422

a1_local_4: 
+0.48468281106156536 a1_x3
+0.40415584568472496 a1_x4
+0.77571942418655715 a1_x1
<= 114.89555808706993

a1_local_5: 
+0.37700140450220204 a1_x4
+0.56011405745587217 a1_x6
+0.73765993767025662 a1_x3
<= 114.18774499913647

a1_local_6: 
+0.73341007215429344 a1_x2
+0.5497710113703338 a1_x4
+0.39982683891839316 a1_x3
<= 74.627732763400417

a1_local_7: 
+0.4382302583280932 a1_x2
+0.3607493464906682 a1_x4
+0.82329469188878446 a1_x3
<= 63.231895342851544

a1_local_8: 
+0.42881947157940209 a1_x6
+0.55486649710622926 a1_x4
+0.71290744924108151 a1_x3
<= 87.164531822924701

a1_act_1: 
+0.0099995000374968751 a1_x1
-0.99995000374968757 a1_z1
<= 0

a1_act_2: 
+0.0099995000374968751 a1_x2
-0.99995000374968757 a1_z2
<= 0

a2_local_1: 
+0.45238617504383721 a2_x1
+0.42581800356112653 a2_x3
+0.78359796865001075 a2_x6
<= 96.635570270037519

a2_local_2: 
+0.33197778069406741 a2_x2
+0.75249537638068831 a2_x3
+0.56880705133738263 a2_x5
<= 62.94385948348927

a2_local_3: 
+0.59607595203841446 a2_x6
+0.59612007569886249 a2_x5
+0.53789805237635924 a2_x1
<= 88.24207816232348

a2_local_4: 
+0.70063395603317591 a2_x6
+0.28979465704822427 a2_x4
+0.65202079445336991 a2_x2
<= 88.256257294672736

a2_local_5: 
+0.56376506246806635 a2_x1
+0.47343629022507228 a2_x2
+0.67677694511434028 a2_x3
<= 102.96445325038587

a2_local_6: 
+0.76944969397791729 a2_x4
+0.41250882611250411 a2_x6
+0.4876306356419508 a2_x1
<= 80.791555080602862

a2_local_7: 
+0.4814107220387196 a2_x5
+0.73532590670584375 a2_x1
+0.47701103512747778 a2_x6
<= 112.19939580169827

a2_local_8: 
+0.48134038153081543 a2_x1
+0.55553049116899866 a2_x2
+0.67800981592400267 a2_x6
<= 69.579557757495607

a2_act_1: 
+0.0099995000374968751 a2_x1
-0.99995000374968757 a2_z1
<= 0

a2_act_2: 
+0.0099995000374968751 a2_x2
-0.99995000374968757 a2_z2
<= 0

a3_local_1: 
+0.58252338184701835 a3_x2
+0.67057188152998637 a3_x4
+0.45934721214223889 a3_x6
<= 63.033578081598186

a3_local_2: 
+0.85116678055839834 a3_x2
+0.38573807972718666 a3_x4
+0.35597927681570685 a3_x6
<= 99.466158547217958

a3_local_3: 
+0.45979558350298677 a3_x6
+0.70455626049622155 a3_x3
+0.5405446301525233 a3_x2
<= 105.88099769139528

a3_local_4: 
+0.66080022141240813 a3_x3
+0.68471781480628391 a3_x2
+0.30741597464708925 a3_x5
<= 81.328421744327827

a3_local_5: 
+0.7007595530463111 a3_x4
+0.63365044496067469 a3_x2
+0.32775472905127323 a3_x6
<= 55.492206683629114

a3_local_6: 
+0.44005501780588829 a3_x3
+0.64363104158597351 a3_x5
+0.62617143308427459 a3_x1
<= 85.718804356422098

a3_local_7: 
+0.47237822426315729 a3_x2
+0.7534060534979925 a3_x3
+0.45742554781578015 a3_x5
<= 63.350653673085219

a3_local_8: 
+0.53547569938088846 a3_x2
+0.43994267092888661 a3_x5
+0.72091346337026185 a3_x3
<= 83.357248084571125

a3_act_1: 
+0.0099995000374968751 a3_x1
-0.99995000374968757 a3_z1
<= 0

a3_act_2: 
+0.0099995000374968751 a3_x2
-0.99995000374968757 a3_z2
<= 0

a4_local_1: 
+0.3255592921307382 a4_x4
+0.83767345682004768 a4_x5
+0.43853657435439092 a4_x1
<= 62.804404399786918

a4_local_2: 
+0.40886978489745956 a4_x6
+0.80468397244190404 a4_x4
+0.43047555504699947 a4_x1
<= 103.60777871694373

a4_local_3: 
+0.66977799368245083 a4_x1
+0.52661841747378257 a4_x3
+0.52351741284900888 a4_x4
<= 105.69244618020042

a4_local_4: 
+0.6002960601284929 a4_x3
+0.59319729937207688 a4_x6
+0.53643415645527615 a4_x5
<= 116.73500857588914

a4_local_5: 
+0.73016237111377835 a4_x4
+0.59424072278216511 a4_x5
+0.33725491130128138 a4_x6
<= 81.055602258612012

a4_local_6: 
+0.45964356119822353 a4_x5
+0.62459314261105636 a4_x3
+0.63135663681651366 a4_x2
<= 99.245877606189595

a4_local_7: 
+0.44192213813734699 a4_x6
+0.34162602604070413 a4_x3
+0.82945553356147539 a4_x4
<= 52.129407083944429

a4_local_8: 
+0.43597329915212507 a4_x6
+0.58149436991934367 a4_x4
+0.686870861354969 a4_x1
<= 70.241881089550247

a4_act_1: 
+0.0099995000374968751 a4_x1
-0.99995000374968757 a4_z1
<= 0

a4_act_2: 
+0.0099995000374968751 a4_x2
-0.99995000374968757 a4_z2
<= 0

coupling_1: 
+7.8761603989975615e-05 a1_x1
+0.0013979277596339974 a2_x1
+0.02185679100845983 a3_x1
+0.702570358047234 a4_x1
+0.0062588407602889359 short_1
-0.0062588407602889359 surp_1
= 51.194166340853876

coupling_2: 
+7.4685584997516934e-05 a1_x2
+0.0013888634092953541 a2_x2
+0.04513982565818437 a3_x2
+0.99890800907464217 a4_x2
+0.0084631857647437976 short_2
-0.0084631857647437976 surp_2
= 70.303647219512328

coupling_3: 
+8.128447977062262e-05 a1_x3
+0.0019550323701826777 a2_x3
+0.033649742135893071 a3_x3
+0.999335133797155 a4_x3
+0.0098274221969760281 short_3
-0.0098274221969760281 surp_3
= 68.085685316802227

bounds
  0 <= a1_x1 <= 100
  0 <= a1_x2 <= 100
  0 <= a1_x3 <= 100
  0 <= a1_x4 <= 100
  0 <= a1_x5 <= 100
  0 <= a1_x6 <= 100
  0 <= a2_x1 <= 100
  0 <= a2_x2 <= 100
  0 <= a2_x3 <= 100
  0 <= a2_x4 <= 100
  0 <= a2_x5 <= 100
  0 <= a2_x6 <= 100
  0 <= a3_x1 <= 100
  0 <= a3_x2 <= 100
  0 <= a3_x3 <= 100
  0 <= a3_x4 <= 100
  0 <= a3_x5 <= 100
  0 <= a3_x6 <= 100
  0 <= a4_x1 <= 100
  0 <= a4_x2 <= 100
  0 <= a4_x3 <= 100
  0 <= a4_x4 <= 100
  0 <= a4_x5 <= 100
  0 <= a4_x6 <= 100
  0 <= short_1 <= +inf
  0 <= surp_1 <= +inf
  0 <= short_2 <= +inf
  0 <= surp_2 <= +inf
  0 <= short_3 <= +inf
  0 <= surp_3 <= +inf
 0 <= a1_z1 <= 1
 0 <= a1_z2 <= 1
 0 <= a2_z1 <= 1
 0 <= a2_z2 <= 1
 0 <= a3_z1 <= 1
 0 <= a3_z2 <= 1
 0 <= a4_z1 <= 1
 0 <= a4_z2 <= 1

binary
  a1_z1
  a1_z2
  a2_z1
  a2_z2
  a3_z1
  a3_z2
  a4_z1
  a4_z2
end
