min
obj: 
  +7.7820756929973847 a1_x1
  +2.6204029212029933 a1_x2
  +1.0229393332967094 a1_x3
  +7.1910932224071349 a1_x4
  +4.2632745770435907 a1_x5
  +6.0246265469097295 a1_x6
  +42.771027111197313 a1_z1
  +28.114118371176183 a1_z2
  +1.0942907269569377 a2_x1
  +2.3925011221889392 a2_x2
  +1.8354708126815493 a2_x3
  +3.2680190161516656 a2_x4
  +8.5745129304172316 a2_x5
  +5.2855415708546367 a2_x6
  +40.375428510282923 a2_z1
  +37.679921062184903 a2_z2
  +8.2763747483341881 a3_x1
  +6.9098336189226917 a3_x2
  +7.224692972136415 a3_x3
  +2.7635056217757095 a3_x4
  +4.5804152664090756 a3_x5
  +5.5391766018428115 a3_x6
  +12.640130628939682 a3_z1
  +24.719908715545547 a3_z2
  +3.7933549198548668 a4_x1
  +7.8772143187643042 a4_x2
  +7.8222341244321543 a4_x3
  +1.2624357252124174 a4_x4
  +2.9341291076023293 a4_x5
  +4.8680356039416175 a4_x6
  +47.52172151037577 a4_z1
  +34.587285029007681 a4_z2
  +1000000 short_1
  +1000000 surp_1
  +1000000 short_2
  +1000000 surp_2
  +1000000 short_3
  +1000000 surp_3

s.t.

a1_local_1: 
+0.50830128584377543 a1_x4
+0.78099407126304765 a1_x6
+0.3628747214418967 a1_x3
<= 82.586536136739326

a1_local_2: 
+0.39039666452946664 a1_x6
+0.75384461784374812 a1_x2
+0.52849667593304728 a1_x4
<= 111.15549727338853

a1_local_3: 
+0.62639781087864566 a1_x2
+0.62813403544600321 a1_x5
+0.46159876087437646 a1_x4
<= 113.60454828368597

a1_local_4: 
+0.70345461954399746 a1_x2
+0.38261364980276907 a1_x1
+0.59896443402493726 a1_x3
<= 97.354532773179756

a1_local_5: 
+0.79739452556466095 a1_x3
+0.30467483961233111 a1_x2
+0.52089846679243512 a1_x6
<= 70.872306963194106

a1_local_6: 
+0.57704193843430329 a1_x4
+0.67079760420600565 a1_x5
+0.46588966019806116 a1_x2
<= 62.899236496578538

a1_local_7: 
+0.43601959552897124 a1_x1
+0.79355433946322196 a1_x5
+0.42445073051396875 a1_x3
<= 109.08425859757111

a1_local_8: 
+0.52337360990039949 a1_x1
+0.59707591077654099 a1_x5
+0.60793126357359539 a1_x4
<= 55.188637544292867

a1_act_1: 
+0.0099995000374968751 a1_x1
-0.99995000374968757 a1_z1
<= 0

a1_act_2: 
+0.0099995000374968751 a1_x2
-0.99995000374968757 a1_z2
<= 0

a2_local_1: 
+0.55973648162610345 a2_x2
+0.6463551949172589 a2_x3
+0.5185750024252066 a2_x4
<= 120.21571914621444

a2_local_2: 
+0.4571666021512496 a2_x1
+0.79607202221084405 a2_x4
+0.39657033844025485 a2_x5
<= 101.77370889970535

a2_local_3: 
+0.4815052062868766 a2_x5
+0.47900882114839483 a2_x2
+0.73396409011657893 a2_x6
<= 57.014454378931298

a2_local_4: 
+0.37108491094252494 a2_x5
+0.51453332323007472 a2_x4
+0.77301452001666426 a2_x6
<= 75.252985666485444

a2_local_5: 
+0.5457695991910354 a2_x1
+0.6940604677783111 a2_x3
+0.46948441046131489 a2_x2
<= 115.11689063162034

a2_local_6: 
+0.6527186637119422 a2_x5
+0.55969707700688864 a2_x6
+0.51058547573549495 a2_x1
<= 51.881462030414589

a2_local_7: 
+0.64435631509092806 a2_x5
+0.53966988147753658 a2_x6
+0.54181302884709415 a2_x3
<= 98.530300382611756

a2_local_8: 
+0.55644931175132029 a2_x5
+0.62297550105928134 a2_x2
+0.54978694830945118 a2_x4
<= 61.785271340046847

a2_act_1: 
+0.0099995000374968751 a2_x1
-0.99995000374968757 a2_z1
<= 0

a2_act_2: 
+0.0099995000374968751 a2_x2
-0.99995000374968757 a2_z2
<= 0

a3_local_1: 
+0.65465585444098084 a3_x1
+0.64792105361424945 a3_x5
+0.38938929174997883 a3_x3
<= 94.779827955862075

a3_local_2: 
+0.60569249579577089 a3_x1
+0.59543971388029249 a3_x3
+0.5278145011941654 a3_x5
<= 101.57211566822713

a3_local_3: 
+0.72153885730764789 a3_x5
+0.61870520967028297 a3_x2
+0.31078214382751262 a3_x4
<= 78.866979619823809

a3_local_4: 
+0.74740317250648791 a3_x6
+0.53417170670805192 a3_x3
+0.39503048677265917 a3_x4
<= 103.57844690850575

a3_local_5: 
+0.53324428707979954 a3_x2
+0.62379898786635002 a3_x4
+0.57142396960022046 a3_x1
<= 93.962988182120142

a3_local_6: 
+0.36973940424554813 a3_x6
+0.30643624498288274 a3_x4
+0.87714856250747952 a3_x5
<= 81.147215596963491

a3_local_7: 
+0.35353124402877611 a3_x6
+0.84635515733245292 a3_x5
+0.39836993756083655 a3_x3
<= 84.746799952446153

a3_local_8: 
+0.66594347090824568 a3_x4
+0.67769820192539953 a3_x6
+0.31184040896227455 a3_x2
<= 101.01230261613421

a3_act_1: 
+0.0099995000374968751 a3_x1
-0.99995000374968757 a3_z1
<= 0

a3_act_2: 
+0.0099995000374968751 a3_x2
-0.99995000374968757 a3_z2
<= 0

a4_local_1: 
+0.33817599434806372 a4_x2
+0.75191735880741373 a4_x3
+0.56591278689457203 a4_x4
<= 91.252896206021347

a4_local_2: 
+0.57959863448861604 a4_x4
+0.41581070377661744 a4_x6
+0.70083299117815911 a4_x1
<= 64.514147107241897

a4_local_3: 
+0.67875539047922606 a4_x3
+0.40662264837098566 a4_x2
+0.61151381155878981 a4_x5
<= 109.83730651320782

a4_local_4: 
+0.56066381900763085 a4_x2
+0.67959937047783681 a4_x1
+0.47307586886450526 a4_x5
<= 66.195134038379564

a4_local_5: 
+0.56383581487734236 a4_x6
+0.76066913785552093 a4_x2
+0.32167007410659421 a4_x3
<= 105.46345412432957

a4_local_6: 
+0.38801516538316294 a4_x5
+0.77377718471345092 a4_x6
+0.50071259206215579 a4_x2
<= 67.006906173682324

a4_local_7: 
+0.60863090104425599 a4_x6
+0.62699660985340744 a4_x5
+0.48625474550526615 a4_x3
<= 80.750101866247832

a4_local_8: 
+0.49529887827268854 a4_x5
+0.63976000449694503 a4_x6
+0.58769563366413158 a4_x4
<= 55.85488354718926

a4_act_1: 
+0.0099995000374968751 a4_x1
-0.99995000374968757 a4_z1
<= 0

a4_act_2: 
+0.0099995000374968751 a4_x2
-0.99995000374968757 a4_z2
<= 0

coupling_1: 
+5.3659984178460885e-05 a1_x1
+0.001160447214211913 a2_x1
+0.044791276724151979 a3_x1
+0.99894261980434518 a4_x1
+0.007281289402325186 short_1
-0.007281289402325186 surp_1
= 67.789633804252887

coupling_2: 
+4.2523273280599531e-05 a1_x2
+0.0020528567707475739 a2_x2
+0.026864366549328896 a3_x2
+0.99956544091767152 a4_x2
+0.0084563320598918228 short_2
-0.0084563320598918228 surp_2
= 71.976685669563992

coupling_3: 
+0.00016136294489142825 a1_x3
+0.0035248671412710505 a2_x3
+0.079068512007979888 a3_x3
+0.9966900511595318 a4_x3
+0.013127482662152804 short_3
-0.013127482662152804 surp_3
= 55.288562970812229

bounds
  0 <= a1_x1 <= 100
  0 <= a1_x2 <= 100
  0 <= a1_x3 <= 100
  0 <= a1_x4 <= 100
  0 <= a1_x5 <= 100
  0 <= a1_x6 <= 100
  0 <= a2_x1 <= 100
  0 <= a2_x2 <= 100
  0 <= a2_x3 <= 100
  0 <= a2_x4 <= 100
  0 <= a2_x5 <= 100
  0 <= a2_x6 <= 100
  0 <= a3_x1 <= 100
  0 <= a3_x2 <= 100
  0 <= a3_x3 <= 100
  0 <= a3_x4 <= 100
  0 <= a3_x5 <= 100
  0 <= a3_x6 <= 100
  0 <= a4_x1 <= 100
  0 <= a4_x2 <= 100
  0 <= a4_x3 <= 100
  0 <= a4_x4 <= 100
  0 <= a4_x5 <= 100
  0 <= a4_x6 <= 100
  0 <= short_1 <= +inf
  0 <= surp_1 <= +inf
  0 <= short_2 <= +inf
  0 <= surp_2 <= +inf
  0 <= short_3 <= +inf
  0 <= surp_3 <= +inf
 0 <= a1_z1 <= 1
 0 <= a1_z2 <= 1
 0 <= a2_z1 <= 1
 0 <= a2_z2 <= 1
 0 <= a3_z1 <= 1
 0 <= a3_z2 <= 1
 0 <= a4_z1 <= 1
 0 <= a4_z2 <= 1

binary
  a1_z1
  a1_z2
  a2_z1
  a2_z2
  a3_z1
  a3_z2
  a4_z1
  a4_z2
end
