min
obj: 
  +1.5869078218103445 a1_x1
  +1.8591431952918778 a1_x2
  +3.3231109040519993 a1_x3
  +9.2087059181463786 a1_x4
  +9.6203246603591985 a1_x5
  +2.6522167369866532 a1_x6
  +45.971215901918207 a1_z1
  +15.231591264695247 a1_z2
  +9.6966969925339086 a2_x1
  +9.5099240901526567 a2_x2
  +7.5753998333245365 a2_x3
  +7.2545869758953661 a2_x4
  +4.0776176539598987 a2_x5
  +7.0823179577413251 a2_x6
  +41.740356324700421 a2_z1
  +13.295788449057502 a2_z2
  +8.20725746769123 a3_x1
  +8.7650426689296079 a3_x2
  +7.7797720123238729 a3_x3
  +6.0483854765360672 a3_x4
  +6.4868155236610479 a3_x5
  +7.5914186799784584 a3_x6
  +13.335393596501099 a3_z1
  +17.076428731733131 a3_z2
  +4.0749166189662294 a4_x1
  +3.9578684115063361 a4_x2
  +4.7726522238702849 a4_x3
  +6.6226528859876028 a4_x4
  +9.5073045520096944 a4_x5
  +5.1085987408368467 a4_x6
  +30.995431749404506 a4_z1
  +14.100841079092167 a4_z2
  +1000000 short_1
  +1000000 surp_1
  +1000000 short_2
  +1000000 surp_2
  +1000000 short_3
  +1000000 surp_3

s.t.

a1_local_1: 
+0.9155529074655554 a1_x4
+1.1866305975125662 a1_x1
+0.8427222440549027 a1_x3
<= 130.56099750115044

a1_local_2: 
+1.2901250319684305 a1_x3
+1.1403046099927359 a1_x5
+0.7751186708424942 a1_x2
<= 159.02825482882679

a1_local_3: 
+0.89385193114482808 a1_x1
+1.2976635478856189 a1_x2
+0.77061577450439722 a1_x5
<= 185.74620976182047

a1_local_4: 
+0.84475758585644278 a1_x3
+1.1837715538075548 a1_x5
+1.1829456198009578 a1_x6
<= 211.23300369770561

a1_local_5: 
+0.93760678057692992 a1_x4
+1.0665451879354779 a1_x5
+1.0411286842594878 a1_x6
<= 164.20180645309398

a1_local_6: 
+0.92965033855685097 a1_x4
+0.97740032361727947 a1_x6
+1.0756732488823235 a1_x1
<= 193.84297508175339

a1_local_7: 
+1.0727317804515359 a1_x5
+0.93219947262033975 a1_x2
+0.94097171756131359 a1_x4
<= 107.03108870249423

a1_local_8: 
+1.0508014256141549 a1_x2
+0.84858322144575615 a1_x6
+1.1784348013578096 a1_x3
<= 112.81499936443518

a1_act_1: 
+0.10000000000000001 a1_x1
-10 a1_z1
<= 0

a1_act_2: 
+0.10000000000000001 a1_x2
-10 a1_z2
<= 0

a2_local_1: 
+0.6791521694381516 a2_x5
+1.2061947802310962 a2_x3
+1.4724240678304525 a2_x6
<= 109.52131906706703

a2_local_2: 
+1.1214148427201649 a2_x5
+0.96658101915817374 a2_x1
+0.89173066193269324 a2_x4
<= 183.87832152924048

a2_local_3: 
+1.2919563570357355 a2_x6
+0.77401995396686585 a2_x1
+1.0476758507008761 a2_x3
<= 169.63785243635704

a2_local_4: 
+0.65050579285849552 a2_x4
+1.5372653264250482 a2_x2
+1.2546061477204333 a2_x5
<= 157.53195180918655

a2_local_5: 
+0.89212832764996974 a2_x5
+1.1209149726633878 a2_x3
+0.99726078178352351 a2_x1
<= 164.55413519233275

a2_local_6: 
+1.431962537800604 a2_x6
+0.59606155638378677 a2_x2
+1.677679074065513 a2_x1
<= 187.17741540376434

a2_local_7: 
+1.0634245382979006 a2_x2
+0.94035821441602541 a2_x1
+1.0206499739334947 a2_x3
<= 97.331302182942196

a2_local_8: 
+1.0972566160580315 a2_x6
+0.91506752041633355 a2_x3
+0.91136383719659642 a2_x5
<= 139.6778194641883

a2_act_1: 
+0.10000000000000001 a2_x1
-10 a2_z1
<= 0

a2_act_2: 
+0.10000000000000001 a2_x2
-10 a2_z2
<= 0

a3_local_1: 
+1.379696705569873 a3_x2
+1.1834753568355136 a3_x3
+0.72479697600419912 a3_x1
<= 109.97268653781575

a3_local_2: 
+0.98314516938065866 a3_x6
+1.6058000600626208 a3_x2
+0.62274253493364773 a3_x3
<= 156.616435919205

a3_local_3: 
+1.2074338103311231 a3_x4
+0.93617867735399596 a3_x2
+0.82820274821173245 a3_x3
<= 102.86630581952517

a3_local_4: 
+1.0611400435293445 a3_x4
+1.1829971385770535 a3_x1
+0.84531058224099487 a3_x3
<= 173.88565000843502

a3_local_5: 
+0.90518186067258943 a3_x3
+0.91016586692250856 a3_x4
+1.1047503749765342 a3_x6
<= 97.959647967246497

a3_local_6: 
+1.2169345762837112 a3_x3
+0.82173686202080898 a3_x4
+1.0545458330870501 a3_x5
<= 197.39486610868116

a3_local_7: 
+0.83838813987461269 a3_x5
+1.0696121414360911 a3_x6
+1.1927649646255225 a3_x2
<= 155.55360864620712

a3_local_8: 
+0.93987587291272379 a3_x4
+1.0691643888494096 a3_x6
+0.93530986481523104 a3_x5
<= 99.038943227033599

a3_act_1: 
+0.10000000000000001 a3_x1
-10 a3_z1
<= 0

a3_act_2: 
+0.10000000000000001 a3_x2
-10 a3_z2
<= 0

a4_local_1: 
+1.4478113571607969 a4_x4
+0.69069771766470389 a4_x6
+1.3870050257213944 a4_x5
<= 141.86684223548065

a4_local_2: 
+0.81706054229146818 a4_x5
+1.2238995132422785 a4_x4
+1.1253877361914832 a4_x2
<= 100.13513844071896

a4_local_3: 
+1.2291412385063352 a4_x4
+1.4896164927011655 a4_x2
+0.67131372732499139 a4_x1
<= 149.79730658774002

a4_local_4: 
+1.2554410253266526 a4_x6
+1.4233918798750622 a4_x1
+0.70254721425541267 a4_x5
<= 226.63912402927258

a4_local_5: 
+1.1075390609561564 a4_x3
+0.60380460951652049 a4_x6
+1.6561648987753201 a4_x1
<= 197.6816339688917

a4_local_6: 
+1.1832323776055926 a4_x5
+0.84514252561581837 a4_x2
+0.8687009509278516 a4_x1
<= 154.71330148587347

a4_local_7: 
+1.4449072343140346 a4_x2
+0.6920859528222566 a4_x4
+0.70247493631898916 a4_x1
<= 177.99762287925822

a4_local_8: 
+1.3990402867095137 a4_x6
+0.71477569981344813 a4_x5
+0.96984013205581643 a4_x4
<= 119.31782010296236

a4_act_1: 
+0.10000000000000001 a4_x1
-10 a4_z1
<= 0

a4_act_2: 
+0.10000000000000001 a4_x2
-10 a4_z2
<= 0

coupling_1: 
+0.011865619577802999 a1_x1
+0.118140663025483 a2_x1
+3.3127531796585559 a3_x1
+84.277099349341938 a4_x1
+0.85206177196040522 short_1
-0.85206177196040522 surp_1
= 5084.9881666459705

coupling_2: 
+0.0097266311209958344 a1_x2
+0.19444269195418423 a2_x2
+4.9583366925517316 a3_x2
+102.81051965067407 a4_x2
+1.03071068263569 short_2
-1.03071068263569 surp_2
= 4782.8312584695695

coupling_3: 
+0.010457154707990735 a1_x3
+0.14053616727373955 a2_x3
+4.9821358993162521 a3_x3
+95.628306927108895 a4_x3
+0.71754553194331216 short_3
-0.71754553194331216 surp_3
= 4431.230467134963

bounds
  0 <= a1_x1 <= 100
  0 <= a1_x2 <= 100
  0 <= a1_x3 <= 100
  0 <= a1_x4 <= 100
  0 <= a1_x5 <= 100
  0 <= a1_x6 <= 100
  0 <= a2_x1 <= 100
  0 <= a2_x2 <= 100
  0 <= a2_x3 <= 100
  0 <= a2_x4 <= 100
  0 <= a2_x5 <= 100
  0 <= a2_x6 <= 100
  0 <= a3_x1 <= 100
  0 <= a3_x2 <= 100
  0 <= a3_x3 <= 100
  0 <= a3_x4 <= 100
  0 <= a3_x5 <= 100
  0 <= a3_x6 <= 100
  0 <= a4_x1 <= 100
  0 <= a4_x2 <= 100
  0 <= a4_x3 <= 100
  0 <= a4_x4 <= 100
  0 <= a4_x5 <= 100
  0 <= a4_x6 <= 100
  0 <= short_1 <= +inf
  0 <= surp_1 <= +inf
  0 <= short_2 <= +inf
  0 <= surp_2 <= +inf
  0 <= short_3 <= +inf
  0 <= surp_3 <= +inf
 0 <= a1_z1 <= 1
 0 <= a1_z2 <= 1
 0 <= a2_z1 <= 1
 0 <= a2_z2 <= 1
 0 <= a3_z1 <= 1
 0 <= a3_z2 <= 1
 0 <= a4_z1 <= 1
 0 <= a4_z2 <= 1

binary
  a1_z1
  a1_z2
  a2_z1
  a2_z2
  a3_z1
  a3_z2
  a4_z1
  a4_z2
end
