min
obj: 
  +2.8670230128866887 a1_x1
  +4.6121734767481746 a1_x2
  +8.3726653944305163 a1_x3
  +3.8874111784256438 a1_x4
  +3.5735214707131471 a1_x5
  +7.9063268225890937 a1_x6
  +32.521673256282952 a1_z1
  +46.9551209495583 a1_z2
  +6.1895710982011405 a2_x1
  +7.6567171580139357 a2_x2
  +8.2043744709301158 a2_x3
  +3.6188691473828523 a2_x4
  +5.2859257046209569 a2_x5
  +3.3947769180807601 a2_x6
  +12.605481383042026 a2_z1
  +31.130882329794158 a2_z2
  +1.0038469274140069 a3_x1
  +6.9874663911383514 a3_x2
  +2.0892016241128126 a3_x3
  +9.3610808006140438 a3_x4
  +4.8509819599704116 a3_x5
  +1.7243146015797635 a3_x6
  +35.019467218819287 a3_z1
  +33.012677472845496 a3_z2
  +2.5033216672460403 a4_x1
  +6.4216192335644386 a4_x2
  +2.3877334915960096 a4_x3
  +7.475862409648836 a4_x4
  +7.4106096914751971 a4_x5
  +8.5860247699785965 a4_x6
  +17.162878658753439 a4_z1
  +23.317265071624306 a4_z2
  +1000000 short_1
  +1000000 surp_1
  +1000000 short_2
  +1000000 surp_2
  +1000000 short_3
  +1000000 surp_3

s.t.

a1_local_1: 
+0.75472573801036935 a1_x3
+1.3249846263839233 a1_x1
+1.1772694049299153 a1_x2
<= 195.87654231011965

a1_local_2: 
+0.83501334719060161 a1_x6
+1.1975856474204818 a1_x4
+0.89946252450197972 a1_x3
<= 114.84021881794075

a1_local_3: 
+0.86023087927746567 a1_x5
+1.1624786136948848 a1_x6
+1.1192980414098286 a1_x4
<= 115.25411264988588

a1_local_4: 
+1.2088944405769924 a1_x3
+1.3944572913604538 a1_x6
+0.71712486728394853 a1_x4
<= 111.92813226351252

a1_local_5: 
+1.3910408911842473 a1_x4
+1.1059008461704698 a1_x5
+0.71888612788992912 a1_x2
<= 117.76166897948885

a1_local_6: 
+1.0988461415938029 a1_x5
+1.0656397539234905 a1_x4
+0.91004551242230047 a1_x2
<= 149.55870772759965

a1_local_7: 
+1.1003423225542699 a1_x2
+1.4012897612417594 a1_x3
+0.71362827850383015 a1_x6
<= 200.05380207532272

a1_local_8: 
+1.3317324523348846 a1_x2
+1.280057716660427 a1_x5
+0.75090157805100533 a1_x1
<= 175.58399499863108

a1_act_1: 
+0.10000000000000001 a1_x1
-10 a1_z1
<= 0

a1_act_2: 
+0.10000000000000001 a1_x2
-10 a1_z2
<= 0

a2_local_1: 
+1.0909620425282724 a2_x4
+0.91662217475736318 a2_x3
+1.0878400302816957 a2_x1
<= 166.79931289528105

a2_local_2: 
+1.1973460805676299 a2_x6
+0.70713748685113864 a2_x2
+1.4141521537105453 a2_x5
<= 129.78322342201537

a2_local_3: 
+1.2762135156696186 a2_x6
+1.0594181894994763 a2_x4
+0.78356794354689818 a2_x5
<= 187.65923494863199

a2_local_4: 
+1.2640844113347434 a2_x3
+0.79108641087038067 a2_x4
+0.9166841882701553 a2_x1
<= 193.36213054034607

a2_local_5: 
+0.87198419583563436 a2_x5
+0.84711582467920155 a2_x4
+1.180476117747765 a2_x3
<= 195.28775963253014

a2_local_6: 
+0.71387563931575104 a2_x6
+1.400804208641296 a2_x4
+1.2758917623055606 a2_x3
<= 189.95999438405281

a2_local_7: 
+0.92871378714409647 a2_x6
+0.97454969749439169 a2_x3
+1.0767579999809382 a2_x5
<= 111.06235664576442

a2_local_8: 
+0.78168112142113444 a2_x5
+1.279294040237215 a2_x3
+1.0427330043233893 a2_x4
<= 130.61200414097001

a2_act_1: 
+0.10000000000000001 a2_x1
-10 a2_z1
<= 0

a2_act_2: 
+0.10000000000000001 a2_x2
-10 a2_z2
<= 0

a3_local_1: 
+0.93126784523215711 a3_x4
+1.0738049263911913 a3_x2
+0.94722641192316082 a3_x6
<= 98.044679449036096

a3_local_2: 
+0.91186650051630269 a3_x4
+1.5855868663387476 a3_x6
+0.63068130875042094 a3_x3
<= 116.80512136231313

a3_local_3: 
+1.0949848362245811 a3_x4
+0.91325465606256129 a3_x2
+0.95963247686136777 a3_x3
<= 93.204457591921539

a3_local_4: 
+1.070146604324556 a3_x2
+1.3939400213497106 a3_x4
+0.71739098145107416 a3_x3
<= 164.95585983668121

a3_local_5: 
+0.90265322112945068 a3_x4
+1.1078451575775063 a3_x6
+0.95875510752175996 a3_x1
<= 111.89586572723856

a3_local_6: 
+0.90638225907679648 a3_x3
+1.0535564505687585 a3_x4
+1.1032872609604678 a3_x1
<= 104.61821272218762

a3_local_7: 
+1.0224101848897671 a3_x4
+0.82643913357730203 a3_x1
+1.2100104646199739 a3_x6
<= 178.26601003975492

a3_local_8: 
+1.0085953951483932 a3_x2
+0.9914778560463996 a3_x3
+0.99814337026916711 a3_x1
<= 116.23282734815236

a3_act_1: 
+0.10000000000000001 a3_x1
-10 a3_z1
<= 0

a3_act_2: 
+0.10000000000000001 a3_x2
-10 a3_z2
<= 0

a4_local_1: 
+0.89633879767285585 a4_x1
+1.1156495764729557 a4_x4
+0.98904099682245006 a4_x5
<= 94.340778784648009

a4_local_2: 
+0.92326042774078843 a4_x6
+1.0831180130258509 a4_x2
+1.0030128151955038 a4_x3
<= 117.33826047210884

a4_local_3: 
+1.0129571380879037 a4_x1
+0.98720860182459247 a4_x4
+1.0076277719744067 a4_x5
<= 147.18196920441773

a4_local_4: 
+0.71017452675661286 a4_x2
+1.4081045747543612 a4_x6
+1.3270037176459015 a4_x5
<= 120.32050415952578

a4_local_5: 
+0.84812426917146089 a4_x2
+0.73876325011160304 a4_x5
+1.3536136236459149 a4_x1
<= 159.21126829417773

a4_local_6: 
+0.84123829877085554 a4_x5
+1.188723815191383 a4_x6
+0.98031800258427515 a4_x4
<= 209.60246495256737

a4_local_7: 
+0.70970419192545464 a4_x1
+1.1397962532622108 a4_x5
+1.4090377531615836 a4_x2
<= 109.52979807921719

a4_local_8: 
+1.0143610439847406 a4_x1
+0.9402939032361165 a4_x6
+1.0634972709685759 a4_x5
<= 149.22365694881921

a4_act_1: 
+0.10000000000000001 a4_x1
-10 a4_z1
<= 0

a4_act_2: 
+0.10000000000000001 a4_x2
-10 a4_z2
<= 0

coupling_1: 
+6.0416265927064595e-05 a1_x1
+0.0021980073902997561 a2_x1
+0.050515223475114508 a3_x1
+0.99863598490997552 a4_x1
+0.0092072513143078103 short_1
-0.0092072513143078103 surp_1
= 62.476902542946995

coupling_2: 
+5.7103754204648338e-05 a1_x2
+0.0014170651924913225 a2_x2
+0.031548671012114546 a3_x2
+0.99943251714598758 a4_x2
+0.008285942734715496 short_2
-0.008285942734715496 surp_2
= 41.131449280582594

coupling_3: 
+0.00016520002150744112 a1_x3
+0.0027966328885449558 a2_x3
+0.066070244600200584 a3_x3
+0.99749223419707966 a4_x3
+0.01783419536210766 short_3
-0.01783419536210766 surp_3
= 47.227020455724983

bounds
  0 <= a1_x1 <= 100
  0 <= a1_x2 <= 100
  0 <= a1_x3 <= 100
  0 <= a1_x4 <= 100
  0 <= a1_x5 <= 100
  0 <= a1_x6 <= 100
  0 <= a2_x1 <= 100
  0 <= a2_x2 <= 100
  0 <= a2_x3 <= 100
  0 <= a2_x4 <= 100
  0 <= a2_x5 <= 100
  0 <= a2_x6 <= 100
  0 <= a3_x1 <= 100
  0 <= a3_x2 <= 100
  0 <= a3_x3 <= 100
  0 <= a3_x4 <= 100
  0 <= a3_x5 <= 100
  0 <= a3_x6 <= 100
  0 <= a4_x1 <= 100
  0 <= a4_x2 <= 100
  0 <= a4_x3 <= 100
  0 <= a4_x4 <= 100
  0 <= a4_x5 <= 100
  0 <= a4_x6 <= 100
  0 <= short_1 <= +inf
  0 <= surp_1 <= +inf
  0 <= short_2 <= +inf
  0 <= surp_2 <= +inf
  0 <= short_3 <= +inf
  0 <= surp_3 <= +inf
 0 <= a1_z1 <= 1
 0 <= a1_z2 <= 1
 0 <= a2_z1 <= 1
 0 <= a2_z2 <= 1
 0 <= a3_z1 <= 1
 0 <= a3_z2 <= 1
 0 <= a4_z1 <= 1
 0 <= a4_z2 <= 1

binary
  a1_z1
  a1_z2
  a2_z1
  a2_z2
  a3_z1
  a3_z2
  a4_z1
  a4_z2
end
