min
obj: 
  +5.7129162548306427 a1_x1
  +9.0056358908477314 a1_x2
  +9.0172471176233611 a1_x3
  +9.406385688684578 a1_x4
  +5.7753562095118767 a1_x5
  +7.2881596650216451 a1_x6
  +20.355895911925103 a1_z1
  +36.986322019028464 a1_z2
  +9.5705581106952309 a2_x1
  +1.2604999258751248 a2_x2
  +5.3940318901522675 a2_x3
  +5.1816392623674004 a2_x4
  +3.5951202349319828 a2_x5
  +8.3242993176305013 a2_x6
  +8.2240572055779673 a2_z1
  +9.8483018703506104 a2_z2
  +4.4443242856945142 a3_x1
  +6.878356128261002 a3_x2
  +6.0922718983064614 a3_x3
  +7.9699820931728009 a3_x4
  +3.3886243612057902 a3_x5
  +8.8768505579425145 a3_x6
  +46.436857763791892 a3_z1
  +46.775047481358833 a3_z2
  +2.1426688948262615 a4_x1
  +3.7175386403807593 a4_x2
  +7.4752828100284079 a4_x3
  +1.4623010448148774 a4_x4
  +9.334818787187654 a4_x5
  +5.5099843569690403 a4_x6
  +29.024926983261683 a4_z1
  +40.430546823103057 a4_z2
  +1000000 short_1
  +1000000 surp_1
  +1000000 short_2
  +1000000 surp_2
  +1000000 short_3
  +1000000 surp_3

s.t.

a1_local_1: 
+0.0010601880956378677 a1_x1
+0.00069810076583414317 a1_x3
+0.00084679054795612767 a1_x4
<= 0.091040771819351093

a1_local_2: 
+0.0011880899091204907 a1_x3
+0.00053136372283527479 a1_x4
+0.0010707181094441543 a1_x5
<= 0.11720934339840897

a1_local_3: 
+0.00098902633868452037 a1_x2
+0.00060919940674206889 a1_x4
+0.0010710427981409185 a1_x1
<= 0.11222312437201049

a1_local_4: 
+0.00082321047218287093 a1_x2
+0.0010098440835338417 a1_x3
+0.0006557993717278077 a1_x4
<= 0.081611361103583843

a1_local_5: 
+0.0011708067214223417 a1_x1
+0.00061085046132833016 a1_x3
+0.0010819518953873021 a1_x2
<= 0.099166674839017505

a1_local_6: 
+0.00085112779134138264 a1_x2
+0.00083468631150077392 a1_x3
+0.00075569587871453735 a1_x4
<= 0.15243653851787758

a1_local_7: 
+0.00086652807460299293 a1_x1
+0.0012501795037520814 a1_x2
+0.0013720974339065811 a1_x4
<= 0.23041305891145236

a1_local_8: 
+0.001231479306389708 a1_x2
+0.0011782398371553563 a1_x6
+0.00069696147748122802 a1_x5
<= 0.18422220143884677

a1_act_1: 
+1 a1_x1
-100 a1_z1
<= 0

a1_act_2: 
+1 a1_x2
-100 a1_z2
<= 0

a2_local_1: 
+0.072864137030756046 a2_x5
+0.10508939013471458 a2_x6
+0.11753505198367341 a2_x2
<= 11.18858389997099

a2_local_2: 
+0.10781288765701989 a2_x4
+0.13253941994695981 a2_x6
+0.13290044996822439 a2_x2
<= 16.752455296756413

a2_local_3: 
+0.13624956719155987 a2_x6
+0.057892003368850919 a2_x1
+0.14529675163455497 a2_x2
<= 16.601900214473837

a2_local_4: 
+0.10681447171700914 a2_x6
+0.13455304237443388 a2_x2
+0.14859992136683028 a2_x5
<= 20.999175544988923

a2_local_5: 
+0.13364775493508829 a2_x2
+0.092811423622561076 a2_x5
+0.057519039081796002 a2_x1
<= 17.924868729139881

a2_local_6: 
+0.090199849509627922 a2_x2
+0.074304545955066623 a2_x4
+0.14260933820713959 a2_x3
<= 12.781318708753181

a2_local_7: 
+0.06605430754476159 a2_x5
+0.059116627428762364 a2_x1
+0.05537959759395511 a2_x6
<= 9.21643907929049

a2_local_8: 
+0.06449469194146859 a2_x3
+0.089414654395509913 a2_x2
+0.13204025352521459 a2_x5
<= 17.299348767028384

a2_act_1: 
+1 a2_x1
-100 a2_z1
<= 0

a2_act_2: 
+1 a2_x2
-100 a2_z2
<= 0

a3_local_1: 
+13.446668189460347 a3_x6
+10.68050699359112 a3_x4
+14.585570940010424 a3_x5
<= 2237.0402469654882

a3_local_2: 
+14.889108778033219 a3_x3
+10.975031545088672 a3_x6
+9.6339481940179201 a3_x5
<= 1174.1059405457836

a3_local_3: 
+9.6572683843211848 a3_x3
+7.934773371024316 a3_x5
+11.621249682902535 a3_x2
<= 1022.0519342035562

a3_local_4: 
+6.9998092932169165 a3_x1
+14.621368103559444 a3_x4
+7.6967009719048711 a3_x2
<= 1595.6522616089067

a3_local_5: 
+7.1808565093192369 a3_x2
+11.715684842680218 a3_x5
+10.109773697858234 a3_x3
<= 1522.8657060476969

a3_local_6: 
+9.0488473006735095 a3_x5
+10.173619348221401 a3_x3
+10.92011183370197 a3_x2
<= 1470.3379914369264

a3_local_7: 
+10.991799327335858 a3_x5
+9.4355176718383014 a3_x6
+14.654173868717216 a3_x1
<= 1587.6838614083604

a3_local_8: 
+12.437332025474568 a3_x4
+13.996052354277575 a3_x2
+5.6338743599306174 a3_x1
<= 1578.7437758431199

a3_act_1: 
+1 a3_x1
-100 a3_z1
<= 0

a3_act_2: 
+1 a3_x2
-100 a3_z2
<= 0

a4_local_1: 
+1390.6669355693828 a4_x2
+1459.4185742939478 a4_x5
+605.39378752929701 a4_x4
<= 149619.19128194809

a4_local_2: 
+1030.3358935906308 a4_x2
+935.71783637545241 a4_x4
+884.00878264942628 a4_x3
<= 162313.05406638328

a4_local_3: 
+910.22565302329281 a4_x6
+1432.3163774225068 a4_x4
+1161.2648742356537 a4_x1
<= 133219.00626813111

a4_local_4: 
+1121.937278696216 a4_x1
+725.75656458492722 a4_x6
+1045.7947562777847 a4_x3
<= 98562.688350291806

a4_local_5: 
+996.68313682538474 a4_x1
+1222.5237943971806 a4_x3
+1061.3345986633678 a4_x6
<= 162676.77761819039

a4_local_6: 
+824.41671436308343 a4_x6
+639.97214529514315 a4_x2
+779.53615631857724 a4_x4
<= 145726.37055733448

a4_local_7: 
+1125.7466778863411 a4_x3
+704.93122972634899 a4_x6
+732.53238780475283 a4_x4
<= 140567.61013797109

a4_local_8: 
+608.93881289209878 a4_x4
+930.5256520589254 a4_x5
+1197.7451305109762 a4_x6
<= 135050.97268569874

a4_act_1: 
+1 a4_x1
-100 a4_z1
<= 0

a4_act_2: 
+1 a4_x2
-100 a4_z2
<= 0

coupling_1: 
+0.00037189608727376735 a1_x1
+0.016540367947704894 a2_x1
+3.0247779744955858 a3_x1
+163.76290478815829 a4_x1
+0.28490577426787828 short_1
-0.28490577426787828 surp_1
= 12621.000287399136

coupling_2: 
+0.00038700155268042816 a1_x2
+0.038589157196442264 a2_x2
+3.6450860095838533 a3_x2
+417.62765530822986 a4_x2
+0.28490577426787828 short_2
-0.28490577426787828 surp_2
= 32423.890969915512

coupling_3: 
+0.00029799776568488788 a1_x3
+0.01819718754024173 a2_x3
+1.720700041580121 a3_x3
+206.4432116130817 a4_x3
+0.28490577426787828 short_3
-0.28490577426787828 surp_3
= 5933.18111541709

bounds
  0 <= a1_x1 <= 100
  0 <= a1_x2 <= 100
  0 <= a1_x3 <= 100
  0 <= a1_x4 <= 100
  0 <= a1_x5 <= 100
  0 <= a1_x6 <= 100
  0 <= a2_x1 <= 100
  0 <= a2_x2 <= 100
  0 <= a2_x3 <= 100
  0 <= a2_x4 <= 100
  0 <= a2_x5 <= 100
  0 <= a2_x6 <= 100
  0 <= a3_x1 <= 100
  0 <= a3_x2 <= 100
  0 <= a3_x3 <= 100
  0 <= a3_x4 <= 100
  0 <= a3_x5 <= 100
  0 <= a3_x6 <= 100
  0 <= a4_x1 <= 100
  0 <= a4_x2 <= 100
  0 <= a4_x3 <= 100
  0 <= a4_x4 <= 100
  0 <= a4_x5 <= 100
  0 <= a4_x6 <= 100
  0 <= short_1 <= +inf
  0 <= surp_1 <= +inf
  0 <= short_2 <= +inf
  0 <= surp_2 <= +inf
  0 <= short_3 <= +inf
  0 <= surp_3 <= +inf
 0 <= a1_z1 <= 1
 0 <= a1_z2 <= 1
 0 <= a2_z1 <= 1
 0 <= a2_z2 <= 1
 0 <= a3_z1 <= 1
 0 <= a3_z2 <= 1
 0 <= a4_z1 <= 1
 0 <= a4_z2 <= 1

binary
  a1_z1
  a1_z2
  a2_z1
  a2_z2
  a3_z1
  a3_z2
  a4_z1
  a4_z2
end
