min
obj: 
  +8.5242104678500681 a1_x1
  +7.6930756521091874 a1_x2
  +6.9189962156082423 a1_x3
  +9.2097073421305335 a1_x4
  +1.6783613276554563 a1_x5
  +5.9914602077021666 a1_x6
  +31.080729858907144 a1_z1
  +20.883867024027893 a1_z2
  +6.9077742042221582 a2_x1
  +5.0875445936298673 a2_x2
  +7.5917023578038236 a2_x3
  +8.2794490372741638 a2_x4
  +1.0351287904006585 a2_x5
  +5.7857723772906011 a2_x6
  +23.934213589769115 a2_z1
  +21.521505149496146 a2_z2
  +3.338751629164217 a3_x1
  +6.1106898664601106 a3_x2
  +6.5508211726549801 a3_x3
  +5.1951326468311683 a3_x4
  +3.9370151452755238 a3_x5
  +3.370609165759376 a3_x6
  +38.539597563502319 a3_z1
  +26.755532445572879 a3_z2
  +8.5438219758017482 a4_x1
  +7.1495610706401269 a4_x2
  +5.5659057933768521 a4_x3
  +2.526471255000704 a4_x4
  +2.3501129539553487 a4_x5
  +8.7808046110821252 a4_x6
  +7.4539102618189466 a4_z1
  +36.014449453139093 a4_z2
  +1000000 short_1
  +1000000 surp_1
  +1000000 short_2
  +1000000 surp_2
  +1000000 short_3
  +1000000 surp_3

s.t.

a1_local_1: 
+0.3176743525885522 a1_x6
+0.68436751439391019 a1_x2
+0.65629574960511927 a1_x4
<= 58.492372716020547

a1_local_2: 
+0.7185121068370055 a1_x5
+0.43740103016539983 a1_x2
+0.54075936528080093 a1_x1
<= 66.230322801693333

a1_local_3: 
+0.65568466547549031 a1_x4
+0.43558837821792012 a1_x2
+0.61671742655917905 a1_x1
<= 72.037781467725495

a1_local_4: 
+0.38622882175506784 a1_x4
+0.72437241943248842 a1_x2
+0.57106207649537977 a1_x6
<= 66.841978687296162

a1_local_5: 
+0.62525545523963921 a1_x5
+0.66502426339881271 a1_x2
+0.40840953072123315 a1_x1
<= 64.124917319382988

a1_local_6: 
+0.77489866536947238 a1_x2
+0.54073199048895926 a1_x5
+0.32732395706770168 a1_x6
<= 55.124801442517708

a1_local_7: 
+0.68611686944046657 a1_x3
+0.52140972845607847 a1_x4
+0.50732192594108561 a1_x6
<= 93.409479198848032

a1_local_8: 
+0.49376987604709494 a1_x6
+0.55164255586726163 a1_x2
+0.67222154091093478 a1_x5
<= 110.27803090240639

a1_act_1: 
+0.0099995000374968751 a1_x1
-0.99995000374968757 a1_z1
<= 0

a1_act_2: 
+0.0099995000374968751 a1_x2
-0.99995000374968757 a1_z2
<= 0

a2_local_1: 
+0.56289512722260826 a2_x6
+0.6360605139244665 a2_x3
+0.52780308674276133 a2_x2
<= 55.25269072087351

a2_local_2: 
+0.45423045356038877 a2_x5
+0.69663977101146546 a2_x3
+0.55530867497583414 a2_x2
<= 115.97140505515088

a2_local_3: 
+0.47785632872431483 a2_x3
+0.6457078661124801 a2_x5
+0.59557928165659635 a2_x4
<= 77.571546752832049

a2_local_4: 
+0.70224563162039333 a2_x3
+0.47833865743902115 a2_x5
+0.52729801978531055 a2_x4
<= 113.44376422185159

a2_local_5: 
+0.61266458497935938 a2_x3
+0.45877397385008223 a2_x1
+0.64355928027639631 a2_x2
<= 113.6491606360517

a2_local_6: 
+0.53805841436630841 a2_x3
+0.66623024124443786 a2_x6
+0.51636267136673653 a2_x5
<= 67.979128102166314

a2_local_7: 
+0.66085499873819809 a2_x4
+0.62848011400339399 a2_x5
+0.41022361821940129 a2_x2
<= 84.865111692139365

a2_local_8: 
+0.48587160219796111 a2_x4
+0.67622267057212537 a2_x2
+0.55376139806047253 a2_x1
<= 83.050316596584551

a2_act_1: 
+0.0099995000374968751 a2_x1
-0.99995000374968757 a2_z1
<= 0

a2_act_2: 
+0.0099995000374968751 a2_x2
-0.99995000374968757 a2_z2
<= 0

a3_local_1: 
+0.59340913264010053 a3_x6
+0.52646250251847349 a3_x1
+0.60885370553303708 a3_x5
<= 77.845883741935666

a3_local_2: 
+0.45436703455959232 a3_x4
+0.67724410283979541 a3_x2
+0.57869769575681129 a3_x6
<= 105.48197366833502

a3_local_3: 
+0.5499976119364951 a3_x3
+0.64547884568449709 a3_x2
+0.52996196716175925 a3_x6
<= 53.928377270883907

a3_local_4: 
+0.59332144269544351 a3_x2
+0.53291441018323293 a3_x3
+0.6033008346230383 a3_x5
<= 99.82285247129056

a3_local_5: 
+0.56496609094671768 a3_x6
+0.28733954843320086 a3_x1
+0.77346577169684083 a3_x5
<= 102.56123115405124

a3_local_6: 
+0.72897904951470371 a3_x6
+0.29319082280762343 a3_x2
+0.61856987219717385 a3_x1
<= 108.05043380607596

a3_local_7: 
+0.54362729812664112 a3_x2
+0.48780284547848002 a3_x1
+0.68302104262945396 a3_x6
<= 89.730204428759563

a3_local_8: 
+0.45456016235262348 a3_x1
+0.64967499502156933 a3_x5
+0.60934182496007994 a3_x4
<= 54.578123794802025

a3_act_1: 
+0.0099995000374968751 a3_x1
-0.99995000374968757 a3_z1
<= 0

a3_act_2: 
+0.0099995000374968751 a3_x2
-0.99995000374968757 a3_z2
<= 0

a4_local_1: 
+0.44300546256322271 a4_x3
+0.76618582054556195 a4_x5
+0.46551632466978971 a4_x6
<= 70.123975792984623

a4_local_2: 
+0.64504074541122014 a4_x4
+0.44552629876231042 a4_x3
+0.62082908587669605 a4_x2
<= 53.103031692876719

a4_local_3: 
+0.48971566141876233 a4_x5
+0.79548122065657356 a4_x6
+0.3569148337403642 a4_x4
<= 90.496105987709754

a4_local_4: 
+0.53313371780735686 a4_x1
+0.42144154845345616 a4_x3
+0.73359079886136724 a4_x6
<= 53.254805647591503

a4_local_5: 
+0.60919649902902562 a4_x6
+0.39663202287619453 a4_x5
+0.68670420415191591 a4_x1
<= 105.75764102848257

a4_local_6: 
+0.2873140190364436 a4_x4
+0.52803727872746331 a4_x1
+0.79914159367362514 a4_x3
<= 73.192751393232797

a4_local_7: 
+0.54054569515441209 a4_x6
+0.57517152458615106 a4_x2
+0.61399354129768824 a4_x1
<= 91.958965189700649

a4_local_8: 
+0.30893686338341508 a4_x3
+0.73265373068489503 a4_x2
+0.606445814031495 a4_x6
<= 111.07385028186067

a4_act_1: 
+0.0099995000374968751 a4_x1
-0.99995000374968757 a4_z1
<= 0

a4_act_2: 
+0.0099995000374968751 a4_x2
-0.99995000374968757 a4_z2
<= 0

coupling_1: 
+1.1137741986829483e-06 a1_x1
+0.00010767423067485037 a2_x1
+0.024789477451287283 a3_x1
+0.99968873678196679 a4_x1
+0.0019874310034838278 short_1
-0.0019874310034838278 surp_1
= 73.929406850040436

coupling_2: 
+6.1380912589729018e-07 a1_x2
+7.4581315959486679e-05 a2_x2
+0.010808902987337679 a3_x2
+0.99994090975125594 a4_x2
+0.00081824791211517281 short_2
-0.00081824791211517281 surp_2
= 33.576526809754313

coupling_3: 
+5.1841519936217123e-07 a1_x3
+6.0667156759810963e-05 a2_x3
+0.0088469363934099172 a3_x3
+0.99995998659358587 a4_x3
+0.00093628185758675363 short_3
-0.00093628185758675363 surp_3
= 23.47330404812385

bounds
  0 <= a1_x1 <= 100
  0 <= a1_x2 <= 100
  0 <= a1_x3 <= 100
  0 <= a1_x4 <= 100
  0 <= a1_x5 <= 100
  0 <= a1_x6 <= 100
  0 <= a2_x1 <= 100
  0 <= a2_x2 <= 100
  0 <= a2_x3 <= 100
  0 <= a2_x4 <= 100
  0 <= a2_x5 <= 100
  0 <= a2_x6 <= 100
  0 <= a3_x1 <= 100
  0 <= a3_x2 <= 100
  0 <= a3_x3 <= 100
  0 <= a3_x4 <= 100
  0 <= a3_x5 <= 100
  0 <= a3_x6 <= 100
  0 <= a4_x1 <= 100
  0 <= a4_x2 <= 100
  0 <= a4_x3 <= 100
  0 <= a4_x4 <= 100
  0 <= a4_x5 <= 100
  0 <= a4_x6 <= 100
  0 <= short_1 <= +inf
  0 <= surp_1 <= +inf
  0 <= short_2 <= +inf
  0 <= surp_2 <= +inf
  0 <= short_3 <= +inf
  0 <= surp_3 <= +inf
 0 <= a1_z1 <= 1
 0 <= a1_z2 <= 1
 0 <= a2_z1 <= 1
 0 <= a2_z2 <= 1
 0 <= a3_z1 <= 1
 0 <= a3_z2 <= 1
 0 <= a4_z1 <= 1
 0 <= a4_z2 <= 1

binary
  a1_z1
  a1_z2
  a2_z1
  a2_z2
  a3_z1
  a3_z2
  a4_z1
  a4_z2
end
