min
obj: 
  +5.2436233239928463 a1_x1
  +8.0695966456126804 a1_x2
  +3.4781022885686368 a1_x3
  +9.412058306823841 a1_x4
  +8.3165688602967034 a1_x5
  +6.8002801919710905 a1_x6
  +10.410503430419741 a1_z1
  +29.396440143420605 a1_z2
  +8.2806614137575387 a2_x1
  +6.0649431138157652 a2_x2
  +8.6541766135972331 a2_x3
  +4.3292904508020413 a2_x4
  +7.270244042047584 a2_x5
  +4.5318516777440347 a2_x6
  +14.3292458598275 a2_z1
  +33.495450643789965 a2_z2
  +3.4667216339522406 a3_x1
  +8.7306868906336064 a3_x2
  +5.7873163324378032 a3_x3
  +5.6599350909197002 a3_x4
  +4.8869920304691288 a3_x5
  +4.3356674135059086 a3_x6
  +5.900585939248967 a3_z1
  +40.303679684732423 a3_z2
  +4.5273516228701549 a4_x1
  +9.793261850532609 a4_x2
  +5.1742521510836195 a4_x3
  +5.4489998276629183 a4_x4
  +4.6550473123840108 a4_x5
  +5.1815797270979749 a4_x6
  +20.492987297835271 a4_z1
  +8.5742214275245221 a4_z2
  +1000000 short_1
  +1000000 surp_1
  +1000000 short_2
  +1000000 surp_2
  +1000000 short_3
  +1000000 surp_3

s.t.

a1_local_1: 
+1.2804747506447109 a1_x4
+0.7809603426358126 a1_x6
+0.98116625064417262 a1_x1
<= 199.62726175487663

a1_local_2: 
+1.0791845523965877 a1_x5
+0.59517578531382465 a1_x4
+1.6801758819417012 a1_x1
<= 104.85681522484604

a1_local_3: 
+1.2014616684302912 a1_x3
+0.83231952069390536 a1_x6
+1.1885118912215644 a1_x5
<= 113.16355479498874

a1_local_4: 
+0.70699757526425777 a1_x3
+1.3569808722081538 a1_x5
+1.414432007954519 a1_x4
<= 198.88312219831153

a1_local_5: 
+0.84485815904631634 a1_x5
+1.112662695475042 a1_x2
+1.1836306358558568 a1_x1
<= 194.0653308003582

a1_local_6: 
+1.1440887329125138 a1_x3
+0.83205074851504612 a1_x2
+1.2018497691212842 a1_x5
<= 194.57970574156059

a1_local_7: 
+0.66194989686676675 a1_x1
+1.5106883538064422 a1_x5
+0.75403805195422213 a1_x6
<= 182.98322264035292

a1_local_8: 
+0.9334152403384921 a1_x1
+1.1992770901521328 a1_x5
+0.83383565667309312 a1_x3
<= 173.6178213634316

a1_act_1: 
+0.10000000000000001 a1_x1
-10 a1_z1
<= 0

a1_act_2: 
+0.10000000000000001 a1_x2
-10 a1_z2
<= 0

a2_local_1: 
+0.73716610651001846 a2_x2
+1.3565463620327336 a2_x5
+1.2294774326665212 a2_x6
<= 169.47030244573563

a2_local_2: 
+1.4271263673444439 a2_x5
+1.0787568487123214 a2_x3
+0.70070879697974586 a2_x4
<= 111.87095474635345

a2_local_3: 
+1.1096855402478893 a2_x3
+1.0013044605984347 a2_x1
+0.90115619581436812 a2_x2
<= 149.46237335627623

a2_local_4: 
+0.66667545155617858 a2_x1
+1.4999802342590578 a2_x3
+1.2155545518539841 a2_x4
<= 236.03122247407961

a2_local_5: 
+0.76130476611049103 a2_x4
+1.0882847904716022 a2_x5
+1.3135344010901231 a2_x2
<= 142.98480390460614

a2_local_6: 
+0.86297675635168558 a2_x6
+1.0201330919625757 a2_x1
+1.1587797616097946 a2_x3
<= 113.24475415274357

a2_local_7: 
+1.108261349161499 a2_x4
+0.71893685308000665 a2_x6
+1.390942745132465 a2_x2
<= 215.22569184648773

a2_local_8: 
+0.94990359360639509 a2_x6
+1.1593314334400684 a2_x5
+0.86256610590874216 a2_x4
<= 162.73094216661838

a2_act_1: 
+0.10000000000000001 a2_x1
-10 a2_z1
<= 0

a2_act_2: 
+0.10000000000000001 a2_x2
-10 a2_z2
<= 0

a3_local_1: 
+1.3537493584158891 a3_x4
+0.92732935999177579 a3_x1
+0.73868917741919771 a3_x5
<= 181.4994251243962

a3_local_2: 
+0.67736683940912357 a3_x2
+0.62510955050727435 a3_x4
+1.5997195998501432 a3_x3
<= 157.96803973681833

a3_local_3: 
+1.1416738678502341 a3_x4
+0.87590688388356897 a3_x6
+1.0301911000833299 a3_x5
<= 126.36276828401927

a3_local_4: 
+1.4924252835179559 a3_x4
+0.67005029400385985 a3_x2
+1.009736064988259 a3_x6
<= 184.86653774743024

a3_local_5: 
+1.3957889398027177 a3_x3
+0.72196970650939141 a3_x4
+0.71644069635724517 a3_x2
<= 101.25655429420648

a3_local_6: 
+1.1910582635709721 a3_x4
+1.1587487420578078 a3_x1
+0.83958948993968563 a3_x6
<= 163.25666092650121

a3_local_7: 
+1.4164169916879767 a3_x4
+0.85996829379096362 a3_x5
+0.70600678039612963 a3_x2
<= 199.74485130932248

a3_local_8: 
+0.78118964058423679 a3_x2
+1.2800989005078445 a3_x5
+1.1277805149638249 a3_x3
<= 167.41371675394873

a3_act_1: 
+0.10000000000000001 a3_x1
-10 a3_z1
<= 0

a3_act_2: 
+0.10000000000000001 a3_x2
-10 a3_z2
<= 0

a4_local_1: 
+1.3915754745989484 a4_x5
+0.72851388165365538 a4_x6
+0.71860996277488987 a4_x2
<= 100.06339892882859

a4_local_2: 
+1.357574140107362 a4_x5
+0.72625092768622512 a4_x4
+1.3769345578475425 a4_x1
<= 180.39078907287794

a4_local_3: 
+0.8250428169438162 a4_x6
+0.82018453340095776 a4_x2
+1.2192378169500753 a4_x3
<= 121.6721288458839

a4_local_4: 
+0.93205234921750735 a4_x2
+0.84286411326198851 a4_x6
+1.1864308662162351 a4_x4
<= 176.68778826287499

a4_local_5: 
+1.3274007654088609 a4_x2
+0.75335198386147073 a4_x1
+1.0560586779073002 a4_x3
<= 143.36781157203063

a4_local_6: 
+1.001396354502069 a4_x3
+1.01224011499026 a4_x5
+0.98790789378034294 a4_x2
<= 150.9854451830366

a4_local_7: 
+0.64176927340222012 a4_x5
+1.5581923931924733 a4_x2
+0.67733752947946047 a4_x4
<= 140.21121870775491

a4_local_8: 
+1.1191572627626905 a4_x1
+1.3219672499530883 a4_x5
+0.75644839161899535 a4_x4
<= 192.92947780666688

a4_act_1: 
+0.10000000000000001 a4_x1
-10 a4_z1
<= 0

a4_act_2: 
+0.10000000000000001 a4_x2
-10 a4_z2
<= 0

coupling_1: 
+7.7243879524795134e-07 a1_x1
+5.6057330838680726e-05 a2_x1
+0.0083637781526693915 a3_x1
+0.99996446625106172 a4_x1
+0.00074508631074956275 short_1
-0.00074508631074956275 surp_1
= 28.199427110105699

coupling_2: 
+7.4763633196817255e-07 a1_x2
+6.4532696710433701e-05 a2_x2
+0.0097352435688204658 a3_x2
+0.99995189152367914 a4_x2
+0.00084720299936442522 short_2
-0.00084720299936442522 surp_2
= 67.89909578990877

coupling_3: 
+2.8424929081623584e-06 a1_x3
+0.00020058554532334538 a2_x3
+0.022393017638947375 a3_x3
+1.7889865554917423 a4_x3
+0.0024251109757555704 short_3
-0.0024251109757555704 surp_3
= 92.414388670572933

bounds
  0 <= a1_x1 <= 100
  0 <= a1_x2 <= 100
  0 <= a1_x3 <= 100
  0 <= a1_x4 <= 100
  0 <= a1_x5 <= 100
  0 <= a1_x6 <= 100
  0 <= a2_x1 <= 100
  0 <= a2_x2 <= 100
  0 <= a2_x3 <= 100
  0 <= a2_x4 <= 100
  0 <= a2_x5 <= 100
  0 <= a2_x6 <= 100
  0 <= a3_x1 <= 100
  0 <= a3_x2 <= 100
  0 <= a3_x3 <= 100
  0 <= a3_x4 <= 100
  0 <= a3_x5 <= 100
  0 <= a3_x6 <= 100
  0 <= a4_x1 <= 100
  0 <= a4_x2 <= 100
  0 <= a4_x3 <= 100
  0 <= a4_x4 <= 100
  0 <= a4_x5 <= 100
  0 <= a4_x6 <= 100
  0 <= short_1 <= +inf
  0 <= surp_1 <= +inf
  0 <= short_2 <= +inf
  0 <= surp_2 <= +inf
  0 <= short_3 <= +inf
  0 <= surp_3 <= +inf
 0 <= a1_z1 <= 1
 0 <= a1_z2 <= 1
 0 <= a2_z1 <= 1
 0 <= a2_z2 <= 1
 0 <= a3_z1 <= 1
 0 <= a3_z2 <= 1
 0 <= a4_z1 <= 1
 0 <= a4_z2 <= 1

binary
  a1_z1
  a1_z2
  a2_z1
  a2_z2
  a3_z1
  a3_z2
  a4_z1
  a4_z2
end
