min
obj: 
  +5.2436233239928463 a1_x1
  +8.0695966456126804 a1_x2
  +3.4781022885686368 a1_x3
  +9.412058306823841 a1_x4
  +8.3165688602967034 a1_x5
  +6.8002801919710905 a1_x6
  +10.410503430419741 a1_z1
  +29.396440143420605 a1_z2
  +8.2806614137575387 a2_x1
  +6.0649431138157652 a2_x2
  +8.6541766135972331 a2_x3
  +4.3292904508020413 a2_x4
  +7.270244042047584 a2_x5
  +4.5318516777440347 a2_x6
  +14.3292458598275 a2_z1
  +33.495450643789965 a2_z2
  +3.4667216339522406 a3_x1
  +8.7306868906336064 a3_x2
  +5.7873163324378032 a3_x3
  +5.6599350909197002 a3_x4
  +4.8869920304691288 a3_x5
  +4.3356674135059086 a3_x6
  +5.900585939248967 a3_z1
  +40.303679684732423 a3_z2
  +4.5273516228701549 a4_x1
  +9.793261850532609 a4_x2
  +5.1742521510836195 a4_x3
  +5.4489998276629183 a4_x4
  +4.6550473123840108 a4_x5
  +5.1815797270979749 a4_x6
  +20.492987297835271 a4_z1
  +8.5742214275245221 a4_z2
  +1000000 short_1
  +1000000 surp_1
  +1000000 short_2
  +1000000 surp_2
  +1000000 short_3
  +1000000 surp_3

s.t.

a1_local_1: 
+0.0013899837350269163 a1_x4
+0.00084774976891834335 a1_x6
+0.0010650777214201805 a1_x1
<= 0.21669981916279923

a1_local_2: 
+0.00090677427658082004 a1_x5
+0.00050009063877707823 a1_x4
+0.0014117513695807093 a1_x1
<= 0.088104914547680768

a1_local_3: 
+0.0010315489260569351 a1_x3
+0.00071461148554972465 a1_x6
+0.0010204305282558706 a1_x5
<= 0.097159773370105368

a1_local_4: 
+0.00073758039142452121 a1_x3
+0.0014156802199848759 a1_x5
+0.0014756165375539264 a1_x4
<= 0.20748627187855861

a1_local_5: 
+0.0010382173348933014 a1_x5
+0.0013673131826474629 a1_x2
+0.0014545232606186659 a1_x1
<= 0.23848025657486638

a1_local_6: 
+0.00081728509743204979 a1_x3
+0.000594379314738457 a1_x2
+0.00085854696178542514 a1_x5
<= 0.13899891607223042

a1_local_7: 
+0.00063596028887263662 a1_x1
+0.0014513754083666612 a1_x5
+0.00072443286057084441 a1_x6
<= 0.17579889910101018

a1_local_8: 
+0.0011579374288391542 a1_x1
+0.0014877492569468566 a1_x5
+0.0010344051335741114 a1_x3
<= 0.21537957061567076

a1_act_1: 
+1 a1_x1
-100 a1_z1
<= 0

a1_act_2: 
+1 a1_x2
-100 a1_z2
<= 0

a2_local_1: 
+0.072175654969378264 a2_x2
+0.13281894177090633 a2_x5
+0.12037767090634657 a2_x6
<= 16.592773282521179

a2_local_2: 
+0.14293542108356902 a2_x5
+0.1080440863161941 a2_x3
+0.070180265213394308 a2_x4
<= 11.204559308539203

a2_local_3: 
+0.12623165888456978 a2_x3
+0.11390282969860495 a2_x1
+0.10251051976972199 a2_x2
<= 17.002008808164749

a2_local_4: 
+0.059965926016389129 a2_x1
+0.13491977774742631 a2_x3
+0.1093363407265322 a2_x4
<= 21.230466475704397

a2_local_5: 
+0.072554429403127618 a2_x4
+0.10371652131402742 a2_x5
+0.12518342615845546 a2_x2
<= 13.626843443550896

a2_local_6: 
+0.071475505924706376 a2_x6
+0.084491880368612771 a2_x1
+0.095975203395417541 a2_x3
<= 9.379425386386341

a2_local_7: 
+0.11203237939918331 a2_x4
+0.0726761845021964 a2_x6
+0.14060819270032465 a2_x2
<= 21.75682331937367

a2_local_8: 
+0.084174262155648882 a2_x6
+0.10273239164531943 a2_x5
+0.076434983522575078 a2_x4
<= 14.420154928316352

a2_act_1: 
+1 a2_x1
-100 a2_z1
<= 0

a2_act_2: 
+1 a2_x2
-100 a2_z2
<= 0

a3_local_1: 
+12.282869230176093 a3_x4
+8.4138656770337228 a3_x1
+6.7022913152871411 a3_x5
<= 1646.7846801152211

a3_local_2: 
+5.5515775526371955 a3_x2
+5.1232861525411266 a3_x4
+13.111015928664006 a3_x3
<= 1294.6778206651152

a3_local_3: 
+14.435634053285646 a3_x4
+11.075204221242325 a3_x6
+13.026015698999579 a3_x5
<= 1597.7651168832067

a3_local_4: 
+14.485652857211031 a3_x4
+6.5035858498274539 a3_x2
+9.8006153315414668 a3_x6
<= 1794.336051726073

a3_local_5: 
+11.390066063527664 a3_x3
+5.8914943502632529 a3_x4
+5.8463759307780254 a3_x2
<= 826.28455484050403

a3_local_6: 
+14.233059729206747 a3_x4
+13.846963294142167 a3_x1
+10.033033415593028 a3_x6
<= 1950.9052388345108

a3_local_7: 
+13.861499920465086 a3_x4
+8.4159188331820722 a3_x5
+6.9092032838763018 a3_x2
<= 1954.7656211310239

a3_local_8: 
+6.7778110826676139 a3_x2
+11.10648178627136 a3_x5
+9.7849265735547739 a3_x3
<= 1452.52635961336

a3_act_1: 
+1 a3_x1
-100 a3_z1
<= 0

a3_act_2: 
+1 a3_x2
-100 a3_z2
<= 0

a4_local_1: 
+1414.0868601021493 a4_x5
+740.29898216289303 a4_x6
+730.23484852039974 a4_x2
<= 101682.11511718095

a4_local_2: 
+1306.8785430691464 a4_x5
+699.13069661309976 a4_x4
+1325.5159889234819 a4_x1
<= 173654.49491253015

a4_local_3: 
+870.4259175912083 a4_x6
+865.30039461971535 a4_x2
+1286.3043878278386 a4_x3
<= 128364.9432744122

a4_local_4: 
+1128.8921474436343 a4_x2
+1020.8682802230182 a4_x6
+1436.9927713617083 a4_x4
<= 214002.41830472121

a4_local_5: 
+1218.6004115751996 a4_x2
+691.60351682621774 a4_x1
+969.49886807471228 a4_x3
<= 131616.67428638198

a4_local_6: 
+1212.5653890802935 a4_x3
+1225.695822995239 a4_x5
+1196.2325548837214 a4_x2
<= 182824.43735763754

a4_local_7: 
+528.65619798879413 a4_x5
+1283.5579708471339 a4_x2
+557.95548015480233 a4_x4
<= 115498.7202869108

a4_local_8: 
+1154.5036559333455 a4_x1
+1363.7189998905585 a4_x5
+780.33933452139979 a4_x4
<= 199022.77801000891

a4_act_1: 
+1 a4_x1
-100 a4_z1
<= 0

a4_act_2: 
+1 a4_x2
-100 a4_z2
<= 0

coupling_1: 
+2.5141379910345048e-06 a1_x1
+0.00018245570523458396 a2_x1
+0.027222470610711182 a3_x1
+3.2546897822232381 a4_x1
+0.0024251109757555704 short_1
-0.0024251109757555704 surp_1
= 91.783648696939437

coupling_2: 
+2.1401022846824734e-06 a1_x2
+0.00018472426467444546 a2_x2
+0.027867047269794762 a3_x2
+2.8623533075081853 a4_x2
+0.0024251109757555704 short_2
-0.0024251109757555704 surp_2
= 194.3605518010645

coupling_3: 
+2.8424929081623584e-06 a1_x3
+0.00020058554532334538 a2_x3
+0.022393017638947375 a3_x3
+1.7889865554917423 a4_x3
+0.0024251109757555704 short_3
-0.0024251109757555704 surp_3
= 92.414388670572933

bounds
  0 <= a1_x1 <= 100
  0 <= a1_x2 <= 100
  0 <= a1_x3 <= 100
  0 <= a1_x4 <= 100
  0 <= a1_x5 <= 100
  0 <= a1_x6 <= 100
  0 <= a2_x1 <= 100
  0 <= a2_x2 <= 100
  0 <= a2_x3 <= 100
  0 <= a2_x4 <= 100
  0 <= a2_x5 <= 100
  0 <= a2_x6 <= 100
  0 <= a3_x1 <= 100
  0 <= a3_x2 <= 100
  0 <= a3_x3 <= 100
  0 <= a3_x4 <= 100
  0 <= a3_x5 <= 100
  0 <= a3_x6 <= 100
  0 <= a4_x1 <= 100
  0 <= a4_x2 <= 100
  0 <= a4_x3 <= 100
  0 <= a4_x4 <= 100
  0 <= a4_x5 <= 100
  0 <= a4_x6 <= 100
  0 <= short_1 <= +inf
  0 <= surp_1 <= +inf
  0 <= short_2 <= +inf
  0 <= surp_2 <= +inf
  0 <= short_3 <= +inf
  0 <= surp_3 <= +inf
 0 <= a1_z1 <= 1
 0 <= a1_z2 <= 1
 0 <= a2_z1 <= 1
 0 <= a2_z2 <= 1
 0 <= a3_z1 <= 1
 0 <= a3_z2 <= 1
 0 <= a4_z1 <= 1
 0 <= a4_z2 <= 1

binary
  a1_z1
  a1_z2
  a2_z1
  a2_z2
  a3_z1
  a3_z2
  a4_z1
  a4_z2
end
