min
obj: 
  +1.9679731558453351 a1_x1
  +5.1245063990813229 a1_x2
  +5.3289660462088069 a1_x3
  +7.7326436197250805 a1_x4
  +5.1395422066191525 a1_x5
  +1.4920260738512641 a1_x6
  +49.872667351617643 a1_z1
  +13.869581796168557 a1_z2
  +7.5341317217871078 a2_x1
  +3.4571921689270946 a2_x2
  +4.7657113746642423 a2_x3
  +9.3861788498988687 a2_x4
  +1.7288685547688603 a2_x5
  +5.9081608215551888 a2_x6
  +23.537170412908246 a2_z1
  +38.77106799595807 a2_z2
  +4.9087522557742478 a3_x1
  +9.9244206014586318 a3_x2
  +6.7861238771840311 a3_x3
  +8.6736711514090779 a3_x4
  +9.6443958243312533 a3_x5
  +8.9768883116585663 a3_x6
  +12.682768889922908 a3_z1
  +43.15224448184653 a3_z2
  +4.1276908151999692 a4_x1
  +7.0223714932865171 a4_x2
  +1.0610858298808366 a4_x3
  +7.0927412879620659 a4_x4
  +7.9355051703127861 a4_x5
  +7.5971307832819344 a4_x6
  +17.373101516361629 a4_z1
  +10.310923678881169 a4_z2
  +1000000 short_1
  +1000000 surp_1
  +1000000 short_2
  +1000000 surp_2
  +1000000 short_3
  +1000000 surp_3

s.t.

a1_local_1: 
+0.44685866575831845 a1_x3
+0.71098463243539267 a1_x6
+0.54297162474424476 a1_x2
<= 116.58434904728945

a1_local_2: 
+0.82850689794525345 a1_x4
+0.45899830670512554 a1_x6
+0.32077542689389565 a1_x2
<= 91.172631314095725

a1_local_3: 
+0.35334778835277669 a1_x4
+0.47615381976605559 a1_x5
+0.80524709275376816 a1_x2
<= 55.685556022616609

a1_local_4: 
+0.41453565163171713 a1_x2
+0.51903022836685797 a1_x1
+0.7475077361256639 a1_x4
<= 112.75825779237692

a1_local_5: 
+0.57162015603718541 a1_x5
+0.54879687047281278 a1_x2
+0.60997737021242893 a1_x4
<= 97.243587016014601

a1_local_6: 
+0.63753845244283325 a1_x4
+0.30159698133509755 a1_x6
+0.70893157815571617 a1_x1
<= 107.85664575150467

a1_local_7: 
+0.7864877538686309 a1_x5
+0.47309606050022551 a1_x4
+0.39701023986018646 a1_x3
<= 67.804782577415608

a1_local_8: 
+0.56785673666480851 a1_x6
+0.69294484902990772 a1_x3
+0.44425911676330576 a1_x2
<= 75.407172416870409

a1_act_1: 
+0.0099995000374968751 a1_x1
-0.99995000374968757 a1_z1
<= 0

a1_act_2: 
+0.0099995000374968751 a1_x2
-0.99995000374968757 a1_z2
<= 0

a2_local_1: 
+0.59605979258166908 a2_x3
+0.59499613659576789 a2_x6
+0.53915890153423973 a2_x4
<= 102.0152606966178

a2_local_2: 
+0.80885388210438747 a2_x6
+0.47433958090748157 a2_x4
+0.34750159623975269 a2_x3
<= 108.89060882658754

a2_local_3: 
+0.64649126272615132 a2_x2
+0.64435128810089581 a2_x3
+0.40848557470425167 a2_x4
<= 103.66224229668113

a2_local_4: 
+0.5441262130603558 a2_x6
+0.3476569174771752 a2_x5
+0.76358452838625857 a2_x2
<= 95.26701472751374

a2_local_5: 
+0.52461682870637993 a2_x4
+0.38778363135704452 a2_x5
+0.75789249784491519 a2_x3
<= 106.70841600536656

a2_local_6: 
+0.53695920744457337 a2_x2
+0.69862478227016833 a2_x5
+0.47286173786684793 a2_x1
<= 103.7900379553909

a2_local_7: 
+0.54890169735173377 a2_x4
+0.55012012730790993 a2_x3
+0.62934471649098178 a2_x5
<= 66.523721673512242

a2_local_8: 
+0.67991401742405388 a2_x6
+0.48238814928714796 a2_x4
+0.55228489236770117 a2_x3
<= 106.42831785159079

a2_act_1: 
+0.0099995000374968751 a2_x1
-0.99995000374968757 a2_z1
<= 0

a2_act_2: 
+0.0099995000374968751 a2_x2
-0.99995000374968757 a2_z2
<= 0

a3_local_1: 
+0.68123898476413813 a3_x1
+0.59980736569607007 a3_x3
+0.41969580614329105 a3_x4
<= 101.43706094717479

a3_local_2: 
+0.58625488668569259 a3_x1
+0.59996883553872793 a3_x6
+0.54437358883348497 a3_x5
<= 120.16042001306703

a3_local_3: 
+0.39009675296958457 a3_x6
+0.77452877572080103 a3_x2
+0.49792539491677279 a3_x3
<= 116.17340931891074

a3_local_4: 
+0.43632330244810225 a3_x1
+0.8384167102742538 a3_x6
+0.32661811902232263 a3_x2
<= 109.50420815912514

a3_local_5: 
+0.42946333906640533 a3_x4
+0.57346627027974151 a3_x6
+0.69763721033885251 a3_x3
<= 86.799348636584796

a3_local_6: 
+0.69637425408187803 a3_x6
+0.53485746922481825 a3_x3
+0.47852939916616483 a3_x1
<= 79.918457592841676

a3_local_7: 
+0.34044432783976447 a3_x6
+0.6869787224172641 a3_x5
+0.64199524498836802 a3_x1
<= 83.963073637636882

a3_local_8: 
+0.43162885350286873 a3_x4
+0.65674618696769393 a3_x6
+0.61836961336016005 a3_x5
<= 109.59483677186165

a3_act_1: 
+0.0099995000374968751 a3_x1
-0.99995000374968757 a3_z1
<= 0

a3_act_2: 
+0.0099995000374968751 a3_x2
-0.99995000374968757 a3_z2
<= 0

a4_local_1: 
+0.61427456718237716 a4_x4
+0.59559124871372604 a4_x1
+0.51762710571272008 a4_x5
<= 80.723597552860909

a4_local_2: 
+0.62017120756328636 a4_x4
+0.63591609040485719 a4_x1
+0.45934562071897111 a4_x6
<= 75.435452180379272

a4_local_3: 
+0.42196097359866236 a4_x3
+0.44179711012922679 a4_x5
+0.79168443854930781 a4_x1
<= 69.891749701328976

a4_local_4: 
+0.42309620134642045 a4_x3
+0.82483933706823143 a4_x5
+0.37500622985634474 a4_x6
<= 111.13637774120561

a4_local_5: 
+0.79116673665540416 a4_x4
+0.42842426796750238 a4_x5
+0.43647203968472953 a4_x6
<= 86.916588116065483

a4_local_6: 
+0.42870156750027261 a4_x5
+0.54544631784578268 a4_x2
+0.7202105805743807 a4_x1
<= 81.850410744477117

a4_local_7: 
+0.65353698555968531 a4_x2
+0.68987617818661706 a4_x3
+0.31138443647071834 a4_x1
<= 78.365528297613039

a4_local_8: 
+0.79234014268973307 a4_x1
+0.54240304102168113 a4_x2
+0.27927771012532604 a4_x4
<= 54.941989524826994

a4_act_1: 
+0.0099995000374968751 a4_x1
-0.99995000374968757 a4_z1
<= 0

a4_act_2: 
+0.0099995000374968751 a4_x2
-0.99995000374968757 a4_z2
<= 0

coupling_1: 
+9.9997223540954756e-07 a1_x1
+8.7533408827882169e-05 a2_x1
+0.0086927622831591417 a3_x1
+0.99996170583231769 a4_x1
+0.00071242182448667238 short_1
-0.00071242182448667238 surp_1
= 43.245329251785051

coupling_2: 
+9.2028593894063202e-07 a1_x2
+0.0001184351751559478 a2_x2
+0.012065821006745152 a3_x2
+0.99992506341112486 a4_x2
+0.0014610780186686083 short_2
-0.0014610780186686083 surp_2
= 24.933733594604856

coupling_3: 
+1.9544258611162989e-06 a1_x3
+0.00012372283631918602 a2_x3
+0.01153806290814118 a3_x3
+0.9999315439800267 a4_x3
+0.0013720690375213262 short_3
-0.0013720690375213262 surp_3
= 54.100570705934338

bounds
  0 <= a1_x1 <= 100
  0 <= a1_x2 <= 100
  0 <= a1_x3 <= 100
  0 <= a1_x4 <= 100
  0 <= a1_x5 <= 100
  0 <= a1_x6 <= 100
  0 <= a2_x1 <= 100
  0 <= a2_x2 <= 100
  0 <= a2_x3 <= 100
  0 <= a2_x4 <= 100
  0 <= a2_x5 <= 100
  0 <= a2_x6 <= 100
  0 <= a3_x1 <= 100
  0 <= a3_x2 <= 100
  0 <= a3_x3 <= 100
  0 <= a3_x4 <= 100
  0 <= a3_x5 <= 100
  0 <= a3_x6 <= 100
  0 <= a4_x1 <= 100
  0 <= a4_x2 <= 100
  0 <= a4_x3 <= 100
  0 <= a4_x4 <= 100
  0 <= a4_x5 <= 100
  0 <= a4_x6 <= 100
  0 <= short_1 <= +inf
  0 <= surp_1 <= +inf
  0 <= short_2 <= +inf
  0 <= surp_2 <= +inf
  0 <= short_3 <= +inf
  0 <= surp_3 <= +inf
 0 <= a1_z1 <= 1
 0 <= a1_z2 <= 1
 0 <= a2_z1 <= 1
 0 <= a2_z2 <= 1
 0 <= a3_z1 <= 1
 0 <= a3_z2 <= 1
 0 <= a4_z1 <= 1
 0 <= a4_z2 <= 1

binary
  a1_z1
  a1_z2
  a2_z1
  a2_z2
  a3_z1
  a3_z2
  a4_z1
  a4_z2
end
