min
obj: 
  +1.8591431952918778 a1_x1
  +3.3231109040519993 a1_x2
  +9.2087059181463786 a1_x3
  +9.6203246603591985 a1_x4
  +2.6522167369866532 a1_x5
  +9.1942431803836406 a1_x6
  +15.231591264695247 a1_z1
  +37.870536168888826 a1_z2
  +9.5099240901526567 a2_x1
  +7.5753998333245365 a2_x2
  +7.2545869758953661 a2_x3
  +4.0776176539598987 a2_x4
  +7.0823179577413251 a2_x5
  +8.348071264940085 a2_x6
  +13.295788449057502 a2_z1
  +34.639218331961018 a2_z2
  +8.7650426689296079 a3_x1
  +7.7797720123238729 a3_x2
  +6.0483854765360672 a3_x3
  +6.4868155236610479 a3_x4
  +7.5914186799784584 a3_x5
  +2.6670787193002194 a3_x6
  +17.076428731733131 a3_z1
  +32.166931894716356 a3_z2
  +3.9578684115063361 a4_x1
  +4.7726522238702849 a4_x2
  +6.6226528859876028 a4_x3
  +9.5073045520096944 a4_x4
  +5.1085987408368467 a4_x5
  +6.1990863498809015 a4_x6
  +14.100841079092167 a4_z1
  +36.135322859790648 a4_z2
  +1000000 short_1
  +1000000 surp_1
  +1000000 short_2
  +1000000 surp_2
  +1000000 short_3
  +1000000 surp_3

s.t.

a1_local_1: 
+0.64217508433350889 a1_x5
+0.45606040268985232 a1_x4
+0.61613315943846125 a1_x3
<= 61.201218878626861

a1_local_2: 
+0.6961784645200112 a1_x2
+0.47322524293868906 a1_x4
+0.53980868368726564 a1_x3
<= 115.09745279685556

a1_local_3: 
+0.60081817168806717 a1_x1
+0.35679507331936433 a1_x6
+0.71534243563795197 a1_x3
<= 69.397213100709152

a1_local_4: 
+0.56570818785161292 a1_x3
+0.56531348531914016 a1_x6
+0.60032900106022757 a1_x5
<= 103.13451505582373

a1_local_5: 
+0.59849190138408193 a1_x2
+0.58422942869783401 a1_x3
+0.54816367867733506 a1_x5
<= 57.525146708585751

a1_local_6: 
+0.55633618212553704 a1_x4
+0.61227312293390845 a1_x3
+0.5617932674843481 a1_x2
<= 113.05533271663202

a1_local_7: 
+0.61042867510448773 a1_x6
+0.616172971271014 a1_x4
+0.49770242322619834 a1_x5
<= 115.15975688111656

a1_local_8: 
+0.54283426556040593 a1_x3
+0.75383860267237257 a1_x4
+0.37021388582069598 a1_x2
<= 114.43508715881072

a1_act_1: 
+0.0099995000374968751 a1_x1
-0.99995000374968757 a1_z1
<= 0

a1_act_2: 
+0.0099995000374968751 a1_x2
-0.99995000374968757 a1_z2
<= 0

a2_local_1: 
+0.60263711553627808 a2_x5
+0.73565016830327434 a2_x1
+0.30926903636393838 a2_x3
<= 106.01048710662101

a2_local_2: 
+0.56051942051105386 a2_x3
+0.51711376901831951 a2_x1
+0.64684722239615466 a2_x2
<= 103.23246911280518

a2_local_3: 
+0.45906282976003393 a2_x4
+0.62136517053484563 a2_x6
+0.63495404808451472 a2_x2
<= 56.466885028751072

a2_local_4: 
+0.69823877586255578 a2_x5
+0.56985261146242583 a2_x2
+0.43327890912368783 a2_x3
<= 92.518195269278792

a2_local_5: 
+0.63861542181410968 a2_x2
+0.56816630194893958 a2_x1
+0.51899652826474008 a2_x5
<= 57.358889792003382

a2_local_6: 
+0.28162261257256371 a2_x4
+0.79265699798367484 a2_x3
+0.54072505733996812 a2_x2
<= 112.80156495772545

a2_local_7: 
+0.63793935172220295 a2_x1
+0.69240931032943254 a2_x4
+0.33705004152703366 a2_x6
<= 83.669090655680392

a2_local_8: 
+0.52855387079303429 a2_x4
+0.52641457936556391 a2_x5
+0.66597184347469018 a2_x1
<= 106.75380784339536

a2_act_1: 
+0.0099995000374968751 a2_x1
-0.99995000374968757 a2_z1
<= 0

a2_act_2: 
+0.0099995000374968751 a2_x2
-0.99995000374968757 a2_z2
<= 0

a3_local_1: 
+0.77695571402146901 a3_x3
+0.47583175159447944 a3_x2
+0.41221834338602537 a3_x1
<= 96.493872676141407

a3_local_2: 
+0.77979534648255466 a3_x3
+0.30241108023066765 a3_x5
+0.54814848002879057 a3_x1
<= 95.866071971202715

a3_local_3: 
+0.63630279733364248 a3_x1
+0.56291361702021181 a3_x6
+0.52749124151838211 a3_x5
<= 98.309013205715786

a3_local_4: 
+0.57773816832688896 a3_x4
+0.41282279688239415 a3_x5
+0.7041277918336194 a3_x3
<= 57.563283397923719

a3_local_5: 
+0.5434459229589802 a3_x5
+0.65962931481753506 a3_x2
+0.51918753437713783 a3_x3
<= 59.644155392226331

a3_local_6: 
+0.42660488367981059 a3_x1
+0.54746771533748928 a3_x4
+0.71992178317070343 a3_x6
<= 84.273384808586599

a3_local_7: 
+0.54867801238597669 a3_x2
+0.6118516092718308 a3_x6
+0.56972804648853725 a3_x3
<= 103.27595107167618

a3_local_8: 
+0.7174798108035142 a3_x4
+0.62765459816003211 a3_x3
+0.30211326766284552 a3_x1
<= 71.929204771733993

a3_act_1: 
+0.0099995000374968751 a3_x1
-0.99995000374968757 a3_z1
<= 0

a3_act_2: 
+0.0099995000374968751 a3_x2
-0.99995000374968757 a3_z2
<= 0

a4_local_1: 
+0.39877525037721628 a4_x4
+0.8007892052641874 a4_x1
+0.4468947845063081 a4_x2
<= 57.786610640649613

a4_local_2: 
+0.67577792912305945 a4_x5
+0.62138450550508584 a4_x4
+0.39649147131855045 a4_x1
<= 54.97721133264573

a4_local_3: 
+0.80611437834912802 a4_x1
+0.3632852151083048 a4_x2
+0.46712253371306284 a4_x4
<= 64.923633682182356

a4_local_4: 
+0.63025010675943849 a4_x6
+0.3110741764431626 a4_x3
+0.71134918266623792 a4_x4
<= 71.425081188681133

a4_local_5: 
+0.26310618070075398 a4_x6
+0.72166925237012958 a4_x3
+0.64028792574950244 a4_x5
<= 50.748351878976244

a4_local_6: 
+0.47891534164462463 a4_x4
+0.49226515065902821 a4_x1
+0.72685288537919202 a4_x5
<= 84.692241084951036

a4_local_7: 
+0.37713455303123267 a4_x1
+0.38279576408675503 a4_x2
+0.84334864196675485 a4_x3
<= 82.104108191080655

a4_local_8: 
+0.51651382982070893 a4_x2
+0.70082942250654712 a4_x3
+0.49198738210759357 a4_x4
<= 112.30831402729419

a4_act_1: 
+0.0099995000374968751 a4_x1
-0.99995000374968757 a4_z1
<= 0

a4_act_2: 
+0.0099995000374968751 a4_x2
-0.99995000374968757 a4_z2
<= 0

coupling_1: 
+5.6809595236091475e-07 a1_x1
+7.3939760120022668e-05 a2_x1
+0.008731024443583927 a3_x1
+0.99996110190783205 a4_x1
+0.00088272759929626369 short_1
-0.00088272759929626369 surp_1
= 78.075696872778508

coupling_2: 
+9.4602151027677365e-07 a1_x2
+8.7780258874075798e-05 a2_x2
+0.010389817350081765 a3_x2
+0.99994501551851589 a4_x2
+0.0010024791364202463 short_2
-0.0010024791364202463 surp_2
= 44.758265809162531

coupling_3: 
+9.247495178570334e-07 a1_x3
+9.7421859402909352e-05 a2_x3
+0.006077117773158486 a3_x3
+0.99998108252132079 a4_x3
+0.00066848604501136642 short_3
-0.00066848604501136642 surp_3
= 70.393577348244207

bounds
  0 <= a1_x1 <= 100
  0 <= a1_x2 <= 100
  0 <= a1_x3 <= 100
  0 <= a1_x4 <= 100
  0 <= a1_x5 <= 100
  0 <= a1_x6 <= 100
  0 <= a2_x1 <= 100
  0 <= a2_x2 <= 100
  0 <= a2_x3 <= 100
  0 <= a2_x4 <= 100
  0 <= a2_x5 <= 100
  0 <= a2_x6 <= 100
  0 <= a3_x1 <= 100
  0 <= a3_x2 <= 100
  0 <= a3_x3 <= 100
  0 <= a3_x4 <= 100
  0 <= a3_x5 <= 100
  0 <= a3_x6 <= 100
  0 <= a4_x1 <= 100
  0 <= a4_x2 <= 100
  0 <= a4_x3 <= 100
  0 <= a4_x4 <= 100
  0 <= a4_x5 <= 100
  0 <= a4_x6 <= 100
  0 <= short_1 <= +inf
  0 <= surp_1 <= +inf
  0 <= short_2 <= +inf
  0 <= surp_2 <= +inf
  0 <= short_3 <= +inf
  0 <= surp_3 <= +inf
 0 <= a1_z1 <= 1
 0 <= a1_z2 <= 1
 0 <= a2_z1 <= 1
 0 <= a2_z2 <= 1
 0 <= a3_z1 <= 1
 0 <= a3_z2 <= 1
 0 <= a4_z1 <= 1
 0 <= a4_z2 <= 1

binary
  a1_z1
  a1_z2
  a2_z1
  a2_z2
  a3_z1
  a3_z2
  a4_z1
  a4_z2
end
