min
obj: 
  +2.6204029212029933 a1_x1
  +1.0229393332967094 a1_x2
  +7.1910932224071349 a1_x3
  +4.2632745770435907 a1_x4
  +6.0246265469097295 a1_x5
  +8.5542054222394626 a1_x6
  +28.114118371176183 a1_z1
  +36.337199795344134 a1_z2
  +2.3925011221889392 a2_x1
  +1.8354708126815493 a2_x2
  +3.2680190161516656 a2_x3
  +8.5745129304172316 a2_x4
  +5.2855415708546367 a2_x5
  +8.0750857020565832 a2_x6
  +37.679921062184903 a2_z1
  +30.786063311884963 a2_z2
  +6.9098336189226917 a3_x1
  +7.224692972136415 a3_x2
  +2.7635056217757095 a3_x3
  +4.5804152664090756 a3_x4
  +5.5391766018428115 a3_x5
  +2.5280261257879362 a3_x6
  +24.719908715545547 a3_z1
  +39.060952627342751 a3_z2
  +7.8772143187643042 a4_x1
  +7.8222341244321543 a4_x2
  +1.2624357252124174 a4_x3
  +2.9341291076023293 a4_x4
  +4.8680356039416175 a4_x5
  +9.5043443020751539 a4_x6
  +34.587285029007681 a4_z1
  +29.505942671624879 a4_z2
  +1000000 short_1
  +1000000 surp_1
  +1000000 short_2
  +1000000 surp_2
  +1000000 short_3
  +1000000 surp_3

s.t.

a1_local_1: 
+0.75502980325012869 a1_x3
+0.35081089551887329 a1_x5
+0.55395100125310548 a1_x4
<= 108.60564296931459

a1_local_2: 
+0.62841303478021882 a1_x6
+0.44056055071972733 a1_x5
+0.64109551462153114 a1_x4
<= 90.610196797227175

a1_local_3: 
+0.63498215683482184 a1_x4
+0.46663126057828358 a1_x3
+0.61567274355173451 a1_x1
<= 119.85713704597339

a1_local_4: 
+0.3505264362332573 a1_x4
+0.54873334654280737 a1_x2
+0.75896174600143307 a1_x5
<= 69.330448516834835

a1_local_5: 
+0.405259748324026 a1_x2
+0.6928671295052663 a1_x4
+0.59640563146191006 a1_x3
<= 55.048062867272705

a1_local_6: 
+0.75585786524523946 a1_x6
+0.52496663939931176 a1_x1
+0.3912657857067271 a1_x4
<= 102.94780994972547

a1_local_7: 
+0.67548295231229716 a1_x2
+0.3612975423367018 a1_x5
+0.64279613178434869 a1_x1
<= 88.357633408728603

a1_local_8: 
+0.66733118472078945 a1_x3
+0.67946383872989013 a1_x4
+0.30495570458279592 a1_x5
<= 50.244720849439503

a1_act_1: 
+0.0099995000374968751 a1_x1
-0.99995000374968757 a1_z1
<= 0

a1_act_2: 
+0.0099995000374968751 a1_x2
-0.99995000374968757 a1_z2
<= 0

a2_local_1: 
+0.48292022015104791 a2_x1
+0.38745005270371352 a2_x5
+0.7852837179192963 a2_x6
<= 77.79151432107507

a2_local_2: 
+0.61461332710670991 a2_x5
+0.30617508006837585 a2_x2
+0.72698506070478797 a2_x4
<= 95.297300308333689

a2_local_3: 
+0.51188102321135431 a2_x4
+0.78433271551981332 a2_x5
+0.35042832282995134 a2_x1
<= 55.610888400257068

a2_local_4: 
+0.45682963697545431 a2_x6
+0.68632278340903952 a2_x1
+0.56592200854406016 a2_x3
<= 92.248529208999557

a2_local_5: 
+0.55614099615882651 a2_x4
+0.37619132602491417 a2_x5
+0.74107170949583878 a2_x3
<= 51.839585607575813

a2_local_6: 
+0.61502114048335621 a2_x5
+0.56105503226920761 a2_x3
+0.55404534789487259 a2_x1
<= 117.36669436848112

a2_local_7: 
+0.58608058764092397 a2_x3
+0.58840804209569619 a2_x1
+0.55703278250707877 a2_x4
<= 68.088527016490985

a2_local_8: 
+0.57453920405693604 a2_x6
+0.50704105562017254 a2_x1
+0.64250608628806261 a2_x3
<= 107.47858305330504

a2_act_1: 
+0.0099995000374968751 a2_x1
-0.99995000374968757 a2_z1
<= 0

a2_act_2: 
+0.0099995000374968751 a2_x2
-0.99995000374968757 a2_z2
<= 0

a3_local_1: 
+0.71334596601488121 a3_x2
+0.42870852695676354 a3_x1
+0.55438843033098906 a3_x3
<= 90.595527584334747

a3_local_2: 
+0.45891974636093996 a3_x6
+0.40679936417937573 a3_x5
+0.78987780301972421 a3_x2
<= 63.52502358516341

a3_local_3: 
+0.71967027844480647 a3_x3
+0.36149796136872991 a3_x6
+0.59278488024698051 a3_x4
<= 88.686526461673566

a3_local_4: 
+0.57629350813981373 a3_x1
+0.42618038766477867 a3_x4
+0.69732063618238438 a3_x3
<= 82.194671333311319

a3_local_5: 
+0.63894696928891681 a3_x1
+0.58530010573426638 a3_x2
+0.49916986754407028 a3_x3
<= 82.271222307899777

a3_local_6: 
+0.27265474704289944 a3_x5
+0.78045180145997051 a3_x1
+0.56263165082748345 a3_x2
<= 101.23467106032653

a3_local_7: 
+0.72866034966597037 a3_x5
+0.3429723036300561 a3_x6
+0.59281033540868566 a3_x3
<= 75.760307269634438

a3_local_8: 
+0.6433052393453027 a3_x2
+0.29601460997692886 a3_x6
+0.70606920320255406 a3_x4
<= 69.789029819945554

a3_act_1: 
+0.0099995000374968751 a3_x1
-0.99995000374968757 a3_z1
<= 0

a3_act_2: 
+0.0099995000374968751 a3_x2
-0.99995000374968757 a3_z2
<= 0

a4_local_1: 
+0.65791246880169441 a4_x5
+0.49516223344381727 a4_x4
+0.5674200789240631 a4_x6
<= 56.042116960628157

a4_local_2: 
+0.46674499416990989 a4_x6
+0.78668078385317652 a4_x4
+0.40408223758720513 a4_x2
<= 63.559260707220268

a4_local_3: 
+0.33377120150127298 a4_x1
+0.5019535936728805 a4_x6
+0.79789684474077049 a4_x5
<= 104.06263543770652

a4_local_4: 
+0.72025674452349608 a4_x3
+0.50137787058483607 a4_x5
+0.47942721330378257 a4_x4
<= 97.145670923730833

a4_local_5: 
+0.68103785851420917 a4_x2
+0.28799577571302915 a4_x1
+0.67323537373034037 a4_x5
<= 53.321443202053416

a4_local_6: 
+0.7661478166946486 a4_x6
+0.49577561445159807 a4_x5
+0.408930389050708 a4_x4
<= 115.23755189929203

a4_local_7: 
+0.6975368981849015 a4_x6
+0.54096086259020271 a4_x1
+0.46989745776738362 a4_x4
<= 66.023181013893918

a4_local_8: 
+0.70757527686791455 a4_x6
+0.64999202479208451 a4_x1
+0.27721398823288151 a4_x2
<= 64.538364491553523

a4_act_1: 
+0.0099995000374968751 a4_x1
-0.99995000374968757 a4_z1
<= 0

a4_act_2: 
+0.0099995000374968751 a4_x2
-0.99995000374968757 a4_z2
<= 0

coupling_1: 
+5.9276048750095687e-07 a1_x1
+0.00010619741966749269 a2_x1
+0.010993291203626505 a3_x1
+0.99993892418731267 a4_x1
+0.00080130062678993713 short_1
-0.00080130062678993713 surp_1
= 57.150624554815458

coupling_2: 
+4.2541016413941226e-07 a1_x2
+9.5324929045310895e-05 a2_x2
+0.0057901673021179597 a3_x2
+0.99998251659255954 a4_x2
+0.0008459860523618738 short_2
-0.0008459860523618738 surp_2
= 70.391155214186384

coupling_3: 
+9.2377070231282374e-07 a1_x3
+9.4721075864236947e-05 a2_x3
+0.009604001737855054 a3_x3
+0.99995328218616764 a4_x3
+0.00077059158903233684 short_3
-0.00077059158903233684 surp_3
= 35.897560598132252

bounds
  0 <= a1_x1 <= 100
  0 <= a1_x2 <= 100
  0 <= a1_x3 <= 100
  0 <= a1_x4 <= 100
  0 <= a1_x5 <= 100
  0 <= a1_x6 <= 100
  0 <= a2_x1 <= 100
  0 <= a2_x2 <= 100
  0 <= a2_x3 <= 100
  0 <= a2_x4 <= 100
  0 <= a2_x5 <= 100
  0 <= a2_x6 <= 100
  0 <= a3_x1 <= 100
  0 <= a3_x2 <= 100
  0 <= a3_x3 <= 100
  0 <= a3_x4 <= 100
  0 <= a3_x5 <= 100
  0 <= a3_x6 <= 100
  0 <= a4_x1 <= 100
  0 <= a4_x2 <= 100
  0 <= a4_x3 <= 100
  0 <= a4_x4 <= 100
  0 <= a4_x5 <= 100
  0 <= a4_x6 <= 100
  0 <= short_1 <= +inf
  0 <= surp_1 <= +inf
  0 <= short_2 <= +inf
  0 <= surp_2 <= +inf
  0 <= short_3 <= +inf
  0 <= surp_3 <= +inf
 0 <= a1_z1 <= 1
 0 <= a1_z2 <= 1
 0 <= a2_z1 <= 1
 0 <= a2_z2 <= 1
 0 <= a3_z1 <= 1
 0 <= a3_z2 <= 1
 0 <= a4_z1 <= 1
 0 <= a4_z2 <= 1

binary
  a1_z1
  a1_z2
  a2_z1
  a2_z2
  a3_z1
  a3_z2
  a4_z1
  a4_z2
end
