min
obj: 
  +1.8591431952918778 a1_x1
  +3.3231109040519993 a1_x2
  +9.2087059181463786 a1_x3
  +9.6203246603591985 a1_x4
  +2.6522167369866532 a1_x5
  +9.1942431803836406 a1_x6
  +15.231591264695247 a1_z1
  +37.870536168888826 a1_z2
  +9.5099240901526567 a2_x1
  +7.5753998333245365 a2_x2
  +7.2545869758953661 a2_x3
  +4.0776176539598987 a2_x4
  +7.0823179577413251 a2_x5
  +8.348071264940085 a2_x6
  +13.295788449057502 a2_z1
  +34.639218331961018 a2_z2
  +8.7650426689296079 a3_x1
  +7.7797720123238729 a3_x2
  +6.0483854765360672 a3_x3
  +6.4868155236610479 a3_x4
  +7.5914186799784584 a3_x5
  +2.6670787193002194 a3_x6
  +17.076428731733131 a3_z1
  +32.166931894716356 a3_z2
  +3.9578684115063361 a4_x1
  +4.7726522238702849 a4_x2
  +6.6226528859876028 a4_x3
  +9.5073045520096944 a4_x4
  +5.1085987408368467 a4_x5
  +6.1990863498809015 a4_x6
  +14.100841079092167 a4_z1
  +36.135322859790648 a4_z2
  +1000000 short_1
  +1000000 surp_1
  +1000000 short_2
  +1000000 surp_2
  +1000000 short_3
  +1000000 surp_3

s.t.

a1_local_1: 
+0.00089464331444935651 a1_x5
+0.00063535848743651968 a1_x4
+0.00085836312455857765 a1_x3
<= 0.085262201293190565

a1_local_2: 
+0.0012771120422091706 a1_x2
+0.00086811311644212472 a1_x4
+0.00099025782261363197 a1_x3
<= 0.21114175529088147

a1_local_3: 
+0.0011067179300559848 a1_x1
+0.00065722297294827767 a1_x6
+0.0013176736938999682 a1_x3
<= 0.12783092065721602

a1_local_4: 
+0.0013139489388724202 a1_x3
+0.0013130321782795031 a1_x6
+0.0013943613878262112 a1_x5
<= 0.23954662408787133

a1_local_5: 
+0.0011988124675651492 a1_x2
+0.0011702439438557386 a1_x3
+0.0010980022465551173 a1_x5
<= 0.11522605888782221

a1_local_6: 
+0.0013613608138366119 a1_x4
+0.00149823912897958 a1_x3
+0.001374714362291547 a1_x2
<= 0.27664765424326399

a1_local_7: 
+0.00080740616413265927 a1_x6
+0.00081500407085396943 a1_x4
+0.00065830459938306365 a1_x5
<= 0.15232033054462313

a1_local_8: 
+0.00097705757572827076 a1_x3
+0.0013568482395949521 a1_x4
+0.00066635491664750158 a1_x2
<= 0.20597385966822118

a1_act_1: 
+1 a1_x1
-100 a1_z1
<= 0

a1_act_2: 
+1 a1_x2
-100 a1_z2
<= 0

a2_local_1: 
+0.1101791958489796 a2_x5
+0.13449776304881764 a2_x1
+0.056543171419577598 a2_x3
<= 19.381730596815508

a2_local_2: 
+0.1120216062628544 a2_x3
+0.10334684741744544 a2_x1
+0.12927449470602967 a2_x2
<= 20.631340476933367

a2_local_3: 
+0.080399564071905433 a2_x4
+0.10882494857312029 a2_x6
+0.1112048838682323 a2_x2
<= 9.8895241489779071

a2_local_4: 
+0.14408038668268822 a2_x5
+0.11758811949425135 a2_x2
+0.089406367744152115 a2_x3
<= 19.090972616230193

a2_local_5: 
+0.13739436840651295 a2_x2
+0.12223765280266199 a2_x1
+0.11165906392229791 a2_x5
<= 12.340429257226823

a2_local_6: 
+0.052747280480727958 a2_x4
+0.14846286885746326 a2_x3
+0.10127658429814473 a2_x2
<= 21.127478831115202

a2_local_7: 
+0.10495890633420234 a2_x1
+0.11392074144917053 a2_x4
+0.055454180155326022 a2_x6
<= 13.765910858908061

a2_local_8: 
+0.074950143774857578 a2_x4
+0.074646787373693291 a2_x5
+0.094436325560427234 a2_x1
<= 15.137933309183984

a2_act_1: 
+1 a2_x1
-100 a2_z1
<= 0

a2_act_2: 
+1 a2_x2
-100 a2_z2
<= 0

a3_local_1: 
+11.048317982897844 a3_x3
+6.7663322414664684 a3_x2
+5.8617489438868278 a3_x1
<= 1372.1438294201275

a3_local_2: 
+13.786592118827294 a3_x3
+5.3465543673226366 a3_x5
+9.6911318447848025 a3_x1
<= 1694.8888426467179

a3_local_3: 
+7.422840875392609 a3_x1
+6.5667135571962509 a3_x6
+6.153491019309751 a3_x5
<= 1146.8316102031329

a3_local_4: 
+9.4939721387810785 a3_x4
+6.7839176061456659 a3_x5
+11.570933000963537 a3_x3
<= 945.93751764628212

a3_local_5: 
+6.1617218994830214 a3_x5
+7.4790374220159066 a3_x2
+5.8866743963992798 a3_x3
<= 676.25992381249205

a3_local_6: 
+7.9723619530268852 a3_x1
+10.231038019581188 a3_x4
+13.453847466062218 a3_x6
<= 1574.8950666139922

a3_local_7: 
+9.6705396413552922 a3_x2
+10.783984611229332 a3_x6
+10.041549932719933 a3_x3
<= 1820.2555165172864

a3_local_8: 
+14.033669348322583 a3_x4
+12.276717703969473 a3_x3
+5.9092362464854533 a3_x1
<= 1406.9116106888478

a3_act_1: 
+1 a3_x1
-100 a3_z1
<= 0

a3_act_2: 
+1 a3_x2
-100 a3_z2
<= 0

a4_local_1: 
+674.59844590050375 a4_x4
+1354.6757298857303 a4_x1
+756.00109792124772 a4_x2
<= 97756.211538114527

a4_local_2: 
+921.43012424365713 a4_x5
+847.26413431944275 a4_x4
+540.62017999417958 a4_x1
<= 74961.990449357763

a4_local_3: 
+1474.917304923558 a4_x1
+664.68936019158105 a4_x2
+854.67661537571905 a4_x4
<= 118788.34243407627

a4_local_4: 
+1263.1070872433252 a4_x6
+623.43503429776297 a4_x3
+1425.6406853310159 a4_x4
<= 143145.59456439468

a4_local_5: 
+500.32041683754079 a4_x6
+1372.319951599012 a4_x3
+1217.5659311910547 a4_x5
<= 96502.623002937413

a4_local_6: 
+714.94825736606833 a4_x4
+734.87750552554792 a4_x1
+1085.0815552886656 a4_x5
<= 126432.72184219095

a4_local_7: 
+589.02308851630187 a4_x1
+597.86498325616219 a4_x2
+1317.1739841778644 a4_x3
<= 128233.31884570613

a4_local_8: 
+753.10121957964702 a4_x2
+1021.8419378822585 a4_x3
+717.34051653881033 a4_x4
<= 163750.75240918191

a4_act_1: 
+1 a4_x1
-100 a4_z1
<= 0

a4_act_2: 
+1 a4_x2
-100 a4_z2
<= 0

coupling_1: 
+1.5844074315419073e-06 a1_x1
+0.00020621640575633484 a2_x1
+0.024350639985901385 a3_x1
+2.7888700747317756 a4_x1
+0.0024619083493550541 short_1
-0.0024619083493550541 surp_1
= 217.75144468808645

coupling_2: 
+2.3232585798608841e-06 a1_x2
+0.00021557251854869696 a2_x2
+0.025515521623501892 a3_x2
+2.4556850044697693 a4_x2
+0.0024619083493550541 short_2
-0.0024619083493550541 surp_2
= 109.91824597139279

coupling_3: 
+3.4056785120107944e-06 a1_x3
+0.0003587863813516685 a2_x3
+0.022380881541810616 a3_x3
+3.6827422122394275 a4_x3
+0.0024619083493550541 short_3
-0.0024619083493550541 surp_3
= 259.24630305733086

bounds
  0 <= a1_x1 <= 100
  0 <= a1_x2 <= 100
  0 <= a1_x3 <= 100
  0 <= a1_x4 <= 100
  0 <= a1_x5 <= 100
  0 <= a1_x6 <= 100
  0 <= a2_x1 <= 100
  0 <= a2_x2 <= 100
  0 <= a2_x3 <= 100
  0 <= a2_x4 <= 100
  0 <= a2_x5 <= 100
  0 <= a2_x6 <= 100
  0 <= a3_x1 <= 100
  0 <= a3_x2 <= 100
  0 <= a3_x3 <= 100
  0 <= a3_x4 <= 100
  0 <= a3_x5 <= 100
  0 <= a3_x6 <= 100
  0 <= a4_x1 <= 100
  0 <= a4_x2 <= 100
  0 <= a4_x3 <= 100
  0 <= a4_x4 <= 100
  0 <= a4_x5 <= 100
  0 <= a4_x6 <= 100
  0 <= short_1 <= +inf
  0 <= surp_1 <= +inf
  0 <= short_2 <= +inf
  0 <= surp_2 <= +inf
  0 <= short_3 <= +inf
  0 <= surp_3 <= +inf
 0 <= a1_z1 <= 1
 0 <= a1_z2 <= 1
 0 <= a2_z1 <= 1
 0 <= a2_z2 <= 1
 0 <= a3_z1 <= 1
 0 <= a3_z2 <= 1
 0 <= a4_z1 <= 1
 0 <= a4_z2 <= 1

binary
  a1_z1
  a1_z2
  a2_z1
  a2_z2
  a3_z1
  a3_z2
  a4_z1
  a4_z2
end
