min
obj: 
  +1.8591431952918778 a1_x1
  +3.3231109040519993 a1_x2
  +9.2087059181463786 a1_x3
  +9.6203246603591985 a1_x4
  +2.6522167369866532 a1_x5
  +9.1942431803836406 a1_x6
  +15.231591264695247 a1_z1
  +37.870536168888826 a1_z2
  +9.5099240901526567 a2_x1
  +7.5753998333245365 a2_x2
  +7.2545869758953661 a2_x3
  +4.0776176539598987 a2_x4
  +7.0823179577413251 a2_x5
  +8.348071264940085 a2_x6
  +13.295788449057502 a2_z1
  +34.639218331961018 a2_z2
  +8.7650426689296079 a3_x1
  +7.7797720123238729 a3_x2
  +6.0483854765360672 a3_x3
  +6.4868155236610479 a3_x4
  +7.5914186799784584 a3_x5
  +2.6670787193002194 a3_x6
  +17.076428731733131 a3_z1
  +32.166931894716356 a3_z2
  +3.9578684115063361 a4_x1
  +4.7726522238702849 a4_x2
  +6.6226528859876028 a4_x3
  +9.5073045520096944 a4_x4
  +5.1085987408368467 a4_x5
  +6.1990863498809015 a4_x6
  +14.100841079092167 a4_z1
  +36.135322859790648 a4_z2
  +1000000 short_1
  +1000000 surp_1
  +1000000 short_2
  +1000000 surp_2
  +1000000 short_3
  +1000000 surp_3

s.t.

a1_local_1: 
+1.1866305975125664 a1_x5
+0.84272224405490281 a1_x4
+1.1385095388597537 a1_x3
<= 113.08946843027314

a1_local_2: 
+1.2129037560419322 a1_x2
+0.82446772468023277 a1_x4
+0.94047146436761941 a1_x3
<= 200.52635914903732

a1_local_3: 
+1.1892595302762889 a1_x1
+0.70624019261684512 a1_x6
+1.4159488661990205 a1_x3
<= 137.36484837459525

a1_local_4: 
+0.97107579677322953 a1_x3
+0.97039826357777581 a1_x6
+1.0305047293809912 a1_x5
<= 177.03726679827497

a1_local_5: 
+1.0448982723637366 a1_x2
+1.0199976295396134 a1_x3
+0.95703096315570624 a1_x5
<= 100.4323137443718

a1_local_6: 
+0.95322638536518689 a1_x4
+1.0490687368215201 a1_x3
+0.9625765551336436 a1_x2
<= 193.70900116544288

a1_local_7: 
+1.1022972577833718 a1_x6
+1.1126701681175293 a1_x4
+0.89873893329219889 a1_x5
<= 207.95268865003115

a1_local_8: 
+1.0275470468592081 a1_x3
+1.4269634014072226 a1_x4
+0.70078882122262853 a1_x2
<= 216.61756327360482

a1_act_1: 
+0.10000000000000001 a1_x1
-10 a1_z1
<= 0

a1_act_2: 
+0.10000000000000001 a1_x2
-10 a1_z2
<= 0

a2_local_1: 
+1.2634323298289094 a2_x5
+1.5422949933167263 a2_x1
+0.6483843910103646 a2_x3
<= 222.25162250789526

a2_local_2: 
+0.96916284171168166 a2_x3
+0.89411255262679934 a2_x1
+1.1184274251179178 a2_x2
<= 178.49349988812142

a2_local_3: 
+0.85028578090460427 a2_x4
+1.1509055732770221 a2_x6
+1.1760751766730917 a2_x2
<= 104.58914623303298

a2_local_4: 
+1.2694576204418775 a2_x5
+1.0360406284455312 a2_x2
+0.78773799447666193 a2_x3
<= 168.20596631722233

a2_local_5: 
+1.109270528514626 a2_x2
+0.98690089922469182 a2_x1
+0.901493345666593 a2_x5
<= 99.631991056283013

a2_local_6: 
+0.59606155638378677 a2_x4
+1.677679074065513 a2_x3
+1.144458594107842 a2_x2
<= 238.7474349344169

a2_local_7: 
+1.3205375370468466 a2_x1
+1.433290614260301 a2_x4
+0.69769521271586976 a2_x6
<= 173.19542148187574

a2_local_8: 
+0.89268321571713571 a2_x4
+0.88907013168472648 a2_x5
+1.1247706613482438 a2_x1
<= 180.29823967178345

a2_act_1: 
+0.10000000000000001 a2_x1
-10 a2_z1
<= 0

a2_act_2: 
+0.10000000000000001 a2_x2
-10 a2_z2
<= 0

a3_local_1: 
+1.3728859979630048 a3_x3
+0.84079792111834628 a3_x2
+0.72839259886380359 a3_x1
<= 170.50532520137813

a3_local_2: 
+1.6058000600626208 a3_x3
+0.62274253493364762 a3_x5
+1.1287793215538997 a3_x1
<= 197.4130069174102

a3_local_3: 
+1.0983083610594855 a3_x1
+0.97163289980533862 a3_x6
+0.91049111110776559 a3_x5
<= 169.68904053824167

a3_local_4: 
+1.0715772410266258 a3_x4
+0.76569549662475067 a3_x5
+1.3060021959226389 a3_x3
<= 106.76723088352342

a3_local_5: 
+0.92863325637435412 a3_x5
+1.127165910609339 a3_x2
+0.88718084053784585 a3_x3
<= 101.91914946017884

a3_local_6: 
+0.7697864356762355 a3_x1
+0.9878771607166259 a3_x4
+1.2990616015746346 a3_x6
<= 152.06696171547796

a3_local_7: 
+0.94696891904956715 a3_x2
+1.0560008674874548 a3_x6
+0.98329938535233496 a3_x3
<= 178.24500625580521

a3_local_8: 
+1.5410614029575271 a3_x4
+1.3481275166892883 a3_x3
+0.64890341039030008 a3_x1
<= 154.49538725697161

a3_act_1: 
+0.10000000000000001 a3_x1
-10 a3_z1
<= 0

a3_act_2: 
+0.10000000000000001 a3_x2
-10 a3_z2
<= 0

a4_local_1: 
+0.70567542439175346 a4_x4
+1.4170820825479866 a4_x1
+0.7908280827775469 a4_x2
<= 102.2595834356005

a4_local_2: 
+1.3055246517385701 a4_x5
+1.2004428602721426 a4_x4
+0.76597557822312845 a4_x1
<= 106.20960168342519

a4_local_3: 
+1.4896164927011655 a4_x1
+0.67131372732499139 a4_x2
+0.86319441635113625 a4_x4
<= 119.97220009538408

a4_local_4: 
+1.3397986303402847 a4_x6
+0.66128787772163233 a4_x3
+1.5122007127143315 a4_x4
<= 151.83690557479702

a4_local_5: 
+0.6038046095165206 a4_x6
+1.6561648987753204 a4_x3
+1.4694022008743077 a4_x5
<= 116.46282389976717

a4_local_6: 
+0.81171975453084677 a4_x4
+0.83434651703754115 a4_x1
+1.2319522771476403 a4_x5
<= 143.5459655730896

a4_local_7: 
+0.66872042334298254 a4_x1
+0.67875866413331765 a4_x2
+1.4953932392268301 a4_x3
<= 145.58383353219435

a4_local_8: 
+0.87962752140740263 a4_x2
+1.1935185705730331 a4_x3
+0.83785876873275567 a4_x4
<= 191.26203055504746

a4_act_1: 
+0.10000000000000001 a4_x1
-10 a4_z1
<= 0

a4_act_2: 
+0.10000000000000001 a4_x2
-10 a4_z2
<= 0

coupling_1: 
+5.6809595236091475e-07 a1_x1
+7.3939760120022668e-05 a2_x1
+0.008731024443583927 a3_x1
+0.99996110190783205 a4_x1
+0.00088272759929626369 short_1
-0.00088272759929626369 surp_1
= 78.075696872778508

coupling_2: 
+9.4602151027677365e-07 a1_x2
+8.7780258874075798e-05 a2_x2
+0.010389817350081765 a3_x2
+0.99994501551851589 a4_x2
+0.0010024791364202463 short_2
-0.0010024791364202463 surp_2
= 44.758265809162531

coupling_3: 
+9.247495178570334e-07 a1_x3
+9.7421859402909352e-05 a2_x3
+0.006077117773158486 a3_x3
+0.99998108252132079 a4_x3
+0.00066848604501136642 short_3
-0.00066848604501136642 surp_3
= 70.393577348244207

bounds
  0 <= a1_x1 <= 100
  0 <= a1_x2 <= 100
  0 <= a1_x3 <= 100
  0 <= a1_x4 <= 100
  0 <= a1_x5 <= 100
  0 <= a1_x6 <= 100
  0 <= a2_x1 <= 100
  0 <= a2_x2 <= 100
  0 <= a2_x3 <= 100
  0 <= a2_x4 <= 100
  0 <= a2_x5 <= 100
  0 <= a2_x6 <= 100
  0 <= a3_x1 <= 100
  0 <= a3_x2 <= 100
  0 <= a3_x3 <= 100
  0 <= a3_x4 <= 100
  0 <= a3_x5 <= 100
  0 <= a3_x6 <= 100
  0 <= a4_x1 <= 100
  0 <= a4_x2 <= 100
  0 <= a4_x3 <= 100
  0 <= a4_x4 <= 100
  0 <= a4_x5 <= 100
  0 <= a4_x6 <= 100
  0 <= short_1 <= +inf
  0 <= surp_1 <= +inf
  0 <= short_2 <= +inf
  0 <= surp_2 <= +inf
  0 <= short_3 <= +inf
  0 <= surp_3 <= +inf
 0 <= a1_z1 <= 1
 0 <= a1_z2 <= 1
 0 <= a2_z1 <= 1
 0 <= a2_z2 <= 1
 0 <= a3_z1 <= 1
 0 <= a3_z2 <= 1
 0 <= a4_z1 <= 1
 0 <= a4_z2 <= 1

binary
  a1_z1
  a1_z2
  a2_z1
  a2_z2
  a3_z1
  a3_z2
  a4_z1
  a4_z2
end
