min
obj: 
  +5.7129162548306427 a1_x1
  +9.0056358908477314 a1_x2
  +9.0172471176233611 a1_x3
  +9.406385688684578 a1_x4
  +5.7753562095118767 a1_x5
  +7.2881596650216451 a1_x6
  +20.355895911925103 a1_z1
  +36.986322019028464 a1_z2
  +9.5705581106952309 a2_x1
  +1.2604999258751248 a2_x2
  +5.3940318901522675 a2_x3
  +5.1816392623674004 a2_x4
  +3.5951202349319828 a2_x5
  +8.3242993176305013 a2_x6
  +8.2240572055779673 a2_z1
  +9.8483018703506104 a2_z2
  +4.4443242856945142 a3_x1
  +6.878356128261002 a3_x2
  +6.0922718983064614 a3_x3
  +7.9699820931728009 a3_x4
  +3.3886243612057902 a3_x5
  +8.8768505579425145 a3_x6
  +46.436857763791892 a3_z1
  +46.775047481358833 a3_z2
  +2.1426688948262615 a4_x1
  +3.7175386403807593 a4_x2
  +7.4752828100284079 a4_x3
  +1.4623010448148774 a4_x4
  +9.334818787187654 a4_x5
  +5.5099843569690403 a4_x6
  +29.024926983261683 a4_z1
  +40.430546823103057 a4_z2
  +1000000 short_1
  +1000000 surp_1
  +1000000 short_2
  +1000000 surp_2
  +1000000 short_3
  +1000000 surp_3

s.t.

a1_local_1: 
+0.69479125208272052 a1_x1
+0.45749835068840972 a1_x3
+0.55494177635740338 a1_x4
<= 59.663310787211685

a1_local_2: 
+0.70495917278386278 a1_x3
+0.31528735967011723 a1_x4
+0.63531602021367117 a1_x5
<= 69.54675831381239

a1_local_3: 
+0.62596231467382168 a1_x2
+0.38556695188663009 a1_x4
+0.67787115753736327 a1_x1
<= 71.02687152423691

a1_local_4: 
+0.56438140470326137 a1_x2
+0.69233475721564841 a1_x3
+0.44960673257450545 a1_x4
<= 55.9515897523153

a1_local_5: 
+0.68580351629667857 a1_x1
+0.35780747295462445 a1_x3
+0.63375653790153297 a1_x2
<= 58.087174475243657

a1_local_6: 
+0.60301586421584152 a1_x2
+0.59136723368593402 a1_x3
+0.53540327084046435 a1_x4
<= 107.99982323166805

a1_local_7: 
+0.42300015015955067 a1_x1
+0.61028157461119659 a1_x2
+0.66979644120813031 a1_x4
<= 112.47732344150538

a1_local_8: 
+0.66879392168088614 a1_x2
+0.63988053821378044 a1_x6
+0.37850705031471138 a1_x5
<= 100.04771328409404

a1_act_1: 
+0.0099995000374968751 a1_x1
-0.99995000374968757 a1_z1
<= 0

a1_act_2: 
+0.0099995000374968751 a1_x2
-0.99995000374968757 a1_z2
<= 0

a2_local_1: 
+0.41951212627840234 a2_x5
+0.6050476311289571 a2_x6
+0.67670299243509424 a2_x2
<= 64.41778923340425

a2_local_2: 
+0.49808411253051998 a2_x4
+0.61231807063367316 a2_x6
+0.61398599106179963 a2_x2
<= 77.394567667428817

a2_local_3: 
+0.65685081750642227 a2_x6
+0.27909380208489842 a2_x1
+0.70046673952368388 a2_x2
<= 80.036743989838584

a2_local_4: 
+0.47024367953840585 a2_x6
+0.59236091067204399 a2_x2
+0.65420137065124517 a2_x5
<= 92.447487843316708

a2_local_5: 
+0.77440698609889347 a2_x2
+0.53778542616001102 a2_x5
+0.33328764647241832 a2_x1
<= 103.86364945294805

a2_local_6: 
+0.48921620474191679 a2_x2
+0.4030049735651603 a2_x4
+0.77346913079945168 a2_x3
<= 69.321936392207192

a2_local_7: 
+0.6319656339378561 a2_x5
+0.5655903198132709 a2_x1
+0.5298367934138265 a2_x6
<= 88.17703162578006

a2_local_8: 
+0.37493635232564698 a2_x3
+0.51980718651910007 a2_x2
+0.76760876789405919 a2_x5
<= 100.5688147205236

a2_act_1: 
+0.0099995000374968751 a2_x1
-0.99995000374968757 a2_z1
<= 0

a2_act_2: 
+0.0099995000374968751 a2_x2
-0.99995000374968757 a2_z2
<= 0

a3_local_1: 
+0.59681975406716736 a3_x6
+0.47404587273329107 a3_x4
+0.64736905370873132 a3_x5
<= 99.289265654578472

a3_local_2: 
+0.71391929117014497 a3_x3
+0.52624283011482509 a3_x6
+0.46193909711980119 a3_x5
<= 56.297317275952274

a3_local_3: 
+0.56584994127175092 a3_x3
+0.46492350293259038 a3_x5
+0.68092582590444151 a3_x2
<= 59.885259882048189

a3_local_4: 
+0.39007143722254972 a3_x1
+0.81479049376990464 a3_x4
+0.42890642933550155 a3_x2
<= 88.919332644725813

a3_local_5: 
+0.420927931480853 a3_x2
+0.68675080476973382 a3_x5
+0.59261539690373666 a3_x3
<= 89.26744473140235

a3_local_6: 
+0.51844749248734756 a3_x5
+0.58289053460030937 a3_x3
+0.62566030895922053 a3_x2
<= 84.242005577066124

a3_local_7: 
+0.53343577926673891 a3_x5
+0.45790889845894633 a3_x6
+0.71117206786417131 a3_x1
<= 77.050840596529355

a3_local_8: 
+0.63608518661876168 a3_x4
+0.71580316063459859 a3_x2
+0.28813446616067034 a3_x1
<= 80.742037538558179

a3_act_1: 
+0.0099995000374968751 a3_x1
-0.99995000374968757 a3_z1
<= 0

a3_act_2: 
+0.0099995000374968751 a3_x2
-0.99995000374968757 a3_z2
<= 0

a4_local_1: 
+0.66069904971540938 a4_x2
+0.6933626165335125 a4_x5
+0.28761962328560958 a4_x4
<= 71.083344955417047

a4_local_2: 
+0.6248901242335827 a4_x2
+0.56750506185175642 a4_x4
+0.53614395213223442 a4_x3
<= 98.441513249438827

a4_local_3: 
+0.44264131437622811 a4_x6
+0.69653321876731566 a4_x4
+0.56472129582735575 a4_x1
<= 64.784194818679225

a4_local_4: 
+0.66120517301568904 a4_x1
+0.42771909264954833 a4_x6
+0.61633115851816223 a4_x3
<= 58.087168187582868

a4_local_5: 
+0.52425265155470113 a4_x1
+0.6430442305293278 a4_x3
+0.55825914674173494 a4_x6
<= 85.567547861153557

a4_local_6: 
+0.63287532907092314 a4_x6
+0.49128380707661318 a4_x2
+0.5984221242214226 a4_x4
<= 111.86894092999502

a4_local_7: 
+0.74216029705005382 a4_x3
+0.46473330202124563 a4_x6
+0.48292965478939648 a4_x4
<= 92.6706703603043

a4_local_8: 
+0.37257535466557795 a4_x4
+0.56933622475909473 a4_x5
+0.73283276964999344 a4_x6
<= 82.630082006648792

a4_act_1: 
+0.0099995000374968751 a4_x1
-0.99995000374968757 a4_z1
<= 0

a4_act_2: 
+0.0099995000374968751 a4_x2
-0.99995000374968757 a4_z2
<= 0

coupling_1: 
+2.2705480177257761e-06 a1_x1
+0.00010098439037480402 a2_x1
+0.018467265101920274 a3_x1
+0.99982643423201167 a4_x1
+0.0017394435250574593 short_1
-0.0017394435250574593 surp_1
= 77.0553607980697

coupling_2: 
+9.2663075853907731e-07 a1_x2
+9.2397303723095302e-05 a2_x2
+0.0087277396966673262 a3_x2
+0.99996144290594324 a4_x2
+0.00068217414605571572 short_2
-0.00068217414605571572 surp_2
= 77.635282019271898

coupling_3: 
+1.4434325255898121e-06 a1_x3
+8.8142984258538046e-05 a2_x3
+0.008334674594261373 a3_x3
+0.99996335759323485 a4_x3
+0.0013800179352400407 short_3
-0.0013800179352400407 surp_3
= 28.73896246344432

bounds
  0 <= a1_x1 <= 100
  0 <= a1_x2 <= 100
  0 <= a1_x3 <= 100
  0 <= a1_x4 <= 100
  0 <= a1_x5 <= 100
  0 <= a1_x6 <= 100
  0 <= a2_x1 <= 100
  0 <= a2_x2 <= 100
  0 <= a2_x3 <= 100
  0 <= a2_x4 <= 100
  0 <= a2_x5 <= 100
  0 <= a2_x6 <= 100
  0 <= a3_x1 <= 100
  0 <= a3_x2 <= 100
  0 <= a3_x3 <= 100
  0 <= a3_x4 <= 100
  0 <= a3_x5 <= 100
  0 <= a3_x6 <= 100
  0 <= a4_x1 <= 100
  0 <= a4_x2 <= 100
  0 <= a4_x3 <= 100
  0 <= a4_x4 <= 100
  0 <= a4_x5 <= 100
  0 <= a4_x6 <= 100
  0 <= short_1 <= +inf
  0 <= surp_1 <= +inf
  0 <= short_2 <= +inf
  0 <= surp_2 <= +inf
  0 <= short_3 <= +inf
  0 <= surp_3 <= +inf
 0 <= a1_z1 <= 1
 0 <= a1_z2 <= 1
 0 <= a2_z1 <= 1
 0 <= a2_z2 <= 1
 0 <= a3_z1 <= 1
 0 <= a3_z2 <= 1
 0 <= a4_z1 <= 1
 0 <= a4_z2 <= 1

binary
  a1_z1
  a1_z2
  a2_z1
  a2_z2
  a3_z1
  a3_z2
  a4_z1
  a4_z2
end
