min
obj: 
  +2.6204029212029933 a1_x1
  +1.0229393332967094 a1_x2
  +7.1910932224071349 a1_x3
  +4.2632745770435907 a1_x4
  +6.0246265469097295 a1_x5
  +8.5542054222394626 a1_x6
  +28.114118371176183 a1_z1
  +36.337199795344134 a1_z2
  +2.3925011221889392 a2_x1
  +1.8354708126815493 a2_x2
  +3.2680190161516656 a2_x3
  +8.5745129304172316 a2_x4
  +5.2855415708546367 a2_x5
  +8.0750857020565832 a2_x6
  +37.679921062184903 a2_z1
  +30.786063311884963 a2_z2
  +6.9098336189226917 a3_x1
  +7.224692972136415 a3_x2
  +2.7635056217757095 a3_x3
  +4.5804152664090756 a3_x4
  +5.5391766018428115 a3_x5
  +2.5280261257879362 a3_x6
  +24.719908715545547 a3_z1
  +39.060952627342751 a3_z2
  +7.8772143187643042 a4_x1
  +7.8222341244321543 a4_x2
  +1.2624357252124174 a4_x3
  +2.9341291076023293 a4_x4
  +4.8680356039416175 a4_x5
  +9.5043443020751539 a4_x6
  +34.587285029007681 a4_z1
  +29.505942671624879 a4_z2
  +1000000 short_1
  +1000000 surp_1
  +1000000 short_2
  +1000000 surp_2
  +1000000 short_3
  +1000000 surp_3

s.t.

a1_local_1: 
+0.0013625371621266162 a1_x3
+0.00063307816455164686 a1_x5
+0.00099966759186929542 a1_x4
<= 0.19599123627352147

a1_local_2: 
+0.0013833621076180008 a1_x6
+0.00096983152520084158 a1_x5
+0.0014112807870089153 a1_x4
<= 0.19946548826272001

a1_local_3: 
+0.0014490156228902406 a1_x4
+0.0010648424990039342 a1_x3
+0.0014049519571401553 a1_x1
<= 0.27351140850984601

a1_local_4: 
+0.00055163413817395867 a1_x4
+0.00086355839508213991 a1_x2
+0.0011944012359281816 a1_x5
<= 0.10910744030543844

a1_local_5: 
+0.00057194387692118497 a1_x2
+0.00097784473755248855 a1_x4
+0.00084170843634640187 a1_x3
<= 0.077689438991941709

a1_local_6: 
+0.0012896460877189352 a1_x6
+0.00089569905112334678 a1_x1
+0.00066757840725946449 a1_x4
<= 0.17564974374887224

a1_local_7: 
+0.0014698989791395141 a1_x2
+0.00078620916609128933 a1_x5
+0.0013987701313116349 a1_x1
<= 0.19227249881300845

a1_local_8: 
+0.0011997749428466222 a1_x3
+0.0012215878816147047 a1_x4
+0.00054827081577141993 a1_x5
<= 0.090333493272463844

a1_act_1: 
+1 a1_x1
-100 a1_z1
<= 0

a1_act_2: 
+1 a1_x2
-100 a1_z2
<= 0

a2_local_1: 
+0.091788938793641209 a2_x1
+0.073642866231798332 a2_x5
+0.14925935198404403 a2_x6
<= 14.78588025253622

a2_local_2: 
+0.1092465469584647 a2_x5
+0.05442213630423625 a2_x2
+0.12922044490356263 a2_x4
<= 16.938944428944566

a2_local_3: 
+0.086355434503462017 a2_x4
+0.13231862361115043 a2_x5
+0.059118015140414884 a2_x1
<= 9.3816770170533896

a2_local_4: 
+0.071380372233970577 a2_x6
+0.10723904884267449 a2_x1
+0.088426232353751105 a2_x3
<= 14.413982412722703

a2_local_5: 
+0.10759052044235046 a2_x4
+0.072777624437813312 a2_x5
+0.14336704443739506 a2_x3
<= 10.028838070844207

a2_local_6: 
+0.055811098052034935 a2_x5
+0.050913855406587882 a2_x3
+0.050277750147470504 a2_x1
<= 10.650632403130837

a2_local_7: 
+0.1238673114334695 a2_x3
+0.12435921567305015 a2_x1
+0.11772809849782935 a2_x4
<= 14.390414831765668

a2_local_8: 
+0.0575211341595432 a2_x6
+0.050763422893999904 a2_x1
+0.064325773640394143 a2_x3
<= 10.760431927764687

a2_act_1: 
+1 a2_x1
-100 a2_z1
<= 0

a2_act_2: 
+1 a2_x2
-100 a2_z2
<= 0

a3_local_1: 
+14.802998739077303 a3_x2
+8.8963449522615932 a3_x1
+11.50439145397435 a3_x3
<= 1879.9930811818367

a3_local_2: 
+7.080654621277346 a3_x6
+6.2764913053968838 a3_x5
+12.186993391644636 a3_x2
<= 980.12507716604853

a3_local_3: 
+11.463196463977122 a3_x3
+5.7580843291901651 a3_x6
+9.4421150166581906 a3_x4
<= 1412.6345174831868

a3_local_4: 
+10.697987732930262 a3_x1
+7.9113724080805481 a3_x4
+12.944667094858948 a3_x3
<= 1525.8155318707306

a3_local_5: 
+14.196061529162357 a3_x1
+13.004140739998977 a3_x2
+11.090507497117827 a3_x3
<= 1827.8940038828648

a3_local_6: 
+5.1175623117854663 a3_x5
+14.64860145892931 a3_x1
+10.560250877419497 a3_x2
<= 1900.1126621969731

a3_local_7: 
+13.221038499139226 a3_x5
+6.222995436090498 a3_x6
+10.756133870490878 a3_x3
<= 1374.6184207465351

a3_local_8: 
+11.620464057856461 a3_x2
+5.3471150636640887 a3_x6
+12.754212613789338 a3_x4
<= 1260.6471439292059

a3_act_1: 
+1 a3_x1
-100 a3_z1
<= 0

a3_act_2: 
+1 a3_x2
-100 a3_z2
<= 0

a4_local_1: 
+1307.4359603982782 a4_x5
+984.01070193230896 a4_x4
+1127.6050402093224 a4_x6
<= 111369.64639783523

a4_local_2: 
+809.52130996422864 a4_x6
+1364.4171156052757 a4_x4
+700.83918711679098 a4_x2
<= 110237.01728086776

a4_local_3: 
+572.342328978605 a4_x1
+860.73719826550428 a4_x6
+1368.2131242885891 a4_x5
<= 178443.9486036404

a4_local_4: 
+1075.4849126130321 a4_x3
+748.65572510366133 a4_x5
+715.8790785714159 a4_x4
<= 145057.58425526932

a4_local_5: 
+1367.3089241876855 a4_x2
+578.20455843654702 a4_x1
+1351.6439990407969 a4_x5
<= 107052.61716256455

a4_local_6: 
+1419.4314221294367 a4_x6
+918.51659711587683 a4_x5
+757.61965385007488 a4_x4
<= 213499.01234570649

a4_local_7: 
+1369.2673384369632 a4_x6
+1061.9080401981864 a4_x1
+922.41033128097774 a4_x4
<= 129603.73218575232

a4_local_8: 
+1430.7669664222931 a4_x6
+1314.3295814786622 a4_x1
+560.54617785610549 a4_x2
<= 130501.11133076456

a4_act_1: 
+1 a4_x1
-100 a4_z1
<= 0

a4_act_2: 
+1 a4_x2
-100 a4_z2
<= 0

coupling_1: 
+0.024573530669464182 a1_x1
+4.4025295279366574 a2_x1
+455.7388426640544 a3_x1
+41453.555591571516 a4_x1
+33.218788942728928 short_1
-33.218788942728928 surp_1
= 2369241.2954136445

coupling_2: 
+0.016704306669342056 a1_x2
+3.7430625364285284 a2_x2
+227.35876674935002 a3_x2
+39265.668827951253 a4_x2
+33.218788942728928 short_2
-33.218788942728928 surp_2
= 2764004.1132672359

coupling_3: 
+0.039822059348117861 a1_x3
+4.083251715105682 a2_x3
+414.01088628028236 a3_x3
+43106.150529418053 a4_x3
+33.218788942728928 short_3
-33.218788942728928 surp_3
= 1547477.945568566

bounds
  0 <= a1_x1 <= 100
  0 <= a1_x2 <= 100
  0 <= a1_x3 <= 100
  0 <= a1_x4 <= 100
  0 <= a1_x5 <= 100
  0 <= a1_x6 <= 100
  0 <= a2_x1 <= 100
  0 <= a2_x2 <= 100
  0 <= a2_x3 <= 100
  0 <= a2_x4 <= 100
  0 <= a2_x5 <= 100
  0 <= a2_x6 <= 100
  0 <= a3_x1 <= 100
  0 <= a3_x2 <= 100
  0 <= a3_x3 <= 100
  0 <= a3_x4 <= 100
  0 <= a3_x5 <= 100
  0 <= a3_x6 <= 100
  0 <= a4_x1 <= 100
  0 <= a4_x2 <= 100
  0 <= a4_x3 <= 100
  0 <= a4_x4 <= 100
  0 <= a4_x5 <= 100
  0 <= a4_x6 <= 100
  0 <= short_1 <= +inf
  0 <= surp_1 <= +inf
  0 <= short_2 <= +inf
  0 <= surp_2 <= +inf
  0 <= short_3 <= +inf
  0 <= surp_3 <= +inf
 0 <= a1_z1 <= 1
 0 <= a1_z2 <= 1
 0 <= a2_z1 <= 1
 0 <= a2_z2 <= 1
 0 <= a3_z1 <= 1
 0 <= a3_z2 <= 1
 0 <= a4_z1 <= 1
 0 <= a4_z2 <= 1

binary
  a1_z1
  a1_z2
  a2_z1
  a2_z2
  a3_z1
  a3_z2
  a4_z1
  a4_z2
end
