min
obj: 
  +8.0556013187453051 a1_x1
  +1.9742345173811016 a1_x2
  +4.4385591714508195 a1_x3
  +2.091774352732247 a1_x4
  +8.3606733491801819 a1_x5
  +3.1332851203907777 a1_x6
  +12.324732571684713 a1_z1
  +43.380471023797909 a1_z2
  +7.6338140335244935 a2_x1
  +9.9611693691396663 a2_x2
  +9.9407775368738864 a2_x3
  +8.2998138303753102 a2_x4
  +5.1593396215897407 a2_x5
  +2.2373011621221504 a2_x6
  +36.513419228591097 a2_z1
  +11.462176186336659 a2_z2
  +8.7735643157403977 a3_x1
  +3.6647749932252576 a3_x2
  +8.9894067496513301 a3_x3
  +1.8313374509796332 a3_x4
  +5.9661400049633215 a3_x5
  +2.3543550386909118 a3_x6
  +18.836022336426041 a3_z1
  +16.870832212175223 a3_z2
  +7.8515457332568142 a4_x1
  +9.0641405667365316 a4_x2
  +3.8803458463891136 a4_x3
  +5.5605295549433134 a4_x4
  +7.2488159045117166 a4_x5
  +9.9817052164747704 a4_x6
  +15.565550238545768 a4_z1
  +24.431792631400658 a4_z2
  +1000000 short_1
  +1000000 surp_1
  +1000000 short_2
  +1000000 surp_2
  +1000000 short_3
  +1000000 surp_3

s.t.

a1_local_1: 
+1.5412958802844956 a1_x2
+0.64880469272091867 a1_x5
+0.82354866599388254 a1_x3
<= 144.81913761239443

a1_local_2: 
+0.70802215372229937 a1_x6
+1.4123851841961153 a1_x4
+1.2316805685186332 a1_x2
<= 143.46366237467916

a1_local_3: 
+1.1188386723686028 a1_x5
+1.4995550495282874 a1_x3
+0.66686448111029228 a1_x4
<= 151.07521571720909

a1_local_4: 
+0.58954859312620811 a1_x6
+1.4267882018263904 a1_x1
+1.6962130207067159 a1_x4
<= 116.10014831700506

a1_local_5: 
+1.2112240432534866 a1_x3
+1.0980479938519654 a1_x4
+0.8256110878660281 a1_x1
<= 99.00855927475645

a1_local_6: 
+0.91640098371995971 a1_x3
+1.2902859017817252 a1_x5
+0.77502203086860355 a1_x1
<= 123.80058102561658

a1_local_7: 
+0.8303363644890005 a1_x3
+1.5729228230936056 a1_x6
+0.63575910103027955 a1_x5
<= 181.25580037660251

a1_local_8: 
+1.0115176344685197 a1_x5
+1.3772515071787008 a1_x6
+0.72608379427262315 a1_x2
<= 207.28213738239043

a1_act_1: 
+0.10000000000000001 a1_x1
-10 a1_z1
<= 0

a1_act_2: 
+0.10000000000000001 a1_x2
-10 a1_z2
<= 0

a2_local_1: 
+0.82234787478925864 a2_x1
+1.0500592000483819 a2_x6
+1.2160303816146762 a2_x5
<= 95.339478103648574

a2_local_2: 
+1.5361022895780363 a2_x2
+0.65099831357890736 a2_x4
+1.4801858174192994 a2_x3
<= 246.45371483297163

a2_local_3: 
+0.97199031021250504 a2_x6
+1.067977686104326 a2_x3
+0.93634915130831142 a2_x1
<= 179.7903823720016

a2_local_4: 
+0.9975392672619402 a2_x4
+1.0368589102046879 a2_x3
+0.96445137342995757 a2_x1
<= 119.62164277245182

a2_local_5: 
+1.1232856976590595 a2_x3
+0.89024546656653059 a2_x5
+0.93450455585374559 a2_x2
<= 135.0188928449345

a2_local_6: 
+0.86035218936046798 a2_x6
+0.68412117906789005 a2_x4
+1.4617293406447265 a2_x1
<= 136.90288589411128

a2_local_7: 
+0.83526915904650445 a2_x2
+1.1972188715090866 a2_x1
+0.86828938357981944 a2_x6
<= 164.97782244666831

a2_local_8: 
+1.2857601813430342 a2_x3
+1.0598725964565325 a2_x4
+0.77775001474649419 a2_x6
<= 164.18814674363117

a2_act_1: 
+0.10000000000000001 a2_x1
-10 a2_z1
<= 0

a2_act_2: 
+0.10000000000000001 a2_x2
-10 a2_z2
<= 0

a3_local_1: 
+1.2111512652002372 a3_x5
+0.82566069881838577 a3_x6
+0.9741375819250323 a3_x2
<= 168.84373285222929

a3_local_2: 
+1.0446735328653607 a3_x4
+0.8617036539599513 a3_x6
+1.1604917716253254 a3_x1
<= 140.4767299455003

a3_local_3: 
+0.71717730645114286 a3_x4
+0.67275177525811525 a3_x5
+1.4864323466353235 a3_x3
<= 88.698146152856552

a3_local_4: 
+1.0345089150269375 a3_x2
+0.69300080651697404 a3_x3
+1.4429997636308762 a3_x6
<= 138.3473655974397

a3_local_5: 
+0.97779403437756141 a3_x5
+1.1229434003206138 a3_x3
+0.89051683256207592 a3_x2
<= 103.99056061458687

a3_local_6: 
+1.0504216851970543 a3_x1
+1.003381424610899 a3_x5
+0.95199862502115473 a3_x3
<= 206.78122525662477

a3_local_7: 
+0.95708253145273692 a3_x5
+1.0814125840430218 a3_x6
+0.92471644472764625 a3_x3
<= 150.88766714333366

a3_local_8: 
+0.8553308774658468 a3_x5
+1.169138197094878 a3_x6
+1.0572916598604267 a3_x3
<= 127.70685624336301

a3_act_1: 
+0.10000000000000001 a3_x1
-10 a3_z1
<= 0

a3_act_2: 
+0.10000000000000001 a3_x2
-10 a3_z2
<= 0

a4_local_1: 
+1.3443654000705547 a4_x2
+0.74384538604423944 a4_x5
+1.1025862084928426 a4_x4
<= 198.94632314144113

a4_local_2: 
+0.86977398108841153 a4_x4
+1.0997728470841588 a4_x1
+1.1497239762778684 a4_x3
<= 129.18773429231041

a4_local_3: 
+1.2223058590821614 a4_x3
+0.81812583370164604 a4_x1
+1.0667549430116867 a4_x6
<= 108.03168303268447

a4_local_4: 
+1.2854144948413513 a4_x2
+0.74123955966548294 a4_x3
+1.3490915142889761 a4_x5
<= 122.75587196234146

a4_local_5: 
+1.3989937520565126 a4_x4
+0.71479947535863275 a4_x5
+0.94078205329664621 a4_x6
<= 177.25406669603638

a4_local_6: 
+0.59747702325111229 a4_x2
+1.6737045293534447 a4_x4
+0.61660544860557898 a4_x3
<= 164.67137581415551

a4_local_7: 
+1.1693877811240621 a4_x2
+0.85514832302998811 a4_x6
+1.0055147859728473 a4_x1
<= 125.76403506860233

a4_local_8: 
+1.0605306314575174 a4_x5
+1.1328899810977477 a4_x4
+0.88269824668324814 a4_x2
<= 108.30473355216249

a4_act_1: 
+0.10000000000000001 a4_x1
-10 a4_z1
<= 0

a4_act_2: 
+0.10000000000000001 a4_x2
-10 a4_z2
<= 0

coupling_1: 
+0.00098803390728721468 a1_x1
+0.17750285463013601 a2_x1
+15.454402321862036 a3_x1
+1012.1110142319304 a4_x1
+1.275016664098249 short_1
-1.275016664098249 surp_1
= 70355.277382075335

coupling_2: 
+0.0012931053032914344 a1_x2
+0.066954878601410001 a2_x2
+12.749122891816068 a3_x2
+773.33222395316739 a4_x2
+0.96706731948525237 short_2
-0.96706731948525237 surp_2
= 61667.94974488279

coupling_3: 
+0.00083094352236376043 a1_x3
+0.059941158517734287 a2_x3
+8.5115958350456751 a3_x3
+1203.4512251269853 a4_x3
+0.82245015537458521 short_3
-0.82245015537458521 surp_3
= 74327.403466377189

bounds
  0 <= a1_x1 <= 100
  0 <= a1_x2 <= 100
  0 <= a1_x3 <= 100
  0 <= a1_x4 <= 100
  0 <= a1_x5 <= 100
  0 <= a1_x6 <= 100
  0 <= a2_x1 <= 100
  0 <= a2_x2 <= 100
  0 <= a2_x3 <= 100
  0 <= a2_x4 <= 100
  0 <= a2_x5 <= 100
  0 <= a2_x6 <= 100
  0 <= a3_x1 <= 100
  0 <= a3_x2 <= 100
  0 <= a3_x3 <= 100
  0 <= a3_x4 <= 100
  0 <= a3_x5 <= 100
  0 <= a3_x6 <= 100
  0 <= a4_x1 <= 100
  0 <= a4_x2 <= 100
  0 <= a4_x3 <= 100
  0 <= a4_x4 <= 100
  0 <= a4_x5 <= 100
  0 <= a4_x6 <= 100
  0 <= short_1 <= +inf
  0 <= surp_1 <= +inf
  0 <= short_2 <= +inf
  0 <= surp_2 <= +inf
  0 <= short_3 <= +inf
  0 <= surp_3 <= +inf
 0 <= a1_z1 <= 1
 0 <= a1_z2 <= 1
 0 <= a2_z1 <= 1
 0 <= a2_z2 <= 1
 0 <= a3_z1 <= 1
 0 <= a3_z2 <= 1
 0 <= a4_z1 <= 1
 0 <= a4_z2 <= 1

binary
  a1_z1
  a1_z2
  a2_z1
  a2_z2
  a3_z1
  a3_z2
  a4_z1
  a4_z2
end
