min
obj: 
  +1.9679731558453351 a1_x1
  +5.1245063990813229 a1_x2
  +5.3289660462088069 a1_x3
  +7.7326436197250805 a1_x4
  +5.1395422066191525 a1_x5
  +1.4920260738512641 a1_x6
  +49.872667351617643 a1_z1
  +13.869581796168557 a1_z2
  +7.5341317217871078 a2_x1
  +3.4571921689270946 a2_x2
  +4.7657113746642423 a2_x3
  +9.3861788498988687 a2_x4
  +1.7288685547688603 a2_x5
  +5.9081608215551888 a2_x6
  +23.537170412908246 a2_z1
  +38.77106799595807 a2_z2
  +4.9087522557742478 a3_x1
  +9.9244206014586318 a3_x2
  +6.7861238771840311 a3_x3
  +8.6736711514090779 a3_x4
  +9.6443958243312533 a3_x5
  +8.9768883116585663 a3_x6
  +12.682768889922908 a3_z1
  +43.15224448184653 a3_z2
  +4.1276908151999692 a4_x1
  +7.0223714932865171 a4_x2
  +1.0610858298808366 a4_x3
  +7.0927412879620659 a4_x4
  +7.9355051703127861 a4_x5
  +7.5971307832819344 a4_x6
  +17.373101516361629 a4_z1
  +10.310923678881169 a4_z2
  +1000000 short_1
  +1000000 surp_1
  +1000000 short_2
  +1000000 surp_2
  +1000000 short_3
  +1000000 surp_3

s.t.

a1_local_1: 
+0.00057198717635448021 a1_x3
+0.00091007319204165576 a1_x6
+0.00069501350264971013 a1_x2
<= 0.14923007592461099

a1_local_2: 
+0.0013716565153331865 a1_x4
+0.00075990679073451473 a1_x6
+0.00053106824499470897 a1_x2
<= 0.15094326199600758

a1_local_3: 
+0.00050509108310422797 a1_x4
+0.00068063549985981529 a1_x5
+0.0011510560972847119 a1_x2
<= 0.079599416585689142

a1_local_4: 
+0.00067027707669014864 a1_x2
+0.00083923798306408343 a1_x1
+0.001208671191974373 a1_x4
<= 0.1823227389688907

a1_local_5: 
+0.0013946943376067589 a1_x5
+0.0013390078702804704 a1_x2
+0.0014882819916661474 a1_x4
<= 0.23726434197149429

a1_local_6: 
+0.0013401998514857136 a1_x4
+0.00063400133442159873 a1_x6
+0.0014902787308237189 a1_x1
<= 0.22673057611513281

a1_local_7: 
+0.0014426630003982436 a1_x5
+0.0008678052248882786 a1_x4
+0.00072824018048371446 a1_x3
<= 0.12437504664671993

a1_local_8: 
+0.0008297723944781383 a1_x6
+0.0010125555787149859 a1_x3
+0.00064916717066795381 a1_x2
<= 0.11018763356523556

a1_act_1: 
+1 a1_x1
-100 a1_z1
<= 0

a1_act_2: 
+1 a1_x2
-100 a1_z2
<= 0

a2_local_1: 
+0.12556612007156542 a2_x3
+0.1253420500086242 a2_x6
+0.1135793626919161 a2_x4
<= 21.49056291531096

a2_local_2: 
+0.1215251502494271 a2_x6
+0.071266504512606951 a2_x4
+0.05220990419812517 a2_x3
<= 16.36012126686542

a2_local_3: 
+0.11966018232006029 a2_x2
+0.11926409072751723 a2_x3
+0.075607299220268542 a2_x4
<= 19.18702313256393

a2_local_4: 
+0.096615432559182493 a2_x6
+0.061730206444811579 a2_x5
+0.13558260516545734 a2_x2
<= 16.915678046004722

a2_local_5: 
+0.097488920753936642 a2_x4
+0.072061370582146081 a2_x5
+0.14083826064939098 a2_x3
<= 19.829497916369021

a2_local_6: 
+0.10160042378045352 a2_x2
+0.13218988138778309 a2_x5
+0.089472258396449275 a2_x1
<= 19.638571597723409

a2_local_7: 
+0.098518746630346016 a2_x4
+0.098737434589808493 a2_x3
+0.11295693375746879 a2_x5
<= 11.939904197929165

a2_local_8: 
+0.088922777670890213 a2_x6
+0.06308929224999342 a2_x4
+0.072230760708636613 a2_x3
<= 13.919262441535054

a2_act_1: 
+1 a2_x1
-100 a2_z1
<= 0

a2_act_2: 
+1 a2_x2
-100 a2_z2
<= 0

a3_local_1: 
+10.863480532846193 a3_x1
+9.564918899867445 a3_x3
+6.6927426670001786 a3_x4
<= 1617.5814384584755

a3_local_2: 
+14.100917438385101 a3_x1
+14.430772702575954 a3_x6
+13.093565966118375 a3_x5
<= 2890.1629657107396

a3_local_3: 
+5.1044011409201628 a3_x6
+10.134679502889901 a3_x2
+6.5153348100399713 a3_x3
<= 1520.1246320506245

a3_local_4: 
+7.6709413599185918 a3_x1
+14.740091541305279 a3_x6
+5.7422292690983578 a3_x2
<= 1925.1787716583863

a3_local_5: 
+8.7909442410099778 a3_x4
+11.738627136575348 a3_x6
+14.280357037866532 a3_x3
<= 1776.7482450980915

a3_local_6: 
+10.758321268860179 a3_x6
+8.2630402448702949 a3_x3
+7.392825025692181 a3_x1
<= 1234.6643159993635

a3_local_7: 
+5.5411603060911787 a3_x6
+11.181444120224668 a3_x5
+10.449281357694327 a3_x1
<= 1366.6047948881169

a3_local_8: 
+8.9967847780708006 a3_x4
+13.68908507857137 a3_x6
+12.889171517499673 a3_x5
<= 2284.372676252714

a3_act_1: 
+1 a3_x1
-100 a3_z1
<= 0

a3_act_2: 
+1 a3_x2
-100 a3_z2
<= 0

a4_local_1: 
+1398.7653336921428 a4_x4
+1356.2215274067032 a4_x1
+1178.6892864073029 a4_x5
<= 183815.79817927565

a4_local_2: 
+997.68668171715728 a4_x4
+1023.0159129434057 a4_x1
+738.96208419132711 a4_x6
<= 121355.11138187718

a4_local_3: 
+746.29685314550352 a4_x3
+781.37982810660719 a4_x5
+1400.2043841513359 a4_x1
<= 123613.3105346033

a4_local_4: 
+762.43721813661011 a4_x3
+1486.3953104817178 a4_x5
+675.77705913144484 a4_x6
<= 200272.44491709775

a4_local_5: 
+1331.9813380499695 a4_x4
+721.28048774247543 a4_x5
+734.82944176643844 a4_x6
<= 146329.80378698558

a4_local_6: 
+720.33024760355181 a4_x5
+916.49182315632288 a4_x2
+1210.1412851295711 a4_x1
<= 137530.000139279

a4_local_7: 
+1216.7445157202358 a4_x2
+1284.4002327056403 a4_x3
+579.73047238009963 a4_x1
<= 145899.66426457366

a4_local_8: 
+1479.6501181840433 a4_x1
+1012.9068066987821 a4_x2
+521.5352277751789 a4_x4
<= 102601.03825827545

a4_act_1: 
+1 a4_x1
-100 a4_z1
<= 0

a4_act_2: 
+1 a4_x2
-100 a4_z2
<= 0

coupling_1: 
+0.00014237426397185191 a1_x1
+0.012462850680761951 a2_x1
+1.2376599950699403 a3_x1
+142.3727647894197 a4_x1
+0.10143334915417133 short_1
-0.10143334915417133 surp_1
= 6157.192874381788

coupling_2: 
+6.388959643051889e-05 a1_x2
+0.0082222005397601296 a2_x2
+0.83765317072127377 a3_x2
+69.418434052830847 a4_x2
+0.10143334915417133 short_2
-0.10143334915417133 surp_2
= 1730.9904557480593

coupling_3: 
+0.00014448541242843268 a1_x3
+0.0091464943173556051 a2_x3
+0.85297775222632488 a3_x3
+73.922231795292731 a4_x3
+0.10143334915417133 short_3
-0.10143334915417133 surp_3
= 3999.5087184304139

bounds
  0 <= a1_x1 <= 100
  0 <= a1_x2 <= 100
  0 <= a1_x3 <= 100
  0 <= a1_x4 <= 100
  0 <= a1_x5 <= 100
  0 <= a1_x6 <= 100
  0 <= a2_x1 <= 100
  0 <= a2_x2 <= 100
  0 <= a2_x3 <= 100
  0 <= a2_x4 <= 100
  0 <= a2_x5 <= 100
  0 <= a2_x6 <= 100
  0 <= a3_x1 <= 100
  0 <= a3_x2 <= 100
  0 <= a3_x3 <= 100
  0 <= a3_x4 <= 100
  0 <= a3_x5 <= 100
  0 <= a3_x6 <= 100
  0 <= a4_x1 <= 100
  0 <= a4_x2 <= 100
  0 <= a4_x3 <= 100
  0 <= a4_x4 <= 100
  0 <= a4_x5 <= 100
  0 <= a4_x6 <= 100
  0 <= short_1 <= +inf
  0 <= surp_1 <= +inf
  0 <= short_2 <= +inf
  0 <= surp_2 <= +inf
  0 <= short_3 <= +inf
  0 <= surp_3 <= +inf
 0 <= a1_z1 <= 1
 0 <= a1_z2 <= 1
 0 <= a2_z1 <= 1
 0 <= a2_z2 <= 1
 0 <= a3_z1 <= 1
 0 <= a3_z2 <= 1
 0 <= a4_z1 <= 1
 0 <= a4_z2 <= 1

binary
  a1_z1
  a1_z2
  a2_z1
  a2_z2
  a3_z1
  a3_z2
  a4_z1
  a4_z2
end
