min
obj: 
  +4.1029321056614965 a1_x1
  +3.3290118192963942 a1_x2
  +9.1017647242801925 a1_x3
  +1.0276781995025082 a1_x4
  +7.5015228430107515 a1_x5
  +9.6952211771409225 a1_x6
  +46.462393702811802 a1_z1
  +20.976939063031899 a1_z2
  +8.736124438174345 a2_x1
  +2.0422875685559534 a2_x2
  +7.9141637375248139 a2_x3
  +8.8510497644699591 a2_x4
  +5.3589026031734779 a2_x5
  +4.4651025961117679 a2_x6
  +43.599104627831977 a2_z1
  +13.736336737274122 a2_z2
  +8.7712175698219141 a3_x1
  +5.7628145052800139 a3_x2
  +8.5270938060320436 a3_x3
  +1.138926571582954 a3_x4
  +2.911442950069294 a3_x5
  +3.0275728231625529 a3_x6
  +21.64888772902043 a3_z1
  +37.443506250957391 a3_z2
  +3.737467766634015 a4_x1
  +6.3047039607963935 a4_x2
  +7.2324424815448989 a4_x3
  +3.5312943582825165 a4_x4
  +2.1943254476366931 a4_x5
  +2.7966711705726111 a4_x6
  +25.767819676338174 a4_z1
  +25.233732022591987 a4_z2
  +1000000 short_1
  +1000000 surp_1
  +1000000 short_2
  +1000000 surp_2
  +1000000 short_3
  +1000000 surp_3

s.t.

a1_local_1: 
+0.71415339693519386 a1_x6
+0.49741748420529769 a1_x1
+0.49250459089514659 a1_x4
<= 77.016942008229634

a1_local_2: 
+0.44737937552888835 a1_x6
+0.53786898669433547 a1_x5
+0.71452686968636148 a1_x4
<= 75.808377004217988

a1_local_3: 
+0.4878278375296824 a1_x1
+0.6787153564319186 a1_x5
+0.54897127964457981 a1_x6
<= 78.422254764904181

a1_local_4: 
+0.59696960297194601 a1_x4
+0.32650601690610193 a1_x5
+0.73281724464673281 a1_x3
<= 113.62347650379081

a1_local_5: 
+0.34244761139432639 a1_x6
+0.71006424913781596 a1_x2
+0.61525474036911765 a1_x1
<= 64.646293106808926

a1_local_6: 
+0.56540781634392889 a1_x5
+0.45313486529623132 a1_x1
+0.68918995572349762 a1_x6
<= 103.44414598299993

a1_local_7: 
+0.47103547738668566 a1_x5
+0.79789531776988298 a1_x1
+0.37614975863875638 a1_x3
<= 84.476916496315084

a1_local_8: 
+0.39553628862544649 a1_x1
+0.64977978573174155 a1_x3
+0.6491049795178121 a1_x4
<= 95.547126978520069

a1_act_1: 
+0.0099995000374968751 a1_x1
-0.99995000374968757 a1_z1
<= 0

a1_act_2: 
+0.0099995000374968751 a1_x2
-0.99995000374968757 a1_z2
<= 0

a2_local_1: 
+0.38036586297949787 a2_x4
+0.69618389575825801 a2_x5
+0.60881014574883419 a2_x1
<= 50.713463045034693

a2_local_2: 
+0.71188067622312234 a2_x4
+0.63246769998923369 a2_x5
+0.30530396540241456 a2_x2
<= 79.199293610666416

a2_local_3: 
+0.57287765613485175 a2_x6
+0.65900960135193287 a2_x3
+0.48735770890322949 a2_x4
<= 111.55836369302754

a2_local_4: 
+0.56038049128266665 a2_x3
+0.50035213053199046 a2_x2
+0.66001625014986953 a2_x5
<= 76.8705937813193

a2_local_5: 
+0.65523060180262305 a2_x3
+0.67391663327311346 a2_x4
+0.34133448384129672 a2_x5
<= 116.08739757168595

a2_local_6: 
+0.61029206666835589 a2_x1
+0.39922629507374396 a2_x4
+0.68422361745511162 a2_x5
<= 111.68466288427679

a2_local_7: 
+0.52856166473926569 a2_x6
+0.62673544335250764 a2_x2
+0.57256025937344945 a2_x4
<= 78.539646824717835

a2_local_8: 
+0.7001403822600113 a2_x5
+0.58141959388360576 a2_x1
+0.41443298731764588 a2_x3
<= 61.769907355192736

a2_act_1: 
+0.0099995000374968751 a2_x1
-0.99995000374968757 a2_z1
<= 0

a2_act_2: 
+0.0099995000374968751 a2_x2
-0.99995000374968757 a2_z2
<= 0

a3_local_1: 
+0.31073696813617063 a3_x4
+0.82345744714744407 a3_x2
+0.47472135971636575 a3_x6
<= 98.016706940914119

a3_local_2: 
+0.68035295515910232 a3_x1
+0.60231018646962076 a3_x4
+0.41754316624896065 a3_x2
<= 109.36515716015032

a3_local_3: 
+0.51122793403997036 a3_x3
+0.55872705184535776 a3_x6
+0.65304676784547255 a3_x5
<= 92.47539802129009

a3_local_4: 
+0.33481949451612902 a3_x6
+0.57798676603309973 a3_x4
+0.7441956761380456 a3_x1
<= 113.22264181575233

a3_local_5: 
+0.42675409405673342 a3_x6
+0.82453758382377484 a3_x4
+0.37150870254661383 a3_x3
<= 54.369782437400175

a3_local_6: 
+0.49382611132272169 a3_x2
+0.44420104054656456 a3_x6
+0.7475434484718787 a3_x5
<= 85.974552789248989

a3_local_7: 
+0.4867005333076862 a3_x3
+0.40651655200425718 a3_x4
+0.77321852268591174 a3_x5
<= 115.18369486482587

a3_local_8: 
+0.39338963232188406 a3_x5
+0.70881497427790463 a3_x1
+0.58551338961723698 a3_x6
<= 75.48634717131975

a3_act_1: 
+0.0099995000374968751 a3_x1
-0.99995000374968757 a3_z1
<= 0

a3_act_2: 
+0.0099995000374968751 a3_x2
-0.99995000374968757 a3_z2
<= 0

a4_local_1: 
+0.72092581497932895 a4_x5
+0.54493029806463456 a4_x2
+0.42815527504350454 a4_x1
<= 86.879862954514493

a4_local_2: 
+0.60563662410296837 a4_x4
+0.48343156649465174 a4_x6
+0.63205869985444163 a4_x2
<= 120.27268838154917

a4_local_3: 
+0.84876174958217065 a4_x3
+0.36336238643023222 a4_x6
+0.38415005996867868 a4_x4
<= 52.90801258108192

a4_local_4: 
+0.61061676789435215 a4_x6
+0.69934962234254383 a4_x1
+0.37156058522883767 a4_x2
<= 52.580395845799117

a4_local_5: 
+0.59235179150408668 a4_x5
+0.40664735829253296 a4_x6
+0.69552662141402122 a4_x1
<= 114.9108563738682

a4_local_6: 
+0.67759465028893873 a4_x1
+0.49705380418864575 a4_x3
+0.54203598186965996 a4_x6
<= 87.946770873411424

a4_local_7: 
+0.64610659315214303 a4_x1
+0.32822878004391909 a4_x3
+0.68906613487836688 a4_x6
<= 100.54988002712568

a4_local_8: 
+0.58907579279263733 a4_x1
+0.67829366958435333 a4_x3
+0.43921225864895674 a4_x4
<= 107.10259544161147

a4_act_1: 
+0.0099995000374968751 a4_x1
-0.99995000374968757 a4_z1
<= 0

a4_act_2: 
+0.0099995000374968751 a4_x2
-0.99995000374968757 a4_z2
<= 0

coupling_1: 
+8.4790977041207278e-07 a1_x1
+0.00014432316703545881 a2_x1
+0.0058061926765407583 a3_x1
+0.99998192050806278 a4_x1
+0.0011013522855977318 short_1
-0.0011013522855977318 surp_1
= 41.594562937587504

coupling_2: 
+9.0612446153665181e-07 a1_x2
+0.00015179149702467982 a2_x2
+0.0099370196872233928 a3_x2
+0.99994867083302219 a4_x2
+0.0013943273518490149 short_2
-0.0013943273518490149 surp_2
= 47.810142992600994

coupling_3: 
+1.1381040255915901e-06 a1_x3
+0.00014231244154821603 a2_x3
+0.0067759072393723937 a3_x3
+0.99997542345765356 a4_x3
+0.0012687213333830633 short_3
-0.0012687213333830633 surp_3
= 38.855502500116415

bounds
  0 <= a1_x1 <= 100
  0 <= a1_x2 <= 100
  0 <= a1_x3 <= 100
  0 <= a1_x4 <= 100
  0 <= a1_x5 <= 100
  0 <= a1_x6 <= 100
  0 <= a2_x1 <= 100
  0 <= a2_x2 <= 100
  0 <= a2_x3 <= 100
  0 <= a2_x4 <= 100
  0 <= a2_x5 <= 100
  0 <= a2_x6 <= 100
  0 <= a3_x1 <= 100
  0 <= a3_x2 <= 100
  0 <= a3_x3 <= 100
  0 <= a3_x4 <= 100
  0 <= a3_x5 <= 100
  0 <= a3_x6 <= 100
  0 <= a4_x1 <= 100
  0 <= a4_x2 <= 100
  0 <= a4_x3 <= 100
  0 <= a4_x4 <= 100
  0 <= a4_x5 <= 100
  0 <= a4_x6 <= 100
  0 <= short_1 <= +inf
  0 <= surp_1 <= +inf
  0 <= short_2 <= +inf
  0 <= surp_2 <= +inf
  0 <= short_3 <= +inf
  0 <= surp_3 <= +inf
 0 <= a1_z1 <= 1
 0 <= a1_z2 <= 1
 0 <= a2_z1 <= 1
 0 <= a2_z2 <= 1
 0 <= a3_z1 <= 1
 0 <= a3_z2 <= 1
 0 <= a4_z1 <= 1
 0 <= a4_z2 <= 1

binary
  a1_z1
  a1_z2
  a2_z1
  a2_z2
  a3_z1
  a3_z2
  a4_z1
  a4_z2
end
