min
obj: 
  +4.0871141162290519 a1_x1
  +7.6613663727576089 a1_x2
  +4.8999168943267346 a1_x3
  +9.1856075433138287 a1_x4
  +7.8055232956727103 a1_x5
  +3.4861746229099309 a1_x6
  +23.402378726140935 a1_z1
  +18.267560866392444 a1_z2
  +9.867310978744726 a2_x1
  +9.2615292817302226 a2_x2
  +3.5007890513184758 a2_x3
  +7.1637373168446201 a2_x4
  +7.9245284991421201 a2_x5
  +2.4582106797035337 a2_x6
  +33.658905491272137 a2_z1
  +35.254409520378104 a2_z2
  +2.6732854397558619 a3_x1
  +9.8971817318039896 a3_x2
  +5.2211213282041085 a3_x3
  +8.0114291145185241 a3_x4
  +2.5829750625381869 a3_x5
  +9.9025128730968675 a3_x6
  +27.0926152551414 a3_z1
  +47.996135855740022 a3_z2
  +8.2046274155609638 a4_x1
  +7.1214056561276049 a4_x2
  +6.2664722965402984 a4_x3
  +7.507966634456313 a4_x4
  +5.5736057519875928 a4_x5
  +1.8081083701963157 a4_x6
  +27.561079601884479 a4_z1
  +34.985951557117836 a4_z2
  +1000000 short_1
  +1000000 surp_1
  +1000000 short_2
  +1000000 surp_2
  +1000000 short_3
  +1000000 surp_3

s.t.

a1_local_1: 
+0.5117783252196525 a1_x6
+0.28450914320719156 a1_x4
+0.81064017496474783 a1_x2
<= 111.3755352657756

a1_local_2: 
+0.76791484251516673 a1_x6
+0.45663690431334675 a1_x3
+0.44920989778057008 a1_x2
<= 51.838027079838326

a1_local_3: 
+0.44698940347279709 a1_x6
+0.58502824507983375 a1_x4
+0.67671443433832779 a1_x1
<= 91.234533704569756

a1_local_4: 
+0.83720606385463103 a1_x4
+0.33374683498921243 a1_x5
+0.4332424918907643 a1_x2
<= 106.80870463993986

a1_local_5: 
+0.60174235782026153 a1_x5
+0.64665696882494073 a1_x1
+0.46876529252393678 a1_x4
<= 116.20051723862804

a1_local_6: 
+0.57223072458145841 a1_x2
+0.71499759773355109 a1_x6
+0.40165959851624394 a1_x1
<= 82.924668999894948

a1_local_7: 
+0.65645891170005344 a1_x2
+0.6508471752205307 a1_x1
+0.38139173005852772 a1_x3
<= 75.244920991161649

a1_local_8: 
+0.48537972898295123 a1_x2
+0.56254878232091121 a1_x4
+0.66928722249994943 a1_x3
<= 98.355368991308822

a1_act_1: 
+0.0099995000374968751 a1_x1
-0.99995000374968757 a1_z1
<= 0

a1_act_2: 
+0.0099995000374968751 a1_x2
-0.99995000374968757 a1_z2
<= 0

a2_local_1: 
+0.55571410427631696 a2_x6
+0.58934518470388286 a2_x2
+0.58639072944131465 a2_x4
<= 83.19901789010909

a2_local_2: 
+0.69075906951685329 a2_x2
+0.49320265374827926 a2_x3
+0.52877504689221677 a2_x6
<= 118.22104134092982

a2_local_3: 
+0.36015633363229949 a2_x4
+0.7161318914437439 a2_x6
+0.59786497589484688 a2_x2
<= 50.845466427953397

a2_local_4: 
+0.54336300846048124 a2_x6
+0.60044518396411573 a2_x2
+0.58670454412001471 a2_x4
<= 94.262846770322298

a2_local_5: 
+0.46614415501724027 a2_x2
+0.7710727912620603 a2_x3
+0.43376995898586423 a2_x1
<= 93.242355106820014

a2_local_6: 
+0.53151935085204005 a2_x4
+0.61139996690006304 a2_x6
+0.5862399339386799 a2_x2
<= 108.42191463594665

a2_local_7: 
+0.64469483020303764 a2_x5
+0.622949320031571 a2_x2
+0.44306062856191591 a2_x3
<= 115.43756188566074

a2_local_8: 
+0.31078607705219496 a2_x5
+0.63107269025990542 a2_x4
+0.71074557608094358 a2_x6
<= 72.150070046103821

a2_act_1: 
+0.0099995000374968751 a2_x1
-0.99995000374968757 a2_z1
<= 0

a2_act_2: 
+0.0099995000374968751 a2_x2
-0.99995000374968757 a2_z2
<= 0

a3_local_1: 
+0.35554942504552944 a3_x3
+0.48669195589681807 a3_x5
+0.79794457602964075 a3_x6
<= 102.77379265209926

a3_local_2: 
+0.6962209259674621 a3_x4
+0.55796445287334695 a3_x1
+0.45161055299312508 a3_x2
<= 111.01512121297971

a3_local_3: 
+0.54768870288172489 a3_x3
+0.64439965413949107 a3_x5
+0.5336536053289983 a3_x2
<= 68.678983711277596

a3_local_4: 
+0.70260879533184195 a3_x2
+0.55809959007910703 a3_x6
+0.44143598434639458 a3_x4
<= 115.79830774647951

a3_local_5: 
+0.46115077178689173 a3_x2
+0.6197412955387015 a3_x3
+0.63502810353902128 a3_x1
<= 96.897711167356505

a3_local_6: 
+0.5734002661364318 a3_x1
+0.46463369362578838 a3_x5
+0.67477971630920142 a3_x4
<= 76.455390934484114

a3_local_7: 
+0.37155754107264288 a3_x2
+0.8099070720602024 a3_x1
+0.45386730252235746 a3_x3
<= 63.048066978483391

a3_local_8: 
+0.5156199130326562 a3_x4
+0.54327962890760961 a3_x5
+0.66255818619816764 a3_x2
<= 94.768203938537738

a3_act_1: 
+0.0099995000374968751 a3_x1
-0.99995000374968757 a3_z1
<= 0

a3_act_2: 
+0.0099995000374968751 a3_x2
-0.99995000374968757 a3_z2
<= 0

a4_local_1: 
+0.82150988783141854 a4_x3
+0.38318117213540948 a4_x2
+0.42224837893844375 a4_x6
<= 103.22932457791134

a4_local_2: 
+0.68471316777683144 a4_x6
+0.61982427159996856 a4_x1
+0.38338720663134412 a4_x5
<= 75.78139114267826

a4_local_3: 
+0.31977066863202402 a4_x4
+0.64032252481575425 a4_x5
+0.69837939810407224 a4_x6
<= 83.478519811143613

a4_local_4: 
+0.55442971553093812 a4_x6
+0.70249763027836865 a4_x2
+0.44621157536482575 a4_x4
<= 93.188699045799453

a4_local_5: 
+0.49507287426208868 a4_x3
+0.5381255972754766 a4_x6
+0.68214638511597048 a4_x1
<= 119.14531788870917

a4_local_6: 
+0.41209631250782836 a4_x5
+0.7347103367824086 a4_x6
+0.53886672771895106 a4_x2
<= 98.783245379746461

a4_local_7: 
+0.76613397868634625 a4_x4
+0.34430635287540401 a4_x3
+0.54267104406985534 a4_x2
<= 105.25656324217819

a4_local_8: 
+0.72316651749970262 a4_x3
+0.3387634813517969 a4_x6
+0.60188827174963566 a4_x2
<= 110.79018304901128

a4_act_1: 
+0.0099995000374968751 a4_x1
-0.99995000374968757 a4_z1
<= 0

a4_act_2: 
+0.0099995000374968751 a4_x2
-0.99995000374968757 a4_z2
<= 0

coupling_1: 
+5.9675905045074736e-07 a1_x1
+8.248442190420678e-05 a2_x1
+0.0096436749256384735 a3_x1
+0.9999528929733883 a4_x1
+0.00077606831023764307 short_1
-0.00077606831023764307 surp_1
= 59.788057617514475

coupling_2: 
+1.1619955301965732e-06 a1_x2
+9.2831537868983205e-05 a2_x2
+0.012238496205897426 a3_x2
+0.9999244245218214 a4_x2
+0.00082335784377695991 short_2
-0.00082335784377695991 surp_2
= 66.351946387796303

coupling_3: 
+1.1430898205845773e-06 a1_x3
+0.00010681595961248243 a2_x3
+0.0079482334435024213 a3_x3
+0.99996743306899005 a4_x3
+0.00098665485019021749 short_3
-0.00098665485019021749 surp_3
= 67.18900540581447

bounds
  0 <= a1_x1 <= 100
  0 <= a1_x2 <= 100
  0 <= a1_x3 <= 100
  0 <= a1_x4 <= 100
  0 <= a1_x5 <= 100
  0 <= a1_x6 <= 100
  0 <= a2_x1 <= 100
  0 <= a2_x2 <= 100
  0 <= a2_x3 <= 100
  0 <= a2_x4 <= 100
  0 <= a2_x5 <= 100
  0 <= a2_x6 <= 100
  0 <= a3_x1 <= 100
  0 <= a3_x2 <= 100
  0 <= a3_x3 <= 100
  0 <= a3_x4 <= 100
  0 <= a3_x5 <= 100
  0 <= a3_x6 <= 100
  0 <= a4_x1 <= 100
  0 <= a4_x2 <= 100
  0 <= a4_x3 <= 100
  0 <= a4_x4 <= 100
  0 <= a4_x5 <= 100
  0 <= a4_x6 <= 100
  0 <= short_1 <= +inf
  0 <= surp_1 <= +inf
  0 <= short_2 <= +inf
  0 <= surp_2 <= +inf
  0 <= short_3 <= +inf
  0 <= surp_3 <= +inf
 0 <= a1_z1 <= 1
 0 <= a1_z2 <= 1
 0 <= a2_z1 <= 1
 0 <= a2_z2 <= 1
 0 <= a3_z1 <= 1
 0 <= a3_z2 <= 1
 0 <= a4_z1 <= 1
 0 <= a4_z2 <= 1

binary
  a1_z1
  a1_z2
  a2_z1
  a2_z2
  a3_z1
  a3_z2
  a4_z1
  a4_z2
end
