min
obj: 
  +1.9679731558453351 a1_x1
  +5.1245063990813229 a1_x2
  +5.3289660462088069 a1_x3
  +7.7326436197250805 a1_x4
  +5.1395422066191525 a1_x5
  +1.4920260738512641 a1_x6
  +49.872667351617643 a1_z1
  +13.869581796168557 a1_z2
  +7.5341317217871078 a2_x1
  +3.4571921689270946 a2_x2
  +4.7657113746642423 a2_x3
  +9.3861788498988687 a2_x4
  +1.7288685547688603 a2_x5
  +5.9081608215551888 a2_x6
  +23.537170412908246 a2_z1
  +38.77106799595807 a2_z2
  +4.9087522557742478 a3_x1
  +9.9244206014586318 a3_x2
  +6.7861238771840311 a3_x3
  +8.6736711514090779 a3_x4
  +9.6443958243312533 a3_x5
  +8.9768883116585663 a3_x6
  +12.682768889922908 a3_z1
  +43.15224448184653 a3_z2
  +4.1276908151999692 a4_x1
  +7.0223714932865171 a4_x2
  +1.0610858298808366 a4_x3
  +7.0927412879620659 a4_x4
  +7.9355051703127861 a4_x5
  +7.5971307832819344 a4_x6
  +17.373101516361629 a4_z1
  +10.310923678881169 a4_z2
  +1000000 short_1
  +1000000 surp_1
  +1000000 short_2
  +1000000 surp_2
  +1000000 short_3
  +1000000 surp_3

s.t.

a1_local_1: 
+0.79278419846783843 a1_x3
+1.2613773104113752 a1_x6
+0.96330083155746182 a1_x2
<= 206.83548691285398

a1_local_2: 
+1.6071170867054938 a1_x4
+0.89035350617375286 a1_x6
+0.62223219967746568 a1_x2
<= 176.85440397439609

a1_local_3: 
+0.66242483450914413 a1_x4
+0.89265059993673967 a1_x5
+1.5096052380659895 a1_x2
<= 104.39430059769784

a1_local_4: 
+0.74468584340194 a1_x2
+0.93240342981612434 a1_x1
+1.3428481404073846 a1_x4
<= 202.56274212875172

a1_local_5: 
+0.98797250727600472 a1_x5
+0.94852537017777638 a1_x2
+1.0542680580199726 a1_x4
<= 168.07313294682771

a1_local_6: 
+1.3787665161207328 a1_x4
+0.65224586475465796 a1_x6
+1.5331641855271088 a1_x1
<= 233.25515681990112

a1_local_7: 
+1.4074893849885284 a1_x5
+0.84664723634740957 a1_x4
+0.71048493201115714 a1_x3
<= 121.34265442753257

a1_local_8: 
+1.0234609396863199 a1_x6
+1.2489100516871536 a1_x3
+0.80069817570056334 a1_x2
<= 135.90803904896481

a1_act_1: 
+0.10000000000000001 a1_x1
-10 a1_z1
<= 0

a1_act_2: 
+0.10000000000000001 a1_x2
-10 a1_z2
<= 0

a2_local_1: 
+1.0514449119557927 a2_x3
+1.0495686309377372 a2_x6
+0.9510721756595879 a2_x4
<= 179.95413905829903

a2_local_2: 
+1.5256560486761919 a2_x6
+0.89469688747149267 a2_x4
+0.65545573058075424 a2_x3
<= 205.38890852337701

a2_local_3: 
+1.2580357063192371 a2_x2
+1.2538714358264913 a2_x3
+0.79488999793638726 a2_x4
<= 201.720904403904

a2_local_4: 
+1.0560771613205799 a2_x6
+0.674756190218744 a2_x5
+1.4820167854641206 a2_x2
<= 184.9007014660379

a2_local_5: 
+0.96770654224011898 a2_x4
+0.71530445937690323 a2_x5
+1.398006103402589 a2_x3
<= 196.83400651691227

a2_local_6: 
+0.93422656657238368 a2_x2
+1.2154998417268215 a2_x5
+0.82270681218627906 a2_x1
<= 180.57872825188699

a2_local_7: 
+0.93390562585122416 a2_x4
+0.93597867207474383 a2_x3
+1.0707720055637664 a2_x5
<= 113.18397852146458

a2_local_8: 
+1.1872131063993434 a2_x6
+0.84230876041527591 a2_x4
+0.96435703027482389 a2_x3
<= 185.83687143875861

a2_act_1: 
+0.10000000000000001 a2_x1
-10 a2_z1
<= 0

a2_act_2: 
+0.10000000000000001 a2_x2
-10 a2_z2
<= 0

a3_local_1: 
+1.2740381470703699 a3_x1
+1.1217465263752604 a3_x3
+0.78490585411393199 a3_x4
<= 189.70535753784995

a3_local_2: 
+1.0258257735840404 a3_x1
+1.0498223704748382 a3_x6
+0.9525420948571488 a3_x5
<= 210.25608248818355

a3_local_3: 
+0.70968788080364997 a3_x6
+1.4090701378014245 a3_x2
+0.90585634365522916 a3_x3
<= 211.34977422306582

a3_local_4: 
+0.83379312189215626 a3_x1
+1.6021745398053107 a3_x6
+0.62415172327074675 a3_x2
<= 209.25734442566352

a3_local_5: 
+0.78459986633396483 a3_x4
+1.0476832783599972 a3_x6
+1.2745350119322476 a3_x3
<= 158.57641652529816

a3_local_6: 
+1.2063325348011267 a3_x6
+0.92653621644580164 a3_x3
+0.82895882449598179 a3_x1
<= 138.44313594343998

a3_local_7: 
+0.70396555294661367 a3_x6
+1.4205240523691318 a3_x5
+1.3275079085472297 a3_x1
<= 173.6175542576112

a3_local_8: 
+0.81069305837257799 a3_x4
+1.233512473891716 a3_x6
+1.1614329046616549 a3_x5
<= 205.84298914074679

a3_act_1: 
+0.10000000000000001 a3_x1
-10 a3_z1
<= 0

a3_act_2: 
+0.10000000000000001 a3_x2
-10 a3_z2
<= 0

a4_local_1: 
+1.0893633554851221 a4_x4
+1.0562300897014449 a4_x1
+0.91796735677295993 a4_x5
<= 143.15638933315418

a4_local_2: 
+1.1474714861615043 a4_x4
+1.1766034482605547 a4_x1
+0.84990401947092842 a4_x6
<= 139.57441004523213

a4_local_3: 
+0.73006257958608978 a4_x3
+0.76438239092082139 a4_x5
+1.3697455916271615 a4_x1
<= 120.92433725226219

a4_local_4: 
+0.76073816140888306 a4_x3
+1.4830829460112265 a4_x5
+0.6742711206338895 a4_x6
<= 199.82614686550684

a4_local_5: 
+1.3589296617212792 a4_x4
+0.73587325979282603 a4_x5
+0.74969633297147631 a4_x6
<= 149.29031291918108

a4_local_6: 
+0.77152106304397949 a4_x5
+0.98162300975849592 a4_x2
+1.2961408934897691 a4_x1
<= 147.30367392026201

a4_local_7: 
+1.4100552997729707 a4_x2
+1.4884598465473116 a4_x3
+0.67183538898925499 a4_x1
<= 169.07953327373912

a4_local_8: 
+1.6843707544743642 a4_x1
+1.1530500225994882 a4_x2
+0.59369351868856612 a4_x4
<= 116.79665759973189

a4_act_1: 
+0.10000000000000001 a4_x1
-10 a4_z1
<= 0

a4_act_2: 
+0.10000000000000001 a4_x2
-10 a4_z2
<= 0

coupling_1: 
+9.9997223540954756e-07 a1_x1
+8.7533408827882169e-05 a2_x1
+0.0086927622831591417 a3_x1
+0.99996170583231769 a4_x1
+0.00071242182448667238 short_1
-0.00071242182448667238 surp_1
= 43.245329251785051

coupling_2: 
+9.2028593894063202e-07 a1_x2
+0.0001184351751559478 a2_x2
+0.012065821006745152 a3_x2
+0.99992506341112486 a4_x2
+0.0014610780186686083 short_2
-0.0014610780186686083 surp_2
= 24.933733594604856

coupling_3: 
+1.9544258611162989e-06 a1_x3
+0.00012372283631918602 a2_x3
+0.01153806290814118 a3_x3
+0.9999315439800267 a4_x3
+0.0013720690375213262 short_3
-0.0013720690375213262 surp_3
= 54.100570705934338

bounds
  0 <= a1_x1 <= 100
  0 <= a1_x2 <= 100
  0 <= a1_x3 <= 100
  0 <= a1_x4 <= 100
  0 <= a1_x5 <= 100
  0 <= a1_x6 <= 100
  0 <= a2_x1 <= 100
  0 <= a2_x2 <= 100
  0 <= a2_x3 <= 100
  0 <= a2_x4 <= 100
  0 <= a2_x5 <= 100
  0 <= a2_x6 <= 100
  0 <= a3_x1 <= 100
  0 <= a3_x2 <= 100
  0 <= a3_x3 <= 100
  0 <= a3_x4 <= 100
  0 <= a3_x5 <= 100
  0 <= a3_x6 <= 100
  0 <= a4_x1 <= 100
  0 <= a4_x2 <= 100
  0 <= a4_x3 <= 100
  0 <= a4_x4 <= 100
  0 <= a4_x5 <= 100
  0 <= a4_x6 <= 100
  0 <= short_1 <= +inf
  0 <= surp_1 <= +inf
  0 <= short_2 <= +inf
  0 <= surp_2 <= +inf
  0 <= short_3 <= +inf
  0 <= surp_3 <= +inf
 0 <= a1_z1 <= 1
 0 <= a1_z2 <= 1
 0 <= a2_z1 <= 1
 0 <= a2_z2 <= 1
 0 <= a3_z1 <= 1
 0 <= a3_z2 <= 1
 0 <= a4_z1 <= 1
 0 <= a4_z2 <= 1

binary
  a1_z1
  a1_z2
  a2_z1
  a2_z2
  a3_z1
  a3_z2
  a4_z1
  a4_z2
end
