min
obj: 
  +4.6121734767481746 a1_x1
  +8.3726653944305163 a1_x2
  +3.8874111784256438 a1_x3
  +3.5735214707131471 a1_x4
  +7.9063268225890937 a1_x5
  +6.5043346512565909 a1_x6
  +46.9551209495583 a1_z1
  +19.806653497637782 a1_z2
  +7.6567171580139357 a2_x1
  +8.2043744709301158 a2_x2
  +3.6188691473828523 a2_x3
  +5.2859257046209569 a2_x4
  +3.3947769180807601 a2_x5
  +2.5210962766084055 a2_x6
  +31.130882329794158 a2_z1
  +23.010561281727053 a2_z2
  +6.9874663911383514 a3_x1
  +2.0892016241128126 a3_x2
  +9.3610808006140438 a3_x3
  +4.8509819599704116 a3_x4
  +1.7243146015797635 a3_x5
  +7.0038934437638574 a3_x6
  +33.012677472845496 a3_z1
  +8.0010596287278375 a3_z2
  +6.4216192335644386 a4_x1
  +2.3877334915960096 a4_x2
  +7.475862409648836 a4_x3
  +7.4106096914751971 a4_x4
  +8.5860247699785965 a4_x5
  +3.4325757317506875 a4_x6
  +23.317265071624306 a4_z1
  +25.042487194398138 a4_z2
  +1000000 short_1
  +1000000 surp_1
  +1000000 short_2
  +1000000 surp_2
  +1000000 short_3
  +1000000 surp_3

s.t.

a1_local_1: 
+0.60491706249635813 a1_x1
+0.53747819862680402 a1_x6
+0.5875308787643958 a1_x2
<= 105.29660567404723

a1_local_2: 
+0.6999056518027742 a1_x4
+0.52567338781966111 a1_x6
+0.48352824934302868 a1_x2
<= 64.041069860702194

a1_local_3: 
+0.68480817352744194 a1_x2
+0.65937079473179183 a1_x1
+0.31027072134633354 a1_x5
<= 63.578076960287476

a1_local_4: 
+0.8383125109308377 a1_x1
+0.43111736147704838 a1_x2
+0.33372137277960195 a1_x4
<= 50.610813906435205

a1_local_5: 
+0.71735581896345657 a1_x2
+0.46631409027284154 a1_x6
+0.5176406071902403 a1_x3
<= 59.64526759936053

a1_local_6: 
+0.66379590026935587 a1_x4
+0.56687494810541716 a1_x6
+0.48788092399280786 a1_x1
<= 94.077542040856969

a1_local_7: 
+0.57495837050331111 a1_x1
+0.2928063584722479 a1_x5
+0.76399431190709699 a1_x6
<= 90.475158880418888

a1_local_8: 
+0.72807576124488504 a1_x2
+0.42710045878697117 a1_x1
+0.53618176394916661 a1_x4
<= 89.75150623222919

a1_act_1: 
+0.0099995000374968751 a1_x1
-0.99995000374968757 a1_z1
<= 0

a1_act_2: 
+0.0099995000374968751 a1_x2
-0.99995000374968757 a1_z2
<= 0

a2_local_1: 
+0.55000769588701415 a2_x4
+0.65274483317761234 a2_x2
+0.52097573573534994 a2_x6
<= 64.385081788171689

a2_local_2: 
+0.38539420555962073 a2_x2
+0.7707214734811999 a2_x6
+0.50740488432418263 a2_x5
<= 80.883646670466689

a2_local_3: 
+0.61342462127822051 a2_x2
+0.45370173344210607 a2_x1
+0.64642476057256659 a2_x3
<= 57.231945770132505

a2_local_4: 
+0.47073279505237031 a2_x3
+0.54546924861211754 a2_x2
+0.69345074409125496 a2_x4
<= 104.01130780229423

a2_local_5: 
+0.3959749426997019 a2_x2
+0.55180053242489535 a2_x5
+0.73397548812584312 a2_x6
<= 102.82432565912407

a2_local_6: 
+0.63592466277164217 a2_x6
+0.57921801895802827 a2_x5
+0.51000618603416004 a2_x1
<= 79.34988377882236

a2_local_7: 
+0.56428785505780743 a2_x5
+0.62346893523003222 a2_x4
+0.54117067865636315 a2_x3
<= 89.477349825363092

a2_local_8: 
+0.62323891974483137 a2_x6
+0.50799251052266936 a2_x4
+0.59457283672244166 a2_x3
<= 51.803634870791129

a2_act_1: 
+0.0099995000374968751 a2_x1
-0.99995000374968757 a2_z1
<= 0

a2_act_2: 
+0.0099995000374968751 a2_x2
-0.99995000374968757 a2_z2
<= 0

a3_local_1: 
+0.69867525853724732 a3_x2
+0.61631646677939156 a3_x1
+0.3633275325164303 a3_x6
<= 100.47365317309159

a3_local_2: 
+0.84481953524521014 a3_x3
+0.33603450019529907 a3_x5
+0.41636614601401351 a3_x6
<= 91.312376019004788

a3_local_3: 
+0.60803495757039128 a3_x4
+0.63891280321225108 a3_x5
+0.47125780658131899 a3_x3
<= 108.72666958682122

a3_local_4: 
+0.65910351258831212 a3_x1
+0.33920750429114421 a3_x5
+0.67120848380091425 a3_x6
<= 77.248992724050694

a3_local_5: 
+0.67419358963411669 a3_x3
+0.58346289921379813 a3_x5
+0.45280685610676602 a3_x1
<= 61.26917178954821

a3_local_6: 
+0.64842294956242208 a3_x3
+0.67903032588375101 a3_x4
+0.34418816802873337 a3_x6
<= 51.47423671199239

a3_local_7: 
+0.46443408613077608 a3_x2
+0.67998970706036743 a3_x3
+0.56737551756471338 a3_x1
<= 91.371187009941906

a3_local_8: 
+0.63053091360848323 a3_x1
+0.63476985121754992 a3_x3
+0.44665199313257431 a3_x5
<= 62.79687462471729

a3_act_1: 
+0.0099995000374968751 a3_x1
-0.99995000374968757 a3_z1
<= 0

a3_act_2: 
+0.0099995000374968751 a3_x2
-0.99995000374968757 a3_z2
<= 0

a4_local_1: 
+0.72176661556773447 a4_x4
+0.63985752156253584 a4_x2
+0.2638850218404738 a4_x6
<= 113.59926773147566

a4_local_2: 
+0.57207320132353545 a4_x5
+0.52976383483313794 a4_x6
+0.62616493963677766 a4_x2
<= 82.252169987264082

a4_local_3: 
+0.62486109271384593 a4_x1
+0.6377855596892561 a4_x3
+0.45030899909320127 a4_x6
<= 87.710642073294622

a4_local_4: 
+0.67511563291984955 a4_x5
+0.6362318330524489 a4_x1
+0.37340050454967488 a4_x6
<= 83.351737940324696

a4_local_5: 
+0.33117753441898878 a4_x5
+0.60680660870351311 a4_x1
+0.72256984460320561 a4_x6
<= 109.75362986444468

a4_local_6: 
+0.58071136016027669 a4_x6
+0.47890165351710923 a4_x1
+0.65835212647896879 a4_x5
<= 81.475133727854796

a4_local_7: 
+0.60114033138653344 a4_x2
+0.74314108284476987 a4_x6
+0.29389051187269016 a4_x1
<= 86.502214539848126

a4_local_8: 
+0.54067744072133683 a4_x2
+0.61152048386410252 a4_x3
+0.57767690183149889 a4_x6
<= 62.703212187481995

a4_act_1: 
+0.0099995000374968751 a4_x1
-0.99995000374968757 a4_z1
<= 0

a4_act_2: 
+0.0099995000374968751 a4_x2
-0.99995000374968757 a4_z2
<= 0

coupling_1: 
+9.5763564902467554e-07 a1_x1
+0.00010215511140571714 a2_x1
+0.0093737140542221129 a3_x1
+0.99995531361448153 a4_x1
+0.00086424024719540223 short_1
-0.00086424024719540223 surp_1
= 41.213707851155768

coupling_2: 
+5.7134817353517435e-07 a1_x2
+6.5810119490699285e-05 a2_x2
+0.0068006525149252482 a3_x2
+0.99997618579784986 a4_x2
+0.00082904500998839373 short_2
-0.00082904500998839373 surp_2
= 40.111100729843997

coupling_3: 
+7.5241208925954647e-07 a1_x3
+0.00011605186103290332 a2_x3
+0.0091189353578747367 a3_x3
+0.99995684523602479 a4_x3
+0.0012528397653409154 short_3
-0.0012528397653409154 surp_3
= 23.775431072393481

bounds
  0 <= a1_x1 <= 100
  0 <= a1_x2 <= 100
  0 <= a1_x3 <= 100
  0 <= a1_x4 <= 100
  0 <= a1_x5 <= 100
  0 <= a1_x6 <= 100
  0 <= a2_x1 <= 100
  0 <= a2_x2 <= 100
  0 <= a2_x3 <= 100
  0 <= a2_x4 <= 100
  0 <= a2_x5 <= 100
  0 <= a2_x6 <= 100
  0 <= a3_x1 <= 100
  0 <= a3_x2 <= 100
  0 <= a3_x3 <= 100
  0 <= a3_x4 <= 100
  0 <= a3_x5 <= 100
  0 <= a3_x6 <= 100
  0 <= a4_x1 <= 100
  0 <= a4_x2 <= 100
  0 <= a4_x3 <= 100
  0 <= a4_x4 <= 100
  0 <= a4_x5 <= 100
  0 <= a4_x6 <= 100
  0 <= short_1 <= +inf
  0 <= surp_1 <= +inf
  0 <= short_2 <= +inf
  0 <= surp_2 <= +inf
  0 <= short_3 <= +inf
  0 <= surp_3 <= +inf
 0 <= a1_z1 <= 1
 0 <= a1_z2 <= 1
 0 <= a2_z1 <= 1
 0 <= a2_z2 <= 1
 0 <= a3_z1 <= 1
 0 <= a3_z2 <= 1
 0 <= a4_z1 <= 1
 0 <= a4_z2 <= 1

binary
  a1_z1
  a1_z2
  a2_z1
  a2_z2
  a3_z1
  a3_z2
  a4_z1
  a4_z2
end
