min
obj: 
  +8.5242104678500681 a1_x1
  +7.6930756521091874 a1_x2
  +6.9189962156082423 a1_x3
  +9.2097073421305335 a1_x4
  +1.6783613276554563 a1_x5
  +5.9914602077021666 a1_x6
  +31.080729858907144 a1_z1
  +20.883867024027893 a1_z2
  +6.9077742042221582 a2_x1
  +5.0875445936298673 a2_x2
  +7.5917023578038236 a2_x3
  +8.2794490372741638 a2_x4
  +1.0351287904006585 a2_x5
  +5.7857723772906011 a2_x6
  +23.934213589769115 a2_z1
  +21.521505149496146 a2_z2
  +3.338751629164217 a3_x1
  +6.1106898664601106 a3_x2
  +6.5508211726549801 a3_x3
  +5.1951326468311683 a3_x4
  +3.9370151452755238 a3_x5
  +3.370609165759376 a3_x6
  +38.539597563502319 a3_z1
  +26.755532445572879 a3_z2
  +8.5438219758017482 a4_x1
  +7.1495610706401269 a4_x2
  +5.5659057933768521 a4_x3
  +2.526471255000704 a4_x4
  +2.3501129539553487 a4_x5
  +8.7808046110821252 a4_x6
  +7.4539102618189466 a4_z1
  +36.014449453139093 a4_z2
  +1000000 short_1
  +1000000 surp_1
  +1000000 short_2
  +1000000 surp_2
  +1000000 short_3
  +1000000 surp_3

s.t.

a1_local_1: 
+0.6813125418103172 a1_x6
+1.4677551617395705 a1_x2
+1.4075499696442433 a1_x4
<= 125.44792113980847

a1_local_2: 
+1.2816727312149629 a1_x5
+0.78023037835255249 a1_x2
+0.96459965814708037 a1_x1
<= 118.14080501464846

a1_local_3: 
+1.2269005791638705 a1_x4
+0.81506196751614324 a1_x2
+1.1539860662704371 a1_x1
<= 134.79527653790547

a1_local_4: 
+0.73019925673316288 a1_x4
+1.3694892055545194 a1_x2
+1.0796426375188077 a1_x6
<= 126.37058760723401

a1_local_5: 
+1.1997501419662158 a1_x5
+1.276059165478068 a1_x2
+0.78366272274323245 a1_x1
<= 123.04391431181585

a1_local_6: 
+1.5386277469601 a1_x2
+1.0736697344014476 a1_x5
+0.64992978449512662 a1_x6
<= 109.45502016664757

a1_local_7: 
+1.1629397961082457 a1_x3
+0.88376798517439947 a1_x4
+0.85988974093627168 a1_x6
<= 158.32521474464545

a1_local_8: 
+0.85704984940830464 a1_x6
+0.95750103918481133 a1_x2
+1.1667932742656524 a1_x5
<= 191.41258785284259

a1_act_1: 
+0.10000000000000001 a1_x1
-10 a1_z1
<= 0

a1_act_2: 
+0.10000000000000001 a1_x2
-10 a1_z2
<= 0

a2_local_1: 
+0.97149888919247918 a2_x6
+1.0977747947220067 a2_x3
+0.91093364942236033 a2_x2
<= 95.360441162597226

a2_local_2: 
+0.80748412254300861 a2_x5
+1.2384144431852129 a2_x3
+0.98717057528545515 a2_x2
<= 206.16202087953678

a2_local_3: 
+0.86026178831809241 a2_x3
+1.1624368460618382 a2_x5
+1.0721927640696709 a2_x4
<= 139.64832842193201

a2_local_4: 
+1.2116488739475066 a2_x3
+0.82532161049433161 a2_x5
+0.9097956941838069 a2_x4
<= 195.7349437099457

a2_local_5: 
+1.1275326115402597 a2_x3
+0.84431617156280259 a2_x1
+1.1843904377065662 a2_x2
<= 209.1570788209392

a2_local_6: 
+0.91736007905954431 a2_x3
+1.1358860124874324 a2_x6
+0.88037002745560622 a2_x5
<= 115.9006841360291

a2_local_7: 
+1.2692371033946874 a2_x4
+1.2070579491142517 a2_x5
+0.7878748559472547 a2_x2
<= 162.9918041765001

a2_local_8: 
+0.84764868967032558 a2_x4
+1.1797340244682357 a2_x2
+0.96608882126994367 a2_x1
<= 144.88908534958625

a2_act_1: 
+0.10000000000000001 a2_x1
-10 a2_z1
<= 0

a2_act_2: 
+0.10000000000000001 a2_x2
-10 a2_z2
<= 0

a3_local_1: 
+1.04812728607051 a3_x6
+0.92988072416007128 a3_x1
+1.0754067419810909 a3_x5
<= 137.49770667530456

a3_local_2: 
+0.81908842992306052 a3_x4
+1.2208694000157383 a3_x2
+1.0432195801286097 a3_x6
<= 190.15258067946499

a3_local_3: 
+0.94036714089829365 a3_x3
+1.1036176947923666 a3_x2
+0.90611087944556634 a3_x6
<= 92.204898433924626

a3_local_4: 
+1.0463918515653412 a3_x2
+0.93985697510636623 a3_x3
+1.063991677975074 a3_x5
<= 176.04929117585348

a3_local_5: 
+1.1984064289589704 a3_x6
+0.60950483162535707 a3_x1
+1.6406760834582979 a3_x5
<= 217.55294830350053

a3_local_6: 
+1.576820790093509 a3_x6
+0.6341874779192237 a3_x2
+1.3379998166686888 a3_x1
<= 233.71888467503422

a3_local_7: 
+0.94180729507703098 a3_x2
+0.84509420335242724 a3_x1
+1.183300034520498 a3_x6
<= 155.45312277543559

a3_local_8: 
+0.83646468463381485 a3_x1
+1.1955077343615257 a3_x5
+1.1212881366714091 a3_x4
<= 100.43263112113524

a3_act_1: 
+0.10000000000000001 a3_x1
-10 a3_z1
<= 0

a3_act_2: 
+0.10000000000000001 a3_x2
-10 a3_z2
<= 0

a4_local_1: 
+0.76039190621515784 a4_x3
+1.3151113153971994 a4_x5
+0.79903043055460921 a4_x6
<= 120.36353528485769

a4_local_2: 
+1.2032528579603108 a4_x4
+0.83108051095357127 a4_x3
+1.1580886590502004 a4_x2
<= 99.057889141679382

a4_local_3: 
+0.91906606012508341 a4_x5
+1.4929066986631576 a4_x6
+0.66983422399769721 a4_x4
<= 169.83712415042609

a4_local_4: 
+0.95882762460478632 a4_x1
+0.75795205839786084 a4_x3
+1.3193446589666555 a4_x6
<= 95.777432738404642

a4_local_5: 
+1.1672897130918267 a4_x6
+0.75999202379546948 a4_x5
+1.3158032830475099 a4_x1
<= 202.6436570961383

a4_local_6: 
+0.59960678824137326 a4_x4
+1.1019815107919566 a4_x1
+1.6677596378335988 a4_x3
<= 152.74879636095619

a4_local_7: 
+0.93828398815112524 a4_x6
+0.99838780846361874 a4_x2
+1.0657754076891852 a4_x1
<= 159.62318334585029

a4_local_8: 
+0.64935992640976525 a4_x3
+1.5399779988409239 a4_x2
+1.2746993183596316 a4_x6
<= 233.46811531378543

a4_act_1: 
+0.10000000000000001 a4_x1
-10 a4_z1
<= 0

a4_act_2: 
+0.10000000000000001 a4_x2
-10 a4_z2
<= 0

coupling_1: 
+0.0010555192956860481 a1_x1
+0.102042432173281 a2_x1
+23.49288734713847 a3_x1
+947.400965654576 a4_x1
+1.8834803100148187 short_1
-1.8834803100148187 surp_1
= 70062.599350135817

coupling_2: 
+0.00078348286399547928 a1_x2
+0.095197644614798543 a2_x2
+13.796781298728492 a3_x2
+1276.3521015639851 a4_x2
+1.0444341581027428 short_2
-1.0444341581027428 surp_2
= 42858.003046910118

coupling_3: 
+0.00072002496050504268 a1_x3
+0.084260390520339346 a2_x3
+12.287477363883056 a3_x3
+1388.8407414356527 a4_x3
+1.3003984226541232 short_3
-1.3003984226541232 surp_3
= 32601.985514637148

bounds
  0 <= a1_x1 <= 100
  0 <= a1_x2 <= 100
  0 <= a1_x3 <= 100
  0 <= a1_x4 <= 100
  0 <= a1_x5 <= 100
  0 <= a1_x6 <= 100
  0 <= a2_x1 <= 100
  0 <= a2_x2 <= 100
  0 <= a2_x3 <= 100
  0 <= a2_x4 <= 100
  0 <= a2_x5 <= 100
  0 <= a2_x6 <= 100
  0 <= a3_x1 <= 100
  0 <= a3_x2 <= 100
  0 <= a3_x3 <= 100
  0 <= a3_x4 <= 100
  0 <= a3_x5 <= 100
  0 <= a3_x6 <= 100
  0 <= a4_x1 <= 100
  0 <= a4_x2 <= 100
  0 <= a4_x3 <= 100
  0 <= a4_x4 <= 100
  0 <= a4_x5 <= 100
  0 <= a4_x6 <= 100
  0 <= short_1 <= +inf
  0 <= surp_1 <= +inf
  0 <= short_2 <= +inf
  0 <= surp_2 <= +inf
  0 <= short_3 <= +inf
  0 <= surp_3 <= +inf
 0 <= a1_z1 <= 1
 0 <= a1_z2 <= 1
 0 <= a2_z1 <= 1
 0 <= a2_z2 <= 1
 0 <= a3_z1 <= 1
 0 <= a3_z2 <= 1
 0 <= a4_z1 <= 1
 0 <= a4_z2 <= 1

binary
  a1_z1
  a1_z2
  a2_z1
  a2_z2
  a3_z1
  a3_z2
  a4_z1
  a4_z2
end
