min
obj: 
  +4.0871141162290519 a1_x1
  +7.6613663727576089 a1_x2
  +4.8999168943267346 a1_x3
  +9.1856075433138287 a1_x4
  +7.8055232956727103 a1_x5
  +3.4861746229099309 a1_x6
  +23.402378726140935 a1_z1
  +18.267560866392444 a1_z2
  +9.867310978744726 a2_x1
  +9.2615292817302226 a2_x2
  +3.5007890513184758 a2_x3
  +7.1637373168446201 a2_x4
  +7.9245284991421201 a2_x5
  +2.4582106797035337 a2_x6
  +33.658905491272137 a2_z1
  +35.254409520378104 a2_z2
  +2.6732854397558619 a3_x1
  +9.8971817318039896 a3_x2
  +5.2211213282041085 a3_x3
  +8.0114291145185241 a3_x4
  +2.5829750625381869 a3_x5
  +9.9025128730968675 a3_x6
  +27.0926152551414 a3_z1
  +47.996135855740022 a3_z2
  +8.2046274155609638 a4_x1
  +7.1214056561276049 a4_x2
  +6.2664722965402984 a4_x3
  +7.507966634456313 a4_x4
  +5.5736057519875928 a4_x5
  +1.8081083701963157 a4_x6
  +27.561079601884479 a4_z1
  +34.985951557117836 a4_z2
  +1000000 short_1
  +1000000 surp_1
  +1000000 short_2
  +1000000 surp_2
  +1000000 short_3
  +1000000 surp_3

s.t.

a1_local_1: 
+1.0656625728124749 a1_x6
+0.59242592075137379 a1_x4
+1.6879747576400781 a1_x2
<= 231.91435356069914

a1_local_2: 
+1.307470420816182 a1_x6
+0.77748105960196789 a1_x3
+0.76483565829026945 a1_x2
<= 88.260681169238154

a1_local_3: 
+0.81272925667282048 a1_x6
+1.0637155312011195 a1_x4
+1.2304220523496781 a1_x1
<= 165.88530776014005

a1_local_4: 
+1.5838264983709378 a1_x4
+0.63138228905032256 a1_x5
+0.81960818071188057 a1_x2
<= 202.06071595628703

a1_local_5: 
+1.0929388852522395 a1_x5
+1.1745168633437448 a1_x1
+0.85141391427372848 a1_x4
<= 211.05388730911687

a1_local_6: 
+1.0677997289476657 a1_x2
+1.3342070047296732 a1_x6
+0.74950888164660201 a1_x1
<= 154.73992443507439

a1_local_7: 
+1.3119525812591242 a1_x2
+1.300737359668805 a1_x1
+0.76222267045678349 a1_x3
<= 150.37920357473814

a1_local_8: 
+0.85159783855422333 a1_x2
+0.98699080019187457 a1_x4
+1.1742631964610459 a1_x3
<= 172.5643133443335

a1_act_1: 
+0.10000000000000001 a1_x1
-10 a1_z1
<= 0

a1_act_2: 
+0.10000000000000001 a1_x2
-10 a1_z2
<= 0

a2_local_1: 
+0.97104831734877328 a2_x6
+1.0298148734043147 a2_x2
+1.0246522928807644 a2_x4
<= 145.380989443251

a2_local_2: 
+1.1834518572523602 a2_x2
+0.84498578786442269 a2_x3
+0.90593064778866417 a2_x6
<= 202.54371909888897

a2_local_3: 
+0.7091678211050787 a2_x4
+1.410103462452265 a2_x6
+1.1772293381441872 a2_x2
<= 100.11754694447887

a2_local_4: 
+0.95127996802830206 a2_x6
+1.0512152401071571 a2_x2
+1.0271591390696209 a2_x4
<= 165.02845513166847

a2_local_5: 
+0.80601443189449951 a2_x2
+1.3332695285547655 a2_x3
+0.75003589190550057 a2_x1
<= 161.22627103872864

a2_local_6: 
+0.93238834201535603 a2_x4
+1.0725144823652573 a2_x6
+1.0283788899727877 a2_x2
<= 190.19313043539918

a2_local_7: 
+1.2062727418183943 a2_x5
+1.1655852491507179 a2_x2
+0.82899991463999367 a2_x3
<= 215.99240099504436

a2_local_8: 
+0.66126219546857135 a2_x5
+1.3427387630091245 a2_x4
+1.5122594439130133 a2_x6
<= 153.51432140856537

a2_act_1: 
+0.10000000000000001 a2_x1
-10 a2_z1
<= 0

a2_act_2: 
+0.10000000000000001 a2_x2
-10 a2_z2
<= 0

a3_local_1: 
+0.66751899238673595 a3_x3
+0.91372985334281476 a3_x5
+1.4980847157988233 a3_x6
<= 192.95055393805711

a3_local_2: 
+1.2416279930740326 a3_x4
+0.9950638626167374 a3_x1
+0.80539421274176659 a3_x2
<= 197.98238893926091

a3_local_3: 
+0.93395598526667178 a3_x3
+1.098874069741987 a3_x5
+0.91002238339721464 a3_x2
<= 117.11606896706776

a3_local_4: 
+1.2616036151011558 a3_x2
+1.0021230378958297 a3_x6
+0.79264198994849877 a3_x4
<= 207.92731979188466

a3_local_5: 
+0.85216755892787921 a3_x2
+1.1452294114994446 a3_x3
+1.1734781376307146 a3_x1
<= 179.05876134875862

a3_local_6: 
+1.0240508689938215 a3_x1
+0.82980173854346662 a3_x5
+1.2051071401167208 a3_x4
<= 136.54372721740575

a3_local_7: 
+0.67732240915929154 a3_x2
+1.4764017644731753 a3_x1
+0.82736712568288262 a3_x3
<= 114.93204658266846

a3_local_8: 
+0.88217110480703187 a3_x4
+0.92949395153058512 a3_x5
+1.1335669401898425 a3_x2
<= 162.13836792556754

a3_act_1: 
+0.10000000000000001 a3_x1
-10 a3_z1
<= 0

a3_act_2: 
+0.10000000000000001 a3_x2
-10 a3_z2
<= 0

a4_local_1: 
+1.4642131966203566 a4_x3
+0.68296065238871173 a4_x2
+0.75259185294200071 a4_x6
<= 183.99016440834518

a4_local_2: 
+1.3363971217601867 a4_x6
+1.2097494418761934 a4_x1
+0.74828056998722547 a4_x5
<= 147.90723732520121

a4_local_3: 
+0.67666482755310231 a4_x4
+1.3549827214810015 a4_x5
+1.4778365289298618 a4_x6
<= 176.64840385156808

a4_local_4: 
+0.99027006515845539 a4_x6
+1.254735009005125 a4_x2
+0.79698103011638799 a4_x4
<= 166.44486486036124

a4_local_5: 
+0.85191403797391785 a4_x3
+0.92599852333938193 a4_x6
+1.1738273527905121 a4_x1
<= 205.02349077304115

a4_local_6: 
+0.74893010630541268 a4_x5
+1.3352380837420914 a4_x6
+0.97931843461311596 a4_x2
<= 179.52537845638159

a4_local_7: 
+1.4916943473985902 a4_x4
+0.67037862129324932 a4_x3
+1.0566028285599662 a4_x2
<= 204.93885506054451

a4_local_8: 
+1.4610694546787302 a4_x3
+0.6844301595641028 a4_x6
+1.2160415999668086 a4_x2
<= 223.83800744929007

a4_act_1: 
+0.10000000000000001 a4_x1
-10 a4_z1
<= 0

a4_act_2: 
+0.10000000000000001 a4_x2
-10 a4_z2
<= 0

coupling_1: 
+5.9675905045074747e-07 a1_x1
+8.248442190420678e-05 a2_x1
+0.0096436749256384735 a3_x1
+0.99995289297338819 a4_x1
+0.00077606831023764318 short_1
-0.00077606831023764318 surp_1
= 59.788057617514475

coupling_2: 
+1.1619955301965734e-06 a1_x2
+9.2831537868983205e-05 a2_x2
+0.012238496205897426 a3_x2
+0.9999244245218214 a4_x2
+0.00082335784377696002 short_2
-0.00082335784377696002 surp_2
= 66.351946387796303

coupling_3: 
+1.1430898205845773e-06 a1_x3
+0.00010681595961248241 a2_x3
+0.0079482334435024195 a3_x3
+0.99996743306898994 a4_x3
+0.00098665485019021728 short_3
-0.00098665485019021728 surp_3
= 67.189005405814456

bounds
  0 <= a1_x1 <= 100
  0 <= a1_x2 <= 100
  0 <= a1_x3 <= 100
  0 <= a1_x4 <= 100
  0 <= a1_x5 <= 100
  0 <= a1_x6 <= 100
  0 <= a2_x1 <= 100
  0 <= a2_x2 <= 100
  0 <= a2_x3 <= 100
  0 <= a2_x4 <= 100
  0 <= a2_x5 <= 100
  0 <= a2_x6 <= 100
  0 <= a3_x1 <= 100
  0 <= a3_x2 <= 100
  0 <= a3_x3 <= 100
  0 <= a3_x4 <= 100
  0 <= a3_x5 <= 100
  0 <= a3_x6 <= 100
  0 <= a4_x1 <= 100
  0 <= a4_x2 <= 100
  0 <= a4_x3 <= 100
  0 <= a4_x4 <= 100
  0 <= a4_x5 <= 100
  0 <= a4_x6 <= 100
  0 <= short_1 <= +inf
  0 <= surp_1 <= +inf
  0 <= short_2 <= +inf
  0 <= surp_2 <= +inf
  0 <= short_3 <= +inf
  0 <= surp_3 <= +inf
 0 <= a1_z1 <= 1
 0 <= a1_z2 <= 1
 0 <= a2_z1 <= 1
 0 <= a2_z2 <= 1
 0 <= a3_z1 <= 1
 0 <= a3_z2 <= 1
 0 <= a4_z1 <= 1
 0 <= a4_z2 <= 1

binary
  a1_z1
  a1_z2
  a2_z1
  a2_z2
  a3_z1
  a3_z2
  a4_z1
  a4_z2
end
