min
obj: 
  +8.0556013187453051 a1_x1
  +1.9742345173811016 a1_x2
  +4.4385591714508195 a1_x3
  +2.091774352732247 a1_x4
  +8.3606733491801819 a1_x5
  +3.1332851203907777 a1_x6
  +12.324732571684713 a1_z1
  +43.380471023797909 a1_z2
  +7.6338140335244935 a2_x1
  +9.9611693691396663 a2_x2
  +9.9407775368738864 a2_x3
  +8.2998138303753102 a2_x4
  +5.1593396215897407 a2_x5
  +2.2373011621221504 a2_x6
  +36.513419228591097 a2_z1
  +11.462176186336659 a2_z2
  +8.7735643157403977 a3_x1
  +3.6647749932252576 a3_x2
  +8.9894067496513301 a3_x3
  +1.8313374509796332 a3_x4
  +5.9661400049633215 a3_x5
  +2.3543550386909118 a3_x6
  +18.836022336426041 a3_z1
  +16.870832212175223 a3_z2
  +7.8515457332568142 a4_x1
  +9.0641405667365316 a4_x2
  +3.8803458463891136 a4_x3
  +5.5605295549433134 a4_x4
  +7.2488159045117166 a4_x5
  +9.9817052164747704 a4_x6
  +15.565550238545768 a4_z1
  +24.431792631400658 a4_z2
  +1000000 short_1
  +1000000 surp_1
  +1000000 short_2
  +1000000 surp_2
  +1000000 short_3
  +1000000 surp_3

s.t.

a1_local_1: 
+0.0013625450699833155 a1_x2
+0.00057355998076485633 a1_x5
+0.00072803813277835859 a1_x3
<= 0.12802383015296268

a1_local_2: 
+0.00055215626186556985 a1_x6
+0.0011014589296677814 a1_x4
+0.00096053511171975204 a1_x2
<= 0.1118811877762465

a1_local_3: 
+0.00086628693024506638 a1_x5
+0.0011610654624935744 a1_x3
+0.00051633537389935834 a1_x4
<= 0.11697350841717734

a1_local_4: 
+0.00051986987792315871 a1_x6
+0.0012581561841619037 a1_x1
+0.0014957376987882972 a1_x4
<= 0.10237827828977801

a1_local_5: 
+0.0012853150925022229 a1_x3
+0.001165216019819673 a1_x4
+0.00087611404156159205 a1_x1
<= 0.10506495163431366

a1_local_6: 
+0.00074751357227122932 a1_x3
+0.0010524936581547829 a1_x5
+0.00063218994433176157 a1_x1
<= 0.10098484857147672

a1_local_7: 
+0.00077708703104756879 a1_x3
+0.0014720515431321472 a1_x6
+0.00059498797524679028 a1_x5
<= 0.16963189593832453

a1_local_8: 
+0.00073383371916740556 a1_x5
+0.00099916557191105974 a1_x6
+0.00052675776775579577 a1_x2
<= 0.15037861586289789

a1_act_1: 
+1 a1_x1
-100 a1_z1
<= 0

a1_act_2: 
+1 a1_x2
-100 a1_z2
<= 0

a2_local_1: 
+0.057733806300040318 a2_x1
+0.073720521834758232 a2_x6
+0.085372704982179692 a2_x5
<= 6.693409359139598

a2_local_2: 
+0.14429540857268053 a2_x2
+0.061152221616568553 a2_x4
+0.13904283506189938 a2_x3
<= 23.150892826185014

a2_local_3: 
+0.13207428214799935 a2_x6
+0.14511707036613578 a2_x3
+0.1272313527198603 a2_x1
<= 24.429961327191563

a2_local_4: 
+0.13103403723041093 a2_x4
+0.13619895827796863 a2_x3
+0.12668770174814323 a2_x1
<= 15.713172711117403

a2_local_5: 
+0.074018636174458557 a2_x3
+0.058662507172551531 a2_x5
+0.061578949030745282 a2_x2
<= 8.8970369043199309

a2_local_6: 
+0.077164209087480951 a2_x6
+0.061358209295671345 a2_x4
+0.13110118142973373 a2_x1
<= 12.278695913664576

a2_local_7: 
+0.09315574663324705 a2_x2
+0.13352320823883432 a2_x1
+0.096838420220656682 a2_x6
<= 18.399616532580474

a2_local_8: 
+0.14132096627137744 a2_x3
+0.11649312339050399 a2_x4
+0.08548435796692988 a2_x6
<= 18.046310567714002

a2_act_1: 
+1 a2_x1
-100 a2_z1
<= 0

a2_act_2: 
+1 a2_x2
-100 a2_z2
<= 0

a3_local_1: 
+10.633419372172197 a3_x5
+7.2489677564801491 a3_x6
+8.5525348752288881 a3_x2
<= 1482.3798408730843

a3_local_2: 
+10.833555078927546 a3_x4
+8.9361065473565571 a3_x6
+12.034622426071842 a3_x1
<= 1456.7827587227177

a3_local_3: 
+6.2806518576633588 a3_x4
+5.891597027699663 a3_x5
+13.017372405971468 a3_x3
<= 776.77050207135267

a3_local_4: 
+9.4872663474405687 a3_x2
+6.3553664303090738 a3_x3
+13.233451058760021 a3_x6
<= 1268.7549491591087

a3_local_5: 
+9.0698719771218901 a3_x5
+10.416255898866659 a3_x3
+8.260301639037559 a3_x2
<= 964.60096752772847

a3_local_6: 
+14.27117307550202 a3_x1
+13.632077643827072 a3_x5
+12.933983881690477 a3_x3
<= 2809.3580854131606

a3_local_7: 
+10.047259403955685 a3_x5
+11.352451222874315 a3_x6
+9.7074867526626853 a3_x3
<= 1583.9883007222754

a3_local_8: 
+7.2006817808981367 a3_x5
+9.8424976076107278 a3_x6
+8.9009072311393531 a3_x3
<= 1075.1119330239308

a3_act_1: 
+1 a3_x1
-100 a3_z1
<= 0

a3_act_2: 
+1 a3_x2
-100 a3_z2
<= 0

a4_local_1: 
+1238.3584975054557 a4_x2
+685.19113522987607 a4_x5
+1015.6442589550245 a4_x4
<= 183258.85938208475

a4_local_2: 
+1049.0621161313686 a4_x4
+1326.4710779025388 a4_x1
+1386.718726641732 a4_x3
<= 155817.44322279523

a4_local_3: 
+1164.5687589596207 a4_x3
+779.48066741835657 a4_x1
+1016.3654791199483 a4_x6
<= 102928.67542348555

a4_local_4: 
+1028.6649802573927 a4_x2
+593.18389520992628 a4_x3
+1079.6231110516351 a4_x5
<= 98236.535464154775

a4_local_5: 
+1277.8799314134303 a4_x4
+652.91778694716254 a4_x5
+859.33657957690525 a4_x6
<= 161908.81071435456

a4_local_6: 
+516.36119962206556 a4_x2
+1446.4758391664568 a4_x4
+532.89267494000808 a4_x3
<= 142314.94408961781

a4_local_7: 
+1266.9083770121947 a4_x2
+926.46305316549513 a4_x6
+1089.3692632345667 a4_x1
<= 136252.07320202366

a4_local_8: 
+1078.7766288911373 a4_x5
+1152.380891661335 a4_x4
+897.88471038916555 a4_x2
<= 110168.07236749287

a4_act_1: 
+1 a4_x1
-100 a4_z1
<= 0

a4_act_2: 
+1 a4_x2
-100 a4_z2
<= 0

coupling_1: 
+4.2861745714169773e-07 a1_x1
+7.700223810724458e-05 a2_x1
+0.0067042503055673927 a3_x1
+0.4390623095681771 a4_x1
+0.00055311300183974292 short_1
-0.00055311300183974292 surp_1
= 30.520713778740724

coupling_2: 
+7.3959003844646381e-07 a1_x2
+3.8294763089247596e-05 a2_x2
+0.0072918456568976291 a3_x2
+0.44230644464112068 a4_x2
+0.00055311300183974292 short_2
-0.00055311300183974292 surp_2
= 35.270910425191644

coupling_3: 
+5.5882494885611825e-07 a1_x3
+4.0311542170474485e-05 a2_x3
+0.0057242062537207058 a3_x3
+0.80934329618374867 a4_x3
+0.00055311300183974292 short_3
-0.00055311300183974292 surp_3
= 49.986559041401577

bounds
  0 <= a1_x1 <= 100
  0 <= a1_x2 <= 100
  0 <= a1_x3 <= 100
  0 <= a1_x4 <= 100
  0 <= a1_x5 <= 100
  0 <= a1_x6 <= 100
  0 <= a2_x1 <= 100
  0 <= a2_x2 <= 100
  0 <= a2_x3 <= 100
  0 <= a2_x4 <= 100
  0 <= a2_x5 <= 100
  0 <= a2_x6 <= 100
  0 <= a3_x1 <= 100
  0 <= a3_x2 <= 100
  0 <= a3_x3 <= 100
  0 <= a3_x4 <= 100
  0 <= a3_x5 <= 100
  0 <= a3_x6 <= 100
  0 <= a4_x1 <= 100
  0 <= a4_x2 <= 100
  0 <= a4_x3 <= 100
  0 <= a4_x4 <= 100
  0 <= a4_x5 <= 100
  0 <= a4_x6 <= 100
  0 <= short_1 <= +inf
  0 <= surp_1 <= +inf
  0 <= short_2 <= +inf
  0 <= surp_2 <= +inf
  0 <= short_3 <= +inf
  0 <= surp_3 <= +inf
 0 <= a1_z1 <= 1
 0 <= a1_z2 <= 1
 0 <= a2_z1 <= 1
 0 <= a2_z2 <= 1
 0 <= a3_z1 <= 1
 0 <= a3_z2 <= 1
 0 <= a4_z1 <= 1
 0 <= a4_z2 <= 1

binary
  a1_z1
  a1_z2
  a2_z1
  a2_z2
  a3_z1
  a3_z2
  a4_z1
  a4_z2
end
