min
obj: 
  +2.6204029212029933 a1_x1
  +1.0229393332967094 a1_x2
  +7.1910932224071349 a1_x3
  +4.2632745770435907 a1_x4
  +6.0246265469097295 a1_x5
  +8.5542054222394626 a1_x6
  +28.114118371176183 a1_z1
  +36.337199795344134 a1_z2
  +2.3925011221889392 a2_x1
  +1.8354708126815493 a2_x2
  +3.2680190161516656 a2_x3
  +8.5745129304172316 a2_x4
  +5.2855415708546367 a2_x5
  +8.0750857020565832 a2_x6
  +37.679921062184903 a2_z1
  +30.786063311884963 a2_z2
  +6.9098336189226917 a3_x1
  +7.224692972136415 a3_x2
  +2.7635056217757095 a3_x3
  +4.5804152664090756 a3_x4
  +5.5391766018428115 a3_x5
  +2.5280261257879362 a3_x6
  +24.719908715545547 a3_z1
  +39.060952627342751 a3_z2
  +7.8772143187643042 a4_x1
  +7.8222341244321543 a4_x2
  +1.2624357252124174 a4_x3
  +2.9341291076023293 a4_x4
  +4.8680356039416175 a4_x5
  +9.5043443020751539 a4_x6
  +34.587285029007681 a4_z1
  +29.505942671624879 a4_z2
  +1000000 short_1
  +1000000 surp_1
  +1000000 short_2
  +1000000 surp_2
  +1000000 short_3
  +1000000 surp_3

s.t.

a1_local_1: 
+1.4670520101606459 a1_x3
+0.68163909191637828 a1_x5
+1.0763481473454439 a1_x4
<= 211.02495046826519

a1_local_2: 
+1.182445172052152 a1_x6
+0.82897500109521427 a1_x5
+1.2063089944556025 a1_x4
<= 170.49549231429984

a1_local_3: 
+1.1665244502122574 a1_x4
+0.85724735543952202 a1_x3
+1.1310511656931239 a1_x1
<= 220.18930672557426

a1_local_4: 
+0.67959542316245647 a1_x4
+1.063876022745837 a1_x2
+1.4714637060775955 a1_x5
<= 134.4168388671477

a1_local_5: 
+0.76478921693601365 a1_x2
+1.3075498161523706 a1_x4
+1.1255117187145067 a1_x3
<= 103.88439776763788

a1_local_6: 
+1.389901846800909 a1_x6
+0.9653297731753222 a1_x1
+0.71947526532299155 a1_x4
<= 189.30457398469679

a1_local_7: 
+1.3673342509007429 a1_x2
+0.731350069919803 a1_x5
+1.3011685407108486 a1_x1
<= 178.8563546640479

a1_local_8: 
+1.4660198982894335 a1_x3
+1.4926733989854104 a1_x4
+0.66993891676485495 a1_x5
<= 110.37961695150726

a1_act_1: 
+0.10000000000000001 a1_x1
-10 a1_z1
<= 0

a1_act_2: 
+0.10000000000000001 a1_x2
-10 a1_z2
<= 0

a2_local_1: 
+0.8754961313349785 a2_x1
+0.70241627513864757 a2_x5
+1.4236572177981117 a2_x6
<= 141.02985751453633

a2_local_2: 
+1.3027296865046967 a2_x5
+0.64896634759072591 a2_x2
+1.5409119497682415 a2_x4
<= 201.9914256331526

a2_local_3: 
+0.97638087532410778 a2_x4
+1.4960653522964651 a2_x5
+0.6684199981404535 a2_x1
<= 106.07427396536835

a2_local_4: 
+0.81585490239967084 a2_x6
+1.2257081462141175 a2_x1
+1.0106836502627079 a2_x3
<= 164.74722457283426

a2_local_5: 
+1.0532959261414332 a2_x4
+0.71248261481990205 a2_x5
+1.4035430187342541 a2_x3
<= 98.180901444866578

a2_local_6: 
+1.0535917610320984 a2_x5
+0.96114250482489272 a2_x3
+0.94913422540472414 a2_x1
<= 201.0607019280998

a2_local_7: 
+1.0237116822475172 a2_x3
+1.0277770656870882 a2_x1
+0.97297364709289513 a2_x4
<= 118.93077846917649

a2_local_8: 
+1.006605925067948 a2_x6
+0.88834761359364733 a2_x1
+1.1256854689513756 a2_x3
<= 188.30495422318137

a2_act_1: 
+0.10000000000000001 a2_x1
-10 a2_z1
<= 0

a2_act_2: 
+0.10000000000000001 a2_x2
-10 a2_z2
<= 0

a3_local_1: 
+1.2899386156101713 a3_x2
+0.77523068764553305 a3_x1
+1.0024967945448977 a3_x3
<= 163.82327089541846

a3_local_2: 
+0.80959283766982937 a3_x6
+0.71764585032528994 a3_x5
+1.3934449694744648 a3_x2
<= 112.06622620876746

a3_local_3: 
+1.4109572562078818 a3_x3
+0.70873869183508853 a3_x6
+1.1621907326258198 a3_x4
<= 173.87531733195988

a3_local_4: 
+1.0571356976342794 a3_x1
+0.78177264721633966 a3_x4
+1.2791442672760467 a3_x3
<= 150.77546422868932

a3_local_5: 
+1.1313792951047257 a3_x1
+1.0363871383368688 a3_x2
+0.88387687871505138 a3_x3
<= 145.67712498222568

a3_local_6: 
+0.59106261104770375 a3_x5
+1.6918681393624666 a3_x1
+1.2196762983328837 a3_x2
<= 219.45713270877849

a3_local_7: 
+1.4575821585403095 a3_x5
+0.68606767319479722 a3_x6
+1.1858333840809374 a3_x3
<= 151.54779898806393

a3_local_8: 
+1.4071386132875514 a3_x2
+0.6474898109328332 a3_x6
+1.5444258475037755 a3_x4
<= 152.65356573725973

a3_act_1: 
+0.10000000000000001 a3_x1
-10 a3_z1
<= 0

a3_act_2: 
+0.10000000000000001 a3_x2
-10 a3_z2
<= 0

a4_local_1: 
+1.1526840985477425 a4_x5
+0.86754037924171234 a4_x4
+0.9941384807066419 a4_x6
<= 98.187616336148139

a4_local_2: 
+0.82783830482285781 a4_x6
+1.395289707819892 a4_x4
+0.71669703746505597 a4_x2
<= 112.73134430340593

a4_local_3: 
+0.64677177216211046 a4_x1
+0.972670541564715 a4_x6
+1.5461404517656572 a4_x5
<= 201.64943780402331

a4_local_4: 
+1.2256947500956925 a4_x3
+0.85321828426133361 a4_x5
+0.81586381921104578 a4_x4
<= 165.31735350082005

a4_local_5: 
+1.5377741940402772 a4_x2
+0.65029053282045668 a4_x1
+1.5201562898371219 a4_x5
<= 120.39909135740263

a4_local_6: 
+1.3687735088302966 a4_x6
+0.88573577134642012 a4_x5
+0.73058105928318506 a4_x4
<= 205.8794723748106

a4_local_7: 
+1.2183779908900552 a4_x6
+0.94488880893307381 a4_x1
+0.82076334887621816 a4_x4
<= 115.32177128578986

a4_local_8: 
+1.5976393712405061 a4_x6
+1.4676217269728333 a4_x1
+0.62592348310966961 a4_x2
<= 145.72164324845949

a4_act_1: 
+0.10000000000000001 a4_x1
-10 a4_z1
<= 0

a4_act_2: 
+0.10000000000000001 a4_x2
-10 a4_z2
<= 0

coupling_1: 
+0.00076993291463655635 a1_x1
+0.13793916864497857 a2_x1
+14.279117647569093 a3_x1
+1298.8144564153956 a4_x1
+1.0408044059844321 short_1
-1.0408044059844321 surp_1
= 74232.591180797259

coupling_2: 
+0.0006522404479091115 a1_x2
+0.14615253620748564 a2_x2
+8.8775060705048805 a3_x2
+1533.1769184289351 a4_x2
+1.297068965979248 short_2
-1.297068965979248 surp_2
= 107923.98131487708

coupling_3: 
+0.00096115236090683984 a1_x3
+0.098554095152194127 a2_x3
+9.992640945833811 a3_x3
+1040.4177741981593 a4_x3
+0.80177464303535539 short_3
-0.80177464303535539 surp_3
= 37350.205016576867

bounds
  0 <= a1_x1 <= 100
  0 <= a1_x2 <= 100
  0 <= a1_x3 <= 100
  0 <= a1_x4 <= 100
  0 <= a1_x5 <= 100
  0 <= a1_x6 <= 100
  0 <= a2_x1 <= 100
  0 <= a2_x2 <= 100
  0 <= a2_x3 <= 100
  0 <= a2_x4 <= 100
  0 <= a2_x5 <= 100
  0 <= a2_x6 <= 100
  0 <= a3_x1 <= 100
  0 <= a3_x2 <= 100
  0 <= a3_x3 <= 100
  0 <= a3_x4 <= 100
  0 <= a3_x5 <= 100
  0 <= a3_x6 <= 100
  0 <= a4_x1 <= 100
  0 <= a4_x2 <= 100
  0 <= a4_x3 <= 100
  0 <= a4_x4 <= 100
  0 <= a4_x5 <= 100
  0 <= a4_x6 <= 100
  0 <= short_1 <= +inf
  0 <= surp_1 <= +inf
  0 <= short_2 <= +inf
  0 <= surp_2 <= +inf
  0 <= short_3 <= +inf
  0 <= surp_3 <= +inf
 0 <= a1_z1 <= 1
 0 <= a1_z2 <= 1
 0 <= a2_z1 <= 1
 0 <= a2_z2 <= 1
 0 <= a3_z1 <= 1
 0 <= a3_z2 <= 1
 0 <= a4_z1 <= 1
 0 <= a4_z2 <= 1

binary
  a1_z1
  a1_z2
  a2_z1
  a2_z2
  a3_z1
  a3_z2
  a4_z1
  a4_z2
end
