min
obj: 
  +4.0871141162290519 a1_x1
  +7.6613663727576089 a1_x2
  +4.8999168943267346 a1_x3
  +9.1856075433138287 a1_x4
  +7.8055232956727103 a1_x5
  +3.4861746229099309 a1_x6
  +23.402378726140935 a1_z1
  +18.267560866392444 a1_z2
  +9.867310978744726 a2_x1
  +9.2615292817302226 a2_x2
  +3.5007890513184758 a2_x3
  +7.1637373168446201 a2_x4
  +7.9245284991421201 a2_x5
  +2.4582106797035337 a2_x6
  +33.658905491272137 a2_z1
  +35.254409520378104 a2_z2
  +2.6732854397558619 a3_x1
  +9.8971817318039896 a3_x2
  +5.2211213282041085 a3_x3
  +8.0114291145185241 a3_x4
  +2.5829750625381869 a3_x5
  +9.9025128730968675 a3_x6
  +27.0926152551414 a3_z1
  +47.996135855740022 a3_z2
  +8.2046274155609638 a4_x1
  +7.1214056561276049 a4_x2
  +6.2664722965402984 a4_x3
  +7.507966634456313 a4_x4
  +5.5736057519875928 a4_x5
  +1.8081083701963157 a4_x6
  +27.561079601884479 a4_z1
  +34.985951557117836 a4_z2
  +1000000 short_1
  +1000000 surp_1
  +1000000 short_2
  +1000000 surp_2
  +1000000 short_3
  +1000000 surp_3

s.t.

a1_local_1: 
+0.00094617666374969471 a1_x6
+0.00052600100211459171 a1_x4
+0.0014987129748420234 a1_x2
<= 0.2059112846091696

a1_local_2: 
+0.0013536689756057897 a1_x6
+0.0008049528102114247 a1_x3
+0.00079186059247005102 a1_x2
<= 0.091379310738096603

a1_local_3: 
+0.00098919809361693641 a1_x6
+0.0012946813061984646 a1_x4
+0.0014975850057512069 a1_x1
<= 0.20190417515810957

a1_local_4: 
+0.0014474765578933678 a1_x4
+0.00057702725861033999 a1_x5
+0.00074904898324300393 a1_x2
<= 0.18466552360293723

a1_local_5: 
+0.0010746080283071417 a1_x5
+0.0011548177741338389 a1_x1
+0.00083713393313826414 a1_x4
<= 0.20751407491139318

a1_local_6: 
+0.00092431027187921827 a1_x2
+0.0011549181048212116 a1_x6
+0.00064879091030806341 a1_x1
<= 0.13394618648771286

a1_local_7: 
+0.0012579723798032078 a1_x2
+0.0012472186077572289 a1_x1
+0.00073086106951688083 a1_x3
<= 0.14419186127311776

a1_local_8: 
+0.0010805879833041244 a1_x2
+0.001252387394653014 a1_x4
+0.0014900163456101853 a1_x3
<= 0.21896594249650772

a1_act_1: 
+1 a1_x1
-100 a1_z1
<= 0

a1_act_2: 
+1 a1_x2
-100 a1_z2
<= 0

a2_local_1: 
+0.13718789300770001 a2_x6
+0.14549032231069314 a2_x2
+0.14476096257456575 a2_x4
<= 20.539154714307358

a2_local_2: 
+0.10849272736500531 a2_x2
+0.077463913845149529 a2_x3
+0.083051022464346369 a2_x6
<= 18.568157513993505

a2_local_3: 
+0.067057708993865026 a2_x4
+0.1333369970016654 a2_x6
+0.11131681391479296 a2_x2
<= 9.466945803774296

a2_local_4: 
+0.12473534754064459 a2_x6
+0.13783923000771867 a2_x2
+0.13468490507264272 a2_x4
<= 21.639141364040483

a2_local_5: 
+0.077264610080610613 a2_x2
+0.12780732723856145 a2_x3
+0.071898502609103201 a2_x1
<= 15.455163671546689

a2_local_6: 
+0.1005234301895114 a2_x4
+0.11563082659554345 a2_x6
+0.1108724432687557 a2_x2
<= 20.505260531810261

a2_local_7: 
+0.13895653152092005 a2_x5
+0.13426953772475719 a2_x2
+0.095496606012883817 a2_x3
<= 24.881234431197701

a2_local_8: 
+0.050824319897770878 a2_x5
+0.10320230749310455 a2_x4
+0.11623159205615451 a2_x6
<= 11.799042851118156

a2_act_1: 
+1 a2_x1
-100 a2_z1
<= 0

a2_act_2: 
+1 a2_x2
-100 a2_z2
<= 0

a3_local_1: 
+6.3328369760802321 a3_x3
+8.6686705058502049 a3_x5
+14.212518879185602 a3_x6
<= 1830.5462712979308

a3_local_2: 
+12.61238675039035 a3_x4
+10.107802293976853 a3_x1
+8.1811487452664515 a3_x2
<= 2011.0938807734153

a3_local_3: 
+9.0741518658389353 a3_x3
+10.676466929460453 a3_x5
+8.841617205227525 a3_x2
<= 1137.8790997669971

a3_local_4: 
+11.580440908824832 a3_x2
+9.1986313964344397 a3_x6
+7.2757747493581242 a3_x4
<= 1908.5947530256392

a3_local_5: 
+8.7216332594945385 a3_x2
+11.721017563319659 a3_x3
+12.01013327393742 a3_x1
<= 1832.6030274468558

a3_local_6: 
+12.444707582994173 a3_x1
+10.08410841756332 a3_x5
+14.644981435020355 a3_x4
<= 1659.3382311001089

a3_local_7: 
+6.6288044092735987 a3_x2
+14.449217084588541 a3_x1
+8.0972588189163126 a3_x3
<= 1124.8144854673751

a3_local_8: 
+8.2691658871777207 a3_x4
+8.7127538347745137 a3_x5
+10.625663231965286 a3_x2
<= 1519.8288106999969

a3_act_1: 
+1 a3_x1
-100 a3_z1
<= 0

a3_act_2: 
+1 a3_x2
-100 a3_z2
<= 0

a4_local_1: 
+1418.0083872888765 a4_x3
+661.40910047170928 a4_x2
+728.84301421422992 a4_x6
<= 178184.15850361934

a4_local_2: 
+1186.3783508595479 a4_x6
+1073.9476495699037 a4_x1
+664.28148799993505 a4_x5
<= 131303.74305726198

a4_local_3: 
+501.2013746757392 a4_x4
+1003.6271652007172 a4_x5
+1094.624206380141 a4_x6
<= 130842.35982064996

a4_local_4: 
+1024.6754041028119 a4_x6
+1298.3287565988826 a4_x2
+824.6708527598596 a4_x4
<= 172227.72369105002

a4_local_5: 
+542.90918198984355 a4_x3
+590.1218649074292 a4_x6
+748.05862973737192 a4_x1
<= 130657.70805821824

a4_local_6: 
+826.82086774620495 a4_x5
+1474.1064643450254 a4_x6
+1081.1702067915915 a4_x2
<= 198196.50451765861

a4_local_7: 
+1139.2564358033278 a4_x4
+511.99038198756529 a4_x3
+806.9626157826383 a4_x2
<= 156518.59912257479

a4_local_8: 
+1310.6179207900943 a4_x3
+613.95194443455205 a4_x6
+1090.8214583770123 a4_x2
<= 200788.60931460204

a4_act_1: 
+1 a4_x1
-100 a4_z1
<= 0

a4_act_2: 
+1 a4_x2
-100 a4_z2
<= 0

coupling_1: 
+5.16366298149703e-08 a1_x1
+7.1372483687549547e-06 a2_x1
+0.00083445214917977017 a3_x1
+0.086524364109559507 a4_x1
+6.7151980379019172e-05 short_1
-6.7151980379019172e-05 surp_1
= 5.1733673686554535

coupling_2: 
+9.4770823687453649e-08 a1_x2
+7.5712178570327915e-06 a2_x2
+0.0009981556176317343 a3_x2
+0.081552517952547574 a4_x2
+6.7151980379019172e-05 short_2
-6.7151980379019172e-05 surp_2
= 5.4115772815179835

coupling_3: 
+7.7798984303937049e-08 a1_x3
+7.2699214144446343e-06 a2_x3
+0.00054095879237104922 a3_x3
+0.068058038160113604 a4_x3
+6.7151980379019172e-05 short_3
-6.7151980379019172e-05 surp_3
= 4.5729008191944942

bounds
  0 <= a1_x1 <= 100
  0 <= a1_x2 <= 100
  0 <= a1_x3 <= 100
  0 <= a1_x4 <= 100
  0 <= a1_x5 <= 100
  0 <= a1_x6 <= 100
  0 <= a2_x1 <= 100
  0 <= a2_x2 <= 100
  0 <= a2_x3 <= 100
  0 <= a2_x4 <= 100
  0 <= a2_x5 <= 100
  0 <= a2_x6 <= 100
  0 <= a3_x1 <= 100
  0 <= a3_x2 <= 100
  0 <= a3_x3 <= 100
  0 <= a3_x4 <= 100
  0 <= a3_x5 <= 100
  0 <= a3_x6 <= 100
  0 <= a4_x1 <= 100
  0 <= a4_x2 <= 100
  0 <= a4_x3 <= 100
  0 <= a4_x4 <= 100
  0 <= a4_x5 <= 100
  0 <= a4_x6 <= 100
  0 <= short_1 <= +inf
  0 <= surp_1 <= +inf
  0 <= short_2 <= +inf
  0 <= surp_2 <= +inf
  0 <= short_3 <= +inf
  0 <= surp_3 <= +inf
 0 <= a1_z1 <= 1
 0 <= a1_z2 <= 1
 0 <= a2_z1 <= 1
 0 <= a2_z2 <= 1
 0 <= a3_z1 <= 1
 0 <= a3_z2 <= 1
 0 <= a4_z1 <= 1
 0 <= a4_z2 <= 1

binary
  a1_z1
  a1_z2
  a2_z1
  a2_z2
  a3_z1
  a3_z2
  a4_z1
  a4_z2
end
