min
obj: 
  +5.2436233239928463 a1_x1
  +8.0695966456126804 a1_x2
  +3.4781022885686368 a1_x3
  +9.412058306823841 a1_x4
  +8.3165688602967034 a1_x5
  +6.8002801919710905 a1_x6
  +10.410503430419741 a1_z1
  +29.396440143420605 a1_z2
  +8.2806614137575387 a2_x1
  +6.0649431138157652 a2_x2
  +8.6541766135972331 a2_x3
  +4.3292904508020413 a2_x4
  +7.270244042047584 a2_x5
  +4.5318516777440347 a2_x6
  +14.3292458598275 a2_z1
  +33.495450643789965 a2_z2
  +3.4667216339522406 a3_x1
  +8.7306868906336064 a3_x2
  +5.7873163324378032 a3_x3
  +5.6599350909197002 a3_x4
  +4.8869920304691288 a3_x5
  +4.3356674135059086 a3_x6
  +5.900585939248967 a3_z1
  +40.303679684732423 a3_z2
  +4.5273516228701549 a4_x1
  +9.793261850532609 a4_x2
  +5.1742521510836195 a4_x3
  +5.4489998276629183 a4_x4
  +4.6550473123840108 a4_x5
  +5.1815797270979749 a4_x6
  +20.492987297835271 a4_z1
  +8.5742214275245221 a4_z2
  +1000000 short_1
  +1000000 surp_1
  +1000000 short_2
  +1000000 surp_2
  +1000000 short_3
  +1000000 surp_3

s.t.

a1_local_1: 
+0.71444632207427206 a1_x4
+0.43574013794578392 a1_x6
+0.54744587408942513 a1_x1
<= 111.38287801045655

a1_local_2: 
+0.51791392364174604 a1_x5
+0.28563217064578794 a1_x4
+0.80633704540358753 a1_x1
<= 50.322073711188992

a1_local_3: 
+0.63777507054707416 a1_x3
+0.44182236934932345 a1_x6
+0.6309009061106382 a1_x5
<= 60.070908659970385

a1_local_4: 
+0.33929697537901254 a1_x3
+0.65123208578941427 a1_x5
+0.67880360409843354 a1_x4
<= 95.446496815210679

a1_local_5: 
+0.46140356518349446 a1_x5
+0.60766003031606708 a1_x2
+0.6464178506138557 a1_x1
<= 105.98516987854602

a1_local_6: 
+0.61634174795948904 a1_x3
+0.44824111799900029 a1_x2
+0.64745868583041499 a1_x5
<= 104.82368412884905

a1_local_7: 
+0.36500413164660628 a1_x1
+0.83300487450751204 a1_x5
+0.4157822301729967 a1_x6
<= 100.89831964908163

a1_local_8: 
+0.53847590475921814 a1_x1
+0.69184837387322584 a1_x5
+0.48102965351703048 a1_x3
<= 100.15801049819524

a1_act_1: 
+0.0099995000374968751 a1_x1
-0.99995000374968757 a1_z1
<= 0

a1_act_2: 
+0.0099995000374968751 a1_x2
-0.99995000374968757 a1_z2
<= 0

a2_local_1: 
+0.3735062532149579 a2_x2
+0.68733294235950082 a2_x5
+0.6229498416058511 a2_x6
<= 85.86696694098778

a2_local_2: 
+0.74279153421754451 a2_x5
+0.56147197125488557 a2_x3
+0.36470530869442969 a2_x4
<= 58.226657436824986

a2_local_3: 
+0.63581123423919239 a2_x3
+0.57371264367388475 a2_x1
+0.5163311697970181 a2_x2
<= 85.636743590210742

a2_local_4: 
+0.32639529475032769 a2_x1
+0.73437005898123253 a2_x3
+0.59511908727308327 a2_x4
<= 115.55769790214859

a2_local_5: 
+0.40755672572156981 a2_x4
+0.58260213990676446 a2_x5
+0.70318721681723695 a2_x2
<= 76.54545341286412

a2_local_6: 
+0.48792588625729022 a2_x6
+0.57678186501860262 a2_x1
+0.65517250377721148 a2_x3
<= 64.028430229757518

a2_local_7: 
+0.57773410591682117 a2_x4
+0.37478013677828259 a2_x6
+0.72509527093820103 a2_x2
<= 112.19666078162598

a2_local_8: 
+0.54930793062582672 a2_x6
+0.67041535046167655 a2_x5
+0.49880262150165106 a2_x4
<= 94.103651877935604

a2_act_1: 
+0.0099995000374968751 a2_x1
-0.99995000374968757 a2_z1
<= 0

a2_act_2: 
+0.0099995000374968751 a2_x2
-0.99995000374968757 a2_z2
<= 0

a3_local_1: 
+0.75228747269457885 a3_x4
+0.51532305906318077 a3_x1
+0.41049446186832872 a3_x5
<= 100.86043104916044

a3_local_2: 
+0.36688515657882681 a3_x2
+0.33858081319251004 a3_x4
+0.86646310643906133 a3_x3
<= 85.560918576777183

a3_local_3: 
+0.64511379485137166 a3_x4
+0.49493960553075739 a3_x6
+0.58211938515180928 a3_x5
<= 71.402497045085966

a3_local_4: 
+0.7763086026372813 a3_x4
+0.3485372522024669 a3_x2
+0.52523017554069162 a3_x6
<= 96.161251875074612

a3_local_5: 
+0.80818542300958562 a3_x3
+0.41803268102831459 a3_x4
+0.41483129055930279 a3_x2
<= 58.629258931026392

a3_local_6: 
+0.6397412937144431 a3_x4
+0.62238720137125614 a3_x1
+0.45096036265488554 a3_x6
<= 87.688428570645343

a3_local_7: 
+0.7863853874727561 a3_x4
+0.4774487343032856 a3_x5
+0.39197031581678965 a3_x2
<= 110.89702623898772

a3_local_8: 
+0.41632820917113483 a3_x2
+0.68221755016079444 a3_x5
+0.60104079437336022 a3_x3
<= 89.221680966901332

a3_act_1: 
+0.0099995000374968751 a3_x1
-0.99995000374968757 a3_z1
<= 0

a3_act_2: 
+0.0099995000374968751 a3_x2
-0.99995000374968757 a3_z2
<= 0

a4_local_1: 
+0.80562951948429495 a4_x5
+0.42176101772950608 a4_x6
+0.41602730830953316 a4_x2
<= 57.930043658056292

a4_local_2: 
+0.65725354565990945 a4_x5
+0.3516058410060911 a4_x4
+0.66662666409908677 a4_x1
<= 87.334077911326091

a4_local_3: 
+0.48957808410464171 a4_x6
+0.48669519233211483 a4_x2
+0.72349228698392787 a4_x3
<= 72.199898606422764

a4_local_4: 
+0.539312100154695 a4_x2
+0.48770524042986807 a4_x6
+0.68650277281594219 a4_x4
<= 102.23659887745423

a4_local_5: 
+0.71518857140941172 a4_x2
+0.40589755795445531 a4_x1
+0.56899251293138697 a4_x3
<= 77.244960991650373

a4_local_6: 
+0.57783038895112526 a4_x3
+0.58408750613795568 a4_x5
+0.57004721451660034 a4_x2
<= 87.122324865516163

a4_local_7: 
+0.35335638496618882 a4_x5
+0.85793641727566372 a4_x2
+0.37294016827880672 a4_x4
<= 77.199908795297816

a4_local_8: 
+0.59212808827821362 a4_x1
+0.69943158707545405 a4_x5
+0.40022466449870353 a4_x4
<= 102.07588036749334

a4_act_1: 
+0.0099995000374968751 a4_x1
-0.99995000374968757 a4_z1
<= 0

a4_act_2: 
+0.0099995000374968751 a4_x2
-0.99995000374968757 a4_z2
<= 0

coupling_1: 
+7.7243879524795124e-07 a1_x1
+5.6057330838680726e-05 a2_x1
+0.0083637781526693915 a3_x1
+0.99996446625106172 a4_x1
+0.00074508631074956275 short_1
-0.00074508631074956275 surp_1
= 28.199427110105699

coupling_2: 
+7.4763633196817266e-07 a1_x2
+6.4532696710433701e-05 a2_x2
+0.009735243568820464 a3_x2
+0.99995189152367914 a4_x2
+0.00084720299936442522 short_2
-0.00084720299936442522 surp_2
= 67.89909578990877

coupling_3: 
+1.5887570568974729e-06 a1_x3
+0.00011211345496376884 a2_x3
+0.012516149010238842 a3_x3
+0.99991982620976971 a4_x3
+0.0013554694069516768 short_3
-0.0013554694069516768 surp_3
= 51.653255400436088

bounds
  0 <= a1_x1 <= 100
  0 <= a1_x2 <= 100
  0 <= a1_x3 <= 100
  0 <= a1_x4 <= 100
  0 <= a1_x5 <= 100
  0 <= a1_x6 <= 100
  0 <= a2_x1 <= 100
  0 <= a2_x2 <= 100
  0 <= a2_x3 <= 100
  0 <= a2_x4 <= 100
  0 <= a2_x5 <= 100
  0 <= a2_x6 <= 100
  0 <= a3_x1 <= 100
  0 <= a3_x2 <= 100
  0 <= a3_x3 <= 100
  0 <= a3_x4 <= 100
  0 <= a3_x5 <= 100
  0 <= a3_x6 <= 100
  0 <= a4_x1 <= 100
  0 <= a4_x2 <= 100
  0 <= a4_x3 <= 100
  0 <= a4_x4 <= 100
  0 <= a4_x5 <= 100
  0 <= a4_x6 <= 100
  0 <= short_1 <= +inf
  0 <= surp_1 <= +inf
  0 <= short_2 <= +inf
  0 <= surp_2 <= +inf
  0 <= short_3 <= +inf
  0 <= surp_3 <= +inf
 0 <= a1_z1 <= 1
 0 <= a1_z2 <= 1
 0 <= a2_z1 <= 1
 0 <= a2_z2 <= 1
 0 <= a3_z1 <= 1
 0 <= a3_z2 <= 1
 0 <= a4_z1 <= 1
 0 <= a4_z2 <= 1

binary
  a1_z1
  a1_z2
  a2_z1
  a2_z2
  a3_z1
  a3_z2
  a4_z1
  a4_z2
end
