min
obj: 
  +4.6121734767481746 a1_x1
  +8.3726653944305163 a1_x2
  +3.8874111784256438 a1_x3
  +3.5735214707131471 a1_x4
  +7.9063268225890937 a1_x5
  +6.5043346512565909 a1_x6
  +46.9551209495583 a1_z1
  +19.806653497637782 a1_z2
  +7.6567171580139357 a2_x1
  +8.2043744709301158 a2_x2
  +3.6188691473828523 a2_x3
  +5.2859257046209569 a2_x4
  +3.3947769180807601 a2_x5
  +2.5210962766084055 a2_x6
  +31.130882329794158 a2_z1
  +23.010561281727053 a2_z2
  +6.9874663911383514 a3_x1
  +2.0892016241128126 a3_x2
  +9.3610808006140438 a3_x3
  +4.8509819599704116 a3_x4
  +1.7243146015797635 a3_x5
  +7.0038934437638574 a3_x6
  +33.012677472845496 a3_z1
  +8.0010596287278375 a3_z2
  +6.4216192335644386 a4_x1
  +2.3877334915960096 a4_x2
  +7.475862409648836 a4_x3
  +7.4106096914751971 a4_x4
  +8.5860247699785965 a4_x5
  +3.4325757317506875 a4_x6
  +23.317265071624306 a4_z1
  +25.042487194398138 a4_z2
  +1000000 short_1
  +1000000 surp_1
  +1000000 short_2
  +1000000 surp_2
  +1000000 short_3
  +1000000 surp_3

s.t.

a1_local_1: 
+0.0012906075671666123 a1_x1
+0.0011467248542671236 a1_x6
+0.0012535136551582126 a1_x2
<= 0.22465326985334022

a1_local_2: 
+0.0010554806069745441 a1_x4
+0.00079273265620465115 a1_x6
+0.00072917640940800836 a1_x2
<= 0.096576027231339484

a1_local_3: 
+0.0014722491353981429 a1_x2
+0.0014175620560284772 a1_x1
+0.00066704198182762013 a1_x5
<= 0.13668465484708314

a1_local_4: 
+0.0014888987575584071 a1_x1
+0.00076569309833190969 a1_x2
+0.00059271134669160229 a1_x4
<= 0.089888170535162154

a1_local_5: 
+0.00092224108861290626 a1_x2
+0.00059949888588088553 a1_x6
+0.00066548486046321743 a1_x3
<= 0.076680658422657241

a1_local_6: 
+0.0013144594820566921 a1_x4
+0.001122535029781292 a1_x6
+0.00096610977319489205 a1_x1
<= 0.18629388511440367

a1_local_7: 
+0.0009824804878600941 a1_x1
+0.00050034323992626353 a1_x5
+0.0013055023507662785 a1_x6
<= 0.15460263350586625

a1_local_8: 
+0.0014330935271795202 a1_x2
+0.00084067474227746358 a1_x1
+0.0010553827722453194 a1_x4
<= 0.17666060248468907

a1_act_1: 
+1 a1_x1
-100 a1_z1
<= 0

a1_act_2: 
+1 a1_x2
-100 a1_z2
<= 0

a2_local_1: 
+0.1158283797567235 a2_x4
+0.13746421547720875 a2_x2
+0.10971442002365857 a2_x6
<= 13.559118826511915

a2_local_2: 
+0.05527057715601931 a2_x2
+0.11053155457796207 a2_x6
+0.072768506645443792 a2_x5
<= 11.599774385473076

a2_local_3: 
+0.11900452445926263 a2_x2
+0.088018245700856021 a2_x1
+0.12540655944056134 a2_x3
<= 11.103011281257066

a2_local_4: 
+0.093448041032065221 a2_x3
+0.10828443070418337 a2_x2
+0.13766114081842629 a2_x4
<= 20.647919714678512

a2_local_5: 
+0.077350476211233365 a2_x2
+0.10778973453642704 a2_x5
+0.14337612664789753 a2_x6
<= 20.085893570957456

a2_local_6: 
+0.14347392896000857 a2_x6
+0.13068007858374706 a2_x5
+0.11506487417127578 a2_x1
<= 17.902497347167476

a2_local_7: 
+0.071084567195662376 a2_x5
+0.078539736454592154 a2_x4
+0.068172446254987321 a2_x3
<= 11.271656175373872

a2_local_8: 
+0.084073399515222788 a2_x6
+0.0685269419717872 a2_x4
+0.080206415323246058 a2_x3
<= 6.9881831073963001

a2_act_1: 
+1 a2_x1
-100 a2_z1
<= 0

a2_act_2: 
+1 a2_x2
-100 a2_z2
<= 0

a3_local_1: 
+11.157958653165256 a3_x2
+9.8426752193669316 a3_x1
+5.8024003796303889 a3_x6
<= 1604.5807464041688

a3_local_2: 
+13.868515098356259 a3_x3
+5.5163254933190498 a3_x5
+6.8350457601145909 a3_x6
<= 1498.9793827610613

a3_local_3: 
+6.9042189628032222 a3_x4
+7.2548359869672634 a3_x5
+5.351118458005967 a3_x3
<= 1234.5881179650221

a3_local_4: 
+10.273523404385054 a3_x1
+5.2872669735790314 a3_x5
+10.46220500399254 a3_x6
<= 1204.0890688006612

a3_local_5: 
+10.305137096184867 a3_x3
+8.9183066397868647 a3_x5
+6.9212119516073027 a3_x1
<= 936.50729518749802

a3_local_6: 
+11.375557402174664 a3_x3
+11.912515519570416 a3_x4
+6.0382382597691748 a3_x6
<= 903.03425387016864

a3_local_7: 
+9.8797966766311642 a3_x2
+14.465260515066301 a3_x3
+12.069645446435473 a3_x1
<= 1943.7176915272253

a3_local_8: 
+10.152582835330456 a3_x1
+10.220836689790271 a3_x3
+7.1918303464176114 a3_x5
<= 1011.1327734569711

a3_act_1: 
+1 a3_x1
-100 a3_z1
<= 0

a3_act_2: 
+1 a3_x2
-100 a3_z2
<= 0

a4_local_1: 
+1465.7794852031413 a4_x4
+1299.4366992459975 a4_x2
+535.90349445838319 a4_x6
<= 230699.88633918727

a4_local_2: 
+662.1578191334371 a4_x5
+613.18597815332657 a4_x6
+724.76740719273982 a4_x2
<= 95204.455254595159

a4_local_3: 
+1350.6309721080565 a4_x1
+1378.5670775857755 a4_x3
+973.33837597851698 a4_x6
<= 189585.6713580444

a4_local_4: 
+1126.5438555262685 a4_x5
+1061.6597028209292 a4_x1
+623.08147454909397 a4_x6
<= 139086.37816309664

a4_local_5: 
+505.81920929920011 a4_x5
+926.79728276381957 a4_x1
+1103.6065840089279 a4_x6
<= 167630.61653063438

a4_local_6: 
+1314.918444879524 a4_x6
+1084.3883221419119 a4_x1
+1490.7222653504236 a4_x5
<= 184486.0691346098

a4_local_7: 
+1207.4929441352026 a4_x2
+1492.7256867998519 a4_x6
+590.32924744218235 a4_x1
<= 173754.46007427215

a4_local_8: 
+922.89612476474929 a4_x2
+1043.8199234269862 a4_x3
+986.05144937270109 a4_x6
<= 107029.71342936828

a4_act_1: 
+1 a4_x1
-100 a4_z1
<= 0

a4_act_2: 
+1 a4_x2
-100 a4_z2
<= 0

coupling_1: 
+3.4192419620953568e-07 a1_x1
+3.6474523887733193e-05 a2_x1
+0.0033468883982673645 a3_x1
+0.35703444958561248 a4_x1
+0.00030857733017268247 short_1
-0.00030857733017268247 surp_1
= 14.715371074764528

coupling_2: 
+2.12660460969412e-07 a1_x2
+2.4495064473121305e-05 a2_x2
+0.0025312584614882974 a3_x2
+0.37219931117380783 a4_x2
+0.00030857733017268247 short_2
-0.00030857733017268247 surp_2
= 14.929679600479201

coupling_3: 
+1.8532083680324609e-07 a1_x3
+2.858384162906882e-05 a2_x3
+0.0022460148572826947 a3_x3
+0.24629168240590299 a4_x3
+0.00030857733017268247 short_3
-0.00030857733017268247 surp_3
= 5.8559436306106036

bounds
  0 <= a1_x1 <= 100
  0 <= a1_x2 <= 100
  0 <= a1_x3 <= 100
  0 <= a1_x4 <= 100
  0 <= a1_x5 <= 100
  0 <= a1_x6 <= 100
  0 <= a2_x1 <= 100
  0 <= a2_x2 <= 100
  0 <= a2_x3 <= 100
  0 <= a2_x4 <= 100
  0 <= a2_x5 <= 100
  0 <= a2_x6 <= 100
  0 <= a3_x1 <= 100
  0 <= a3_x2 <= 100
  0 <= a3_x3 <= 100
  0 <= a3_x4 <= 100
  0 <= a3_x5 <= 100
  0 <= a3_x6 <= 100
  0 <= a4_x1 <= 100
  0 <= a4_x2 <= 100
  0 <= a4_x3 <= 100
  0 <= a4_x4 <= 100
  0 <= a4_x5 <= 100
  0 <= a4_x6 <= 100
  0 <= short_1 <= +inf
  0 <= surp_1 <= +inf
  0 <= short_2 <= +inf
  0 <= surp_2 <= +inf
  0 <= short_3 <= +inf
  0 <= surp_3 <= +inf
 0 <= a1_z1 <= 1
 0 <= a1_z2 <= 1
 0 <= a2_z1 <= 1
 0 <= a2_z2 <= 1
 0 <= a3_z1 <= 1
 0 <= a3_z2 <= 1
 0 <= a4_z1 <= 1
 0 <= a4_z2 <= 1

binary
  a1_z1
  a1_z2
  a2_z1
  a2_z2
  a3_z1
  a3_z2
  a4_z1
  a4_z2
end
