min
obj: 
  +4.1029321056614965 a1_x1
  +3.3290118192963942 a1_x2
  +9.1017647242801925 a1_x3
  +1.0276781995025082 a1_x4
  +7.5015228430107515 a1_x5
  +9.6952211771409225 a1_x6
  +46.462393702811802 a1_z1
  +20.976939063031899 a1_z2
  +8.736124438174345 a2_x1
  +2.0422875685559534 a2_x2
  +7.9141637375248139 a2_x3
  +8.8510497644699591 a2_x4
  +5.3589026031734779 a2_x5
  +4.4651025961117679 a2_x6
  +43.599104627831977 a2_z1
  +13.736336737274122 a2_z2
  +8.7712175698219141 a3_x1
  +5.7628145052800139 a3_x2
  +8.5270938060320436 a3_x3
  +1.138926571582954 a3_x4
  +2.911442950069294 a3_x5
  +3.0275728231625529 a3_x6
  +21.64888772902043 a3_z1
  +37.443506250957391 a3_z2
  +3.737467766634015 a4_x1
  +6.3047039607963935 a4_x2
  +7.2324424815448989 a4_x3
  +3.5312943582825165 a4_x4
  +2.1943254476366931 a4_x5
  +2.7966711705726111 a4_x6
  +25.767819676338174 a4_z1
  +25.233732022591987 a4_z2
  +1000000 short_1
  +1000000 surp_1
  +1000000 short_2
  +1000000 surp_2
  +1000000 short_3
  +1000000 surp_3

s.t.

a1_local_1: 
+0.0010828677723760305 a1_x6
+0.0007542320254637938 a1_x1
+0.00074678262613654092 a1_x4
<= 0.11678046311279205

a1_local_2: 
+0.0006330130572145626 a1_x6
+0.00076105004001529955 a1_x5
+0.0010110095882435435 a1_x4
<= 0.10726398022524732

a1_local_3: 
+0.00097322373212838347 a1_x1
+0.001354047148240749 a1_x5
+0.0010952058011131521 a1_x6
<= 0.15645355511221526

a1_local_4: 
+0.0011305541739845238 a1_x4
+0.00061834428152885714 a1_x5
+0.0013878254279257429 a1_x3
<= 0.21518264076509422

a1_local_5: 
+0.0005619073357209151 a1_x6
+0.0011651134280048089 a1_x2
+0.0010095446440488796 a1_x1
<= 0.10607528017490558

a1_local_6: 
+0.0011999305552737832 a1_x5
+0.00096166051266273077 a1_x1
+0.0014626258469645408 a1_x6
<= 0.21953320760903591

a1_local_7: 
+0.00073614684931468642 a1_x5
+0.0012469721548745544 a1_x1
+0.00058785690884401143 a1_x3
<= 0.13202278576467158

a1_local_8: 
+0.00077447165674464434 a1_x1
+0.0012722878826710684 a1_x3
+0.0012709665923078006 a1_x4
<= 0.18708407763394458

a1_act_1: 
+1 a1_x1
-100 a1_z1
<= 0

a1_act_2: 
+1 a1_x2
-100 a1_z2
<= 0

a2_local_1: 
+0.078322266699810961 a2_x4
+0.14335329760817869 a2_x5
+0.12536190874589909 a2_x1
<= 10.442560083522293

a2_local_2: 
+0.14666463514908071 a2_x4
+0.13030364155217714 a2_x5
+0.062900000225990543 a2_x2
<= 16.316969808901835

a2_local_3: 
+0.12230245286696564 a2_x6
+0.1406905817413312 a2_x3
+0.10404497816277013 a2_x4
<= 23.816361785753841

a2_local_4: 
+0.096994442763852745 a2_x3
+0.086604328383331902 a2_x2
+0.11424007329705983 a2_x5
<= 13.305281901729497

a2_local_5: 
+0.13814633552002939 a2_x3
+0.14208602753984412 a2_x4
+0.071965668269413627 a2_x5
<= 24.475426713076594

a2_local_6: 
+0.12337325986812915 a2_x1
+0.080705373932197746 a2_x4
+0.13831885219322948 a2_x5
<= 22.577552109642596

a2_local_7: 
+0.12425913982224475 a2_x6
+0.14733873506606285 a2_x2
+0.13460273431150505 a2_x4
<= 18.463822875229681

a2_local_8: 
+0.14791616535128882 a2_x5
+0.12283444715723922 a2_x1
+0.087555781429473387 a2_x3
<= 13.049908363507816

a2_act_1: 
+1 a2_x1
-100 a2_z1
<= 0

a2_act_2: 
+1 a2_x2
-100 a2_z2
<= 0

a3_local_1: 
+5.375449916353789 a3_x4
+14.245019805464148 a3_x2
+8.2122217664826795 a3_x6
<= 1695.594516117955

a3_local_2: 
+12.180292731053568 a3_x1
+10.783100639843365 a3_x4
+7.475234661946871 a3_x2
<= 1957.9537630975601

a3_local_3: 
+7.0557369578599261 a3_x3
+7.7112983203167182 a3_x6
+9.0130564241390161 a3_x5
<= 1276.3036603954604

a3_local_4: 
+5.417925915211093 a3_x6
+9.3527692671100748 a3_x4
+12.04230071956616 a3_x1
<= 1832.1271471027719

a3_local_5: 
+7.1275897557554764 a3_x6
+13.771316356525489 a3_x4
+6.2048886216267416 a3_x3
<= 908.07682860085038

a3_local_6: 
+8.0353550105708003 a3_x2
+7.2278742962702687 a3_x6
+12.163749256208082 a3_x5
<= 1398.9459805725126

a3_local_7: 
+6.6586306882747657 a3_x3
+5.5616203460289979 a3_x4
+10.578530803959531 a3_x5
<= 1575.8472262263572

a3_local_8: 
+7.8937882817395169 a3_x5
+14.223138786988212 a3_x1
+11.748959184517416 a3_x6
<= 1514.7151672892135

a3_act_1: 
+1 a3_x1
-100 a3_z1
<= 0

a3_act_2: 
+1 a3_x2
-100 a3_z2
<= 0

a4_local_1: 
+1386.2282819263992 a4_x5
+1047.8162595376591 a4_x2
+823.27604170798099 a4_x1
<= 167056.47190743318

a4_local_2: 
+1362.7381719005082 a4_x4
+1087.7655395092409 a4_x6
+1422.1902753143495 a4_x2
<= 270624.62369641312

a4_local_3: 
+1392.1278594327405 a4_x3
+595.98220757298532 a4_x6
+630.07787632798079 a4_x4
<= 86779.026431858991

a4_local_4: 
+1085.3606089393622 a4_x6
+1243.0817034139247 a4_x1
+660.44243172767142 a4_x2
<= 93460.732580706273

a4_local_5: 
+1237.0642344216276 a4_x5
+849.2401140349366 a4_x6
+1452.5339836563342 a4_x1
<= 239979.20257136953

a4_local_6: 
+1266.1144102702735 a4_x1
+928.76616409906239 a4_x3
+1012.8172753983979 a4_x6
<= 164332.28020924047

a4_local_7: 
+1224.7874733283086 a4_x1
+622.2046059340563 a4_x3
+1306.2234300634132 a4_x6
<= 190606.68132338396

a4_local_8: 
+1189.3236725313536 a4_x1
+1369.451483213137 a4_x3
+886.75437501986744 a4_x4
<= 216236.4397022448

a4_act_1: 
+1 a4_x1
-100 a4_z1
<= 0

a4_act_2: 
+1 a4_x2
-100 a4_z2
<= 0

coupling_1: 
+616.98930740384355 a1_x1
+105018.07383144303 a2_x1
+4224929.2591724386 a3_x1
+727645999.70441663 a4_x1
+801409.07394939649 short_1
-801409.07394939649 surp_1
= 30266664536.906593

coupling_2: 
+520.80766015240431 a1_x2
+87244.27796860275 a2_x2
+5711440.5270714099 a3_x2
+574734431.7864306 a4_x2
+801409.07394939649 short_2
-801409.07394939649 surp_2
= 27479545868.678902

coupling_3: 
+718.90246440118096 a1_x3
+89894.036611267671 a2_x3
+4280115.2648647763 a3_x3
+631651220.01096773 a4_x3
+801409.07394939649 short_3
-801409.07394939649 surp_3
= 24543728758.326908

bounds
  0 <= a1_x1 <= 100
  0 <= a1_x2 <= 100
  0 <= a1_x3 <= 100
  0 <= a1_x4 <= 100
  0 <= a1_x5 <= 100
  0 <= a1_x6 <= 100
  0 <= a2_x1 <= 100
  0 <= a2_x2 <= 100
  0 <= a2_x3 <= 100
  0 <= a2_x4 <= 100
  0 <= a2_x5 <= 100
  0 <= a2_x6 <= 100
  0 <= a3_x1 <= 100
  0 <= a3_x2 <= 100
  0 <= a3_x3 <= 100
  0 <= a3_x4 <= 100
  0 <= a3_x5 <= 100
  0 <= a3_x6 <= 100
  0 <= a4_x1 <= 100
  0 <= a4_x2 <= 100
  0 <= a4_x3 <= 100
  0 <= a4_x4 <= 100
  0 <= a4_x5 <= 100
  0 <= a4_x6 <= 100
  0 <= short_1 <= +inf
  0 <= surp_1 <= +inf
  0 <= short_2 <= +inf
  0 <= surp_2 <= +inf
  0 <= short_3 <= +inf
  0 <= surp_3 <= +inf
 0 <= a1_z1 <= 1
 0 <= a1_z2 <= 1
 0 <= a2_z1 <= 1
 0 <= a2_z2 <= 1
 0 <= a3_z1 <= 1
 0 <= a3_z2 <= 1
 0 <= a4_z1 <= 1
 0 <= a4_z2 <= 1

binary
  a1_z1
  a1_z2
  a2_z1
  a2_z2
  a3_z1
  a3_z2
  a4_z1
  a4_z2
end
