min
obj: 
  +8.5242104678500681 a1_x1
  +7.6930756521091874 a1_x2
  +6.9189962156082423 a1_x3
  +9.2097073421305335 a1_x4
  +1.6783613276554563 a1_x5
  +5.9914602077021666 a1_x6
  +31.080729858907144 a1_z1
  +20.883867024027893 a1_z2
  +6.9077742042221582 a2_x1
  +5.0875445936298673 a2_x2
  +7.5917023578038236 a2_x3
  +8.2794490372741638 a2_x4
  +1.0351287904006585 a2_x5
  +5.7857723772906011 a2_x6
  +23.934213589769115 a2_z1
  +21.521505149496146 a2_z2
  +3.338751629164217 a3_x1
  +6.1106898664601106 a3_x2
  +6.5508211726549801 a3_x3
  +5.1951326468311683 a3_x4
  +3.9370151452755238 a3_x5
  +3.370609165759376 a3_x6
  +38.539597563502319 a3_z1
  +26.755532445572879 a3_z2
  +8.5438219758017482 a4_x1
  +7.1495610706401269 a4_x2
  +5.5659057933768521 a4_x3
  +2.526471255000704 a4_x4
  +2.3501129539553487 a4_x5
  +8.7808046110821252 a4_x6
  +7.4539102618189466 a4_z1
  +36.014449453139093 a4_z2
  +1000000 short_1
  +1000000 surp_1
  +1000000 short_2
  +1000000 surp_2
  +1000000 short_3
  +1000000 surp_3

s.t.

a1_local_1: 
+0.00063070814300599063 a1_x6
+0.0013587378415029253 a1_x2
+0.0013030043820764078 a1_x4
<= 0.11613029341250329

a1_local_2: 
+0.0011527811145222585 a1_x5
+0.00070176638952812757 a1_x2
+0.00086759454414894635 a1_x1
<= 0.1062599566632282

a1_local_3: 
+0.00085063838979128076 a1_x4
+0.00056510120820102883 a1_x2
+0.0008000850809955877 a1_x1
<= 0.093456665464952487

a1_local_4: 
+0.00066990276680099336 a1_x4
+0.0012564030974360767 a1_x2
+0.00099049072340328466 a1_x6
<= 0.1159354867862996

a1_local_5: 
+0.0011289596560646827 a1_x5
+0.001200766114697299 a1_x2
+0.00073742320754301345 a1_x1
<= 0.11578378724312048

a1_local_6: 
+0.0014644029138318369 a1_x2
+0.00102187490811662 a1_x5
+0.00061857656738686278 a1_x6
<= 0.10417480822261406

a1_local_7: 
+0.0011557767113027039 a1_x3
+0.0008783244488474014 a1_x4
+0.00085459328177445236 a1_x6
<= 0.15735001642065075

a1_local_8: 
+0.00073252222234778959 a1_x6
+0.00081837805538173352 a1_x2
+0.00099726054776814207 a1_x5
<= 0.16360072210047941

a1_act_1: 
+1 a1_x1
-100 a1_z1
<= 0

a1_act_2: 
+1 a1_x2
-100 a1_z2
<= 0

a2_local_1: 
+0.063449014894038827 a2_x6
+0.071696149193246281 a2_x3
+0.05949347274881879 a2_x2
<= 6.2280318783040611

a2_local_2: 
+0.086996200471950946 a2_x5
+0.13342349175535886 a2_x3
+0.1063551429309626 a2_x2
<= 22.211350040735248

a2_local_3: 
+0.10297548042271534 a2_x3
+0.13914658806165911 a2_x5
+0.12834414649719181 a2_x4
<= 16.716253011298775

a2_local_4: 
+0.12954504241131476 a2_x3
+0.088240351914935067 a2_x5
+0.097272010334719244 a2_x4
<= 20.927260470824951

a2_local_5: 
+0.11192088007077866 a2_x3
+0.083808315619548102 a2_x1
+0.11756468839908185 a2_x2
<= 20.761301354020208

a2_local_6: 
+0.082091276752422226 a2_x3
+0.10164638198111375 a2_x6
+0.078781169159318473 a2_x5
<= 10.371538237155262

a2_local_7: 
+0.14330288837289698 a2_x4
+0.13628256696790603 a2_x5
+0.088954807759439078 a2_x2
<= 18.402547685638229

a2_local_8: 
+0.073508875299267987 a2_x4
+0.10230762148015271 a2_x2
+0.083780112629406933 a2_x1
<= 12.564914966517629

a2_act_1: 
+1 a2_x1
-100 a2_z1
<= 0

a2_act_2: 
+1 a2_x2
-100 a2_z2
<= 0

a3_local_1: 
+13.817130611620719 a3_x6
+12.258323573577714 a3_x1
+14.176747053573639 a3_x5
<= 1812.5887925821939

a3_local_2: 
+6.4865264445116724 a3_x4
+9.6683109652044052 a3_x2
+8.2614662186990291 a3_x6
<= 1505.8566303828134

a3_local_3: 
+11.442523588202743 a3_x3
+13.428979975795862 a3_x2
+11.025688436623508 a3_x6
<= 1121.9625605698736

a3_local_4: 
+13.869576296947976 a3_x2
+12.457491908940476 a3_x3
+14.102856147930824 a3_x5
<= 2333.4748567990337

a3_local_5: 
+10.873834695465764 a3_x6
+5.5303898786149919 a3_x1
+14.88680308217916 a3_x5
<= 1973.9837338977304

a3_local_6: 
+13.722404088213484 a3_x6
+5.5190652573628682 a3_x2
+11.644046216053813 a3_x1
<= 2033.9565527717275

a3_local_7: 
+11.91641723655694 a3_x2
+10.692734261014136 a3_x1
+14.97195551689285 a3_x6
<= 1966.9037194772318

a3_local_8: 
+6.6313149123521784 a3_x1
+9.4777321892251276 a3_x5
+8.8893349334979348 a3_x4
<= 796.20863459634211

a3_act_1: 
+1 a3_x1
-100 a3_z1
<= 0

a3_act_2: 
+1 a3_x2
-100 a3_z2
<= 0

a4_local_1: 
+639.81232959295278 a4_x3
+1106.5667947026361 a4_x5
+672.32372808048922 a4_x6
<= 101276.81959683809

a4_local_2: 
+1462.9530018541873 a4_x4
+1010.4540539742004 a4_x3
+1408.040935836834 a4_x2
<= 120437.72455509864

a4_local_3: 
+720.32831130866691 a4_x5
+1170.0823344984269 a4_x6
+524.99007020599265 a4_x4
<= 133111.74696207014

a4_local_4: 
+896.52566412003273 a4_x1
+708.70243523321187 a4_x3
+1233.617301202436 a4_x6
<= 89554.080723219653

a4_local_5: 
+1301.4117074196288 a4_x6
+847.31537185675074 a4_x5
+1466.9895382557047 a4_x1
<= 225927.48382979789

a4_local_6: 
+527.33861341418901 a4_x4
+969.16414774672842 a4_x1
+1466.7513313229629 a4_x3
<= 134338.60332022663

a4_local_7: 
+1224.8324706887529 a4_x6
+1303.2917768911807 a4_x2
+1391.2593013246681 a4_x1
<= 208371.5170520542

a4_local_8: 
+576.15560200627965 a4_x3
+1366.3715836365404 a4_x2
+1130.9985776409674 a4_x6
<= 207148.54282985625

a4_act_1: 
+1 a4_x1
-100 a4_z1
<= 0

a4_act_2: 
+1 a4_x2
-100 a4_z2
<= 0

coupling_1: 
+2.9687595944152519e-07 a1_x1
+2.8700512704033159e-05 a2_x1
+0.0066076229015787471 a3_x1
+0.26646653623865857 a4_x1
+0.00052974874681133849 short_1
-0.00052974874681133849 surp_1
= 19.705846674758885

coupling_2: 
+3.9739131675252466e-07 a1_x2
+4.828531558723659e-05 a2_x2
+0.0069978825819985747 a3_x2
+0.64738013502142244 a4_x2
+0.00052974874681133849 short_2
-0.00052974874681133849 surp_2
= 21.738060967078916

coupling_3: 
+2.9331958102650075e-07 a1_x3
+3.4325507864643224e-05 a2_x3
+0.005005601069327857 a3_x3
+0.56577786429056343 a4_x3
+0.00052974874681133849 short_3
-0.00052974874681133849 surp_3
= 13.281207258534257

bounds
  0 <= a1_x1 <= 100
  0 <= a1_x2 <= 100
  0 <= a1_x3 <= 100
  0 <= a1_x4 <= 100
  0 <= a1_x5 <= 100
  0 <= a1_x6 <= 100
  0 <= a2_x1 <= 100
  0 <= a2_x2 <= 100
  0 <= a2_x3 <= 100
  0 <= a2_x4 <= 100
  0 <= a2_x5 <= 100
  0 <= a2_x6 <= 100
  0 <= a3_x1 <= 100
  0 <= a3_x2 <= 100
  0 <= a3_x3 <= 100
  0 <= a3_x4 <= 100
  0 <= a3_x5 <= 100
  0 <= a3_x6 <= 100
  0 <= a4_x1 <= 100
  0 <= a4_x2 <= 100
  0 <= a4_x3 <= 100
  0 <= a4_x4 <= 100
  0 <= a4_x5 <= 100
  0 <= a4_x6 <= 100
  0 <= short_1 <= +inf
  0 <= surp_1 <= +inf
  0 <= short_2 <= +inf
  0 <= surp_2 <= +inf
  0 <= short_3 <= +inf
  0 <= surp_3 <= +inf
 0 <= a1_z1 <= 1
 0 <= a1_z2 <= 1
 0 <= a2_z1 <= 1
 0 <= a2_z2 <= 1
 0 <= a3_z1 <= 1
 0 <= a3_z2 <= 1
 0 <= a4_z1 <= 1
 0 <= a4_z2 <= 1

binary
  a1_z1
  a1_z2
  a2_z1
  a2_z2
  a3_z1
  a3_z2
  a4_z1
  a4_z2
end
