min
obj: 
  +5.7129162548306427 a1_x1
  +9.0056358908477314 a1_x2
  +9.0172471176233611 a1_x3
  +9.406385688684578 a1_x4
  +5.7753562095118767 a1_x5
  +7.2881596650216451 a1_x6
  +20.355895911925103 a1_z1
  +36.986322019028464 a1_z2
  +9.5705581106952309 a2_x1
  +1.2604999258751248 a2_x2
  +5.3940318901522675 a2_x3
  +5.1816392623674004 a2_x4
  +3.5951202349319828 a2_x5
  +8.3242993176305013 a2_x6
  +8.2240572055779673 a2_z1
  +9.8483018703506104 a2_z2
  +4.4443242856945142 a3_x1
  +6.878356128261002 a3_x2
  +6.0922718983064614 a3_x3
  +7.9699820931728009 a3_x4
  +3.3886243612057902 a3_x5
  +8.8768505579425145 a3_x6
  +46.436857763791892 a3_z1
  +46.775047481358833 a3_z2
  +2.1426688948262615 a4_x1
  +3.7175386403807593 a4_x2
  +7.4752828100284079 a4_x3
  +1.4623010448148774 a4_x4
  +9.334818787187654 a4_x5
  +5.5099843569690403 a4_x6
  +29.024926983261683 a4_z1
  +40.430546823103057 a4_z2
  +1000000 short_1
  +1000000 surp_1
  +1000000 short_2
  +1000000 surp_2
  +1000000 short_3
  +1000000 surp_3

s.t.

a1_local_1: 
+1.2323452756278992 a1_x1
+0.81146089474841732 a1_x3
+0.98429546182768979 a1_x4
<= 105.82430184107378

a1_local_2: 
+1.4953012733070601 a1_x3
+0.66876155183655095 a1_x4
+1.3475799601647833 a1_x5
<= 147.51684959336774

a1_local_3: 
+1.224403913108022 a1_x2
+0.75418227837105534 a1_x4
+1.3259394030842011 a1_x1
<= 138.93101452187693

a1_local_4: 
+1.0115753214621128 a1_x2
+1.2409139435733898 a1_x3
+0.80585765449645641 a1_x4
<= 100.28545752632154

a1_local_5: 
+1.384443225138271 a1_x1
+0.72231203262244648 a1_x3
+1.2793751044363268 a1_x2
<= 117.26156728377987

a1_local_6: 
+1.0612650420993097 a1_x2
+1.0407642806710884 a1_x3
+0.9422716855177663 a1_x4
<= 190.07200929567711

a1_local_7: 
+0.79469200336156576 a1_x1
+1.1465383332830774 a1_x2
+1.2583491412647629 a1_x4
<= 211.31157864781326

a1_local_8: 
+1.3292576610463802 a1_x2
+1.271791025608326 a1_x6
+0.75229959495799226 a1_x5
<= 198.84927933975644

a1_act_1: 
+0.10000000000000001 a1_x1
-10 a1_z1
<= 0

a1_act_2: 
+0.10000000000000001 a1_x2
-10 a1_z2
<= 0

a2_local_1: 
+0.78735975213671527 a2_x5
+1.135581364721872 a2_x6
+1.2700674593617816 a2_x2
<= 120.90228478961501

a2_local_2: 
+0.90068330648385908 a2_x4
+1.1072520696880501 a2_x6
+1.1102681628505577 a2_x2
<= 139.95225576747785

a2_local_3: 
+1.4855863130703753 a2_x6
+0.63122085166019204 a2_x1
+1.5842315686655015 a2_x2
<= 181.01749780171244

a2_local_4: 
+0.84782410215981607 a2_x6
+1.0679949122082342 a2_x2
+1.1794899407229857 a2_x5
<= 166.67785615880692

a2_local_5: 
+1.5243160512059692 a2_x2
+1.058558318707707 a2_x5
+0.65603192934224197 a2_x1
<= 204.44163190663787

a2_local_6: 
+0.87624214611492002 a2_x2
+0.72182797607453408 a2_x4
+1.3853716302854164 a2_x3
<= 124.16351242738192

a2_local_7: 
+1.0921333627316958 a2_x5
+0.97742665856242428 a2_x1
+0.91563909145560063 a2_x6
<= 152.38340962482144

a2_local_8: 
+0.69888997605858483 a2_x3
+0.96893253985114847 a2_x2
+1.4308403815426516 a2_x5
<= 187.46258151895702

a2_act_1: 
+0.10000000000000001 a2_x1
-10 a2_z1
<= 0

a2_act_2: 
+0.10000000000000001 a2_x2
-10 a2_z2
<= 0

a3_local_1: 
+1.0773505483208319 a3_x6
+0.85572499475438213 a3_x4
+1.168599732542613 a3_x5
<= 179.23224569288351

a3_local_2: 
+1.2431748000536702 a3_x3
+0.91636664423984604 a3_x6
+0.80439210958654228 a3_x5
<= 98.032658612400837

a3_local_3: 
+1.005681871032831 a3_x3
+0.82630588821045048 a3_x5
+1.210205583994715 a3_x2
<= 106.43373059314695

a3_local_4: 
+0.69190918930061074 a3_x1
+1.4452763678580578 a3_x4
+0.7607947454969175 a3_x2
<= 157.72522028641094

a3_local_5: 
+0.78289637839401183 a3_x2
+1.2773082461453482 a3_x5
+1.1022230014155514 a3_x3
<= 166.0311753198101

a3_local_6: 
+0.91029694822628682 a3_x5
+1.0234468918944566 a3_x3
+1.0985426260611986 a3_x2
<= 147.9132249658563

a3_local_7: 
+0.93477105234406288 a3_x5
+0.80242083401035436 a3_x6
+1.2462288584933428 a3_x1
<= 135.02074316690539

a3_local_8: 
+1.4006217636003986 a3_x4
+1.5761560028903205 a3_x2
+0.63445496395421641 a3_x1
<= 177.78916628304535

a3_act_1: 
+0.10000000000000001 a3_x1
-10 a3_z1
<= 0

a3_act_2: 
+0.10000000000000001 a3_x2
-10 a3_z2
<= 0

a4_local_1: 
+1.4794974275516783 a4_x2
+1.5526406583507264 a4_x5
+0.64406403028388914 a4_x4
<= 159.17629372799638

a4_local_2: 
+1.0795956472278039 a4_x2
+0.98045395629565879 a4_x4
+0.92627272309573438 a4_x3
<= 170.07314580456739

a4_local_3: 
+0.79717754452400935 a4_x6
+1.2544257008607722 a4_x4
+1.0170382233354516 a4_x1
<= 116.67348634706048

a4_local_4: 
+1.2433368427075551 a4_x1
+0.80428727409247169 a4_x6
+1.1589552955237974 a4_x3
<= 109.22769398003234

a4_local_5: 
+0.9029212930172531 a4_x1
+1.1075162450298885 a4_x3
+0.96149074138189861 a4_x6
<= 147.37314294164707

a4_local_6: 
+1.1349921509874219 a4_x6
+0.88106336165410382 a4_x2
+1.0732041253142601 a4_x4
<= 200.62461603806796

a4_local_7: 
+1.263708659548394 a4_x3
+0.79132163291289426 a4_x6
+0.82230535523906811 a4_x4
<= 157.79438631513457

a4_local_8: 
+0.71302477651448681 a4_x4
+1.0895804817386134 a4_x5
+1.4024758086084299 a4_x6
<= 158.13524705370915

a4_act_1: 
+0.10000000000000001 a4_x1
-10 a4_z1
<= 0

a4_act_2: 
+0.10000000000000001 a4_x2
-10 a4_z2
<= 0

coupling_1: 
+0.0015069645568322211 a1_x1
+0.06702342161456018 a2_x1
+12.256738792995446 a3_x1
+663.58561352105903 a4_x1
+1.1544700752457173 short_1
-1.1544700752457173 surp_1
= 51141.705319633664

coupling_2: 
+0.00096263517913382853 a1_x2
+0.09598741915409198 a2_x2
+9.0668577412439415 a3_x2
+1038.8151416820147 a4_x2
+0.70868015683413899 short_2
-0.70868015683413899 surp_2
= 80651.816190035795

coupling_3: 
+0.0012014513799441372 a1_x3
+0.073366442970060203 a2_x3
+6.93742597255725 a3_x3
+832.32664816323745 a4_x3
+1.1486677923959818 short_3
-1.1486677923959818 surp_3
= 23921.080824861554

bounds
  0 <= a1_x1 <= 100
  0 <= a1_x2 <= 100
  0 <= a1_x3 <= 100
  0 <= a1_x4 <= 100
  0 <= a1_x5 <= 100
  0 <= a1_x6 <= 100
  0 <= a2_x1 <= 100
  0 <= a2_x2 <= 100
  0 <= a2_x3 <= 100
  0 <= a2_x4 <= 100
  0 <= a2_x5 <= 100
  0 <= a2_x6 <= 100
  0 <= a3_x1 <= 100
  0 <= a3_x2 <= 100
  0 <= a3_x3 <= 100
  0 <= a3_x4 <= 100
  0 <= a3_x5 <= 100
  0 <= a3_x6 <= 100
  0 <= a4_x1 <= 100
  0 <= a4_x2 <= 100
  0 <= a4_x3 <= 100
  0 <= a4_x4 <= 100
  0 <= a4_x5 <= 100
  0 <= a4_x6 <= 100
  0 <= short_1 <= +inf
  0 <= surp_1 <= +inf
  0 <= short_2 <= +inf
  0 <= surp_2 <= +inf
  0 <= short_3 <= +inf
  0 <= surp_3 <= +inf
 0 <= a1_z1 <= 1
 0 <= a1_z2 <= 1
 0 <= a2_z1 <= 1
 0 <= a2_z2 <= 1
 0 <= a3_z1 <= 1
 0 <= a3_z2 <= 1
 0 <= a4_z1 <= 1
 0 <= a4_z2 <= 1

binary
  a1_z1
  a1_z2
  a2_z1
  a2_z2
  a3_z1
  a3_z2
  a4_z1
  a4_z2
end
