min
obj: 
  +3.04305245350352704 a1_x1
  +8.52421046785006808 a1_x2
  +7.69307565210918742 a1_x3
  +6.91899621560824230 a1_x4
  +9.20970734213053355 a1_x5
  +1.67836132765545631 a1_x6
  +29.95730103851083470 a1_z1
  +31.08072985890714435 a1_z2
  +8.69577677526249104 a2_x1
  +6.90777420422215815 a2_x2
  +5.08754459362986733 a2_x3
  +7.59170235780382363 a2_x4
  +8.27944903727416381 a2_x5
  +1.03512879040065853 a2_x6
  +28.92886188645300649 a2_z1
  +23.93421358976911506 a2_z2
  +5.14038055583452635 a3_x1
  +3.33875162916421697 a3_x2
  +6.11068986646011059 a3_x3
  +6.55082117265498010 a3_x4
  +5.19513264683116827 a3_x5
  +3.93701514527552376 a3_x6
  +16.85304582879687985 a3_z1
  +38.53959756350231913 a3_z2
  +1.41634150693496075 a4_x1
  +8.54382197580174818 a4_x2
  +7.14956107064012691 a4_x3
  +5.56590579337685210 a4_x4
  +2.52647125500070402 a4_x5
  +2.35011295395534869 a4_x6
  +43.90402305541062589 a4_z1
  +7.45391026181894656 a4_z2
  +1000000.00000000000000000 short_1
  +1000000.00000000000000000 surp_1
  +1000000.00000000000000000 short_2
  +1000000.00000000000000000 surp_2
  +1000000.00000000000000000 short_3
  +1000000.00000000000000000 surp_3

s.t.

a1_local_1: 
+0.61083524062177019 a1_x4
+0.75992141376050693 a1_x3
+1.63710266451244357 a1_x1
<= 186.848748

a1_local_2: 
+0.75759939178739100 a1_x6
+1.31995882103431716 a1_x4
+0.80353739707727589 a1_x2
<= 128.795869

a1_local_3: 
+1.59644957130407827 a1_x3
+0.94289544637669398 a1_x1
+0.62638997057898815 a1_x4
<= 132.971643

a1_local_4: 
+1.30164030725809865 a1_x3
+0.73019925673316299 a1_x1
+1.36948920555451981 a1_x2
<= 168.772671

a1_local_5: 
+0.73949401415506255 a1_x3
+1.27140915932779497 a1_x2
+1.35227598987746900 a1_x4
<= 132.835246

a1_local_6: 
+0.72831567822513821 a1_x3
+1.37303099452278721 a1_x5
+0.95811467466826139 a1_x4
<= 106.295057

a1_local_7: 
+1.24968984488396417 a1_x5
+1.05297176690593752 a1_x6
+0.80019854853893913 a1_x1
<= 137.095939

a1_local_8: 
+1.11084721022040034 a1_x2
+0.90021381050377958 a1_x3
+1.00572406568995976 a1_x6
<= 150.508681

a1_act_1: 
+0.10000000000000001 a1_x1
-10.00000000000000000 a1_z1
<= 0.000000

a1_act_2: 
+0.10000000000000001 a1_x2
-10.00000000000000000 a1_z2
<= 0.000000

a2_local_1: 
+0.84969595426924693 a2_x6
+1.04151493730832767 a2_x3
+1.17689156335929290 a2_x1
<= 103.693852

a2_local_2: 
+0.72364910021030626 a2_x4
+0.90103146396445433 a2_x1
+1.38188522546270143 a2_x5
<= 157.971152

a2_local_3: 
+0.78942074538647899 a2_x6
+0.93745996512662444 a2_x5
+1.26675160976473578 a2_x3
<= 183.622397

a2_local_4: 
+0.80080234873124057 a2_x4
+1.24874758619821802 a2_x3
+0.85059161206027156 a2_x6
<= 141.842455

a2_local_5: 
+1.21231804015435918 a2_x6
+1.10155817127043698 a2_x2
+0.82486605567023852 a2_x5
<= 178.989525

a2_local_6: 
+1.05660855988876246 a2_x2
+0.89867475651001116 a2_x1
+1.11274962688780032 a2_x4
<= 127.361618

a2_local_7: 
+0.75648531364314842 a2_x6
+1.32190272826859290 a2_x2
+1.25714351703461258 a2_x5
<= 152.039943

a2_local_8: 
+1.38757959033965683 a2_x2
+0.72067938081679084 a2_x4
+1.00302164875986444 a2_x5
<= 135.378183

a2_act_1: 
+0.10000000000000001 a2_x1
-10.00000000000000000 a2_z1
<= 0.000000

a2_act_2: 
+0.10000000000000001 a2_x2
-10.00000000000000000 a2_z2
<= 0.000000

a3_local_1: 
+0.80837659579852450 a3_x6
+1.23704719458408818 a3_x5
+1.09748725790032808 a3_x2
<= 209.654130

a3_local_2: 
+1.45844806867430399 a3_x4
+0.68566034093279526 a3_x3
+1.02199188569644428 a3_x1
<= 136.287525

a3_local_3: 
+0.95220563932964086 a3_x2
+0.92308011409685653 a3_x4
+1.08332958832982995 a3_x3
<= 160.069237

a3_local_4: 
+0.88350038998181002 a3_x5
+1.13186141323671463 a3_x2
+1.01662474004638970 a3_x1
<= 201.358546

a3_local_5: 
+1.19510559568627195 a3_x6
+1.40221138429826198 a3_x2
+0.71315923633044176 a3_x3
<= 230.234392

a3_local_6: 
+1.51206788427179029 a3_x1
+1.57682079009350873 a3_x4
+0.63418747791922370 a3_x3
<= 210.637445

a3_local_7: 
+1.14390144253803627 a3_x2
+0.97424530062977988 a3_x6
+0.87420118798106050 a3_x5
<= 209.128680

a3_local_8: 
+1.06266565198163332 a3_x2
+0.83646468463381485 a3_x3
+1.19550773436152569 a3_x4
<= 140.983478

a3_act_1: 
+0.10000000000000001 a3_x1
-10.00000000000000000 a3_z1
<= 0.000000

a3_act_2: 
+0.10000000000000001 a3_x2
-10.00000000000000000 a3_z2
<= 0.000000

a4_local_1: 
+0.91516494212742927 a4_x4
+0.76039190621515773 a4_x5
+1.31511131539719939 a4_x6
<= 110.334568

a4_local_2: 
+1.03438247948206663 a4_x3
+1.20325285796031078 a4_x1
+0.83108051095357138 a4_x2
<= 203.522260

a4_local_3: 
+0.69499156390075534 a4_x4
+0.88579766023522089 a4_x6
+1.43886638621530083 a4_x2
<= 93.608125

a4_local_4: 
+1.17999778556247570 a4_x2
+1.07205633846931669 a4_x3
+0.84745921749617903 a4_x1
<= 183.939665

a4_local_5: 
+0.74337391844943024 a4_x4
+1.34521803251566108 a4_x5
+0.87583653270600847 a4_x2
<= 203.595708

a4_local_6: 
+1.55210019956258893 a4_x6
+0.64428830064052511 a4_x5
+1.18409899428893484 a4_x3
<= 232.138256

a4_local_7: 
+0.63264775270628992 a4_x4
+1.48550140315064083 a4_x3
+1.58065842441118298 a4_x5
<= 242.828094

a4_local_8: 
+1.10367467861483548 a4_x1
+0.64935992640976536 a4_x6
+1.53997799884092390 a4_x4
<= 181.905829

a4_act_1: 
+0.10000000000000001 a4_x1
-10.00000000000000000 a4_z1
<= 0.000000

a4_act_2: 
+0.10000000000000001 a4_x2
-10.00000000000000000 a4_z2
<= 0.000000

coupling_1: 
+0.01072579675802007 a1_x1
+0.09024716143073845 a2_x1
+1.87966956112823436 a3_x1
+93.23316696750414678 a4_x1
+0.74747233760096843 short_1
-0.74747233760096843 surp_1
= 1921.446128

coupling_2: 
+0.00783482863995479 a1_x2
+0.20509710796744887 a2_x2
+6.40389860159757607 a3_x2
+127.63521015639851441 a4_x2
+1.04443415810274276 short_2
-1.04443415810274276 surp_2
= 4459.443730

coupling_3: 
+0.01081041878687210 a1_x3
+0.33963709296529759 a2_x3
+8.27062187090930756 a3_x3
+92.50335437646273817 a4_x3
+1.66838195881439644 short_3
-1.66838195881439644 surp_3
= 2107.401973

bounds
  0.000000 <= a1_x1 <= 100.000000
  0.000000 <= a1_x2 <= 100.000000
  0.000000 <= a1_x3 <= 100.000000
  0.000000 <= a1_x4 <= 100.000000
  0.000000 <= a1_x5 <= 100.000000
  0.000000 <= a1_x6 <= 100.000000
  0.000000 <= a2_x1 <= 100.000000
  0.000000 <= a2_x2 <= 100.000000
  0.000000 <= a2_x3 <= 100.000000
  0.000000 <= a2_x4 <= 100.000000
  0.000000 <= a2_x5 <= 100.000000
  0.000000 <= a2_x6 <= 100.000000
  0.000000 <= a3_x1 <= 100.000000
  0.000000 <= a3_x2 <= 100.000000
  0.000000 <= a3_x3 <= 100.000000
  0.000000 <= a3_x4 <= 100.000000
  0.000000 <= a3_x5 <= 100.000000
  0.000000 <= a3_x6 <= 100.000000
  0.000000 <= a4_x1 <= 100.000000
  0.000000 <= a4_x2 <= 100.000000
  0.000000 <= a4_x3 <= 100.000000
  0.000000 <= a4_x4 <= 100.000000
  0.000000 <= a4_x5 <= 100.000000
  0.000000 <= a4_x6 <= 100.000000
  0.000000 <= short_1 <= +inf
  0.000000 <= surp_1 <= +inf
  0.000000 <= short_2 <= +inf
  0.000000 <= surp_2 <= +inf
  0.000000 <= short_3 <= +inf
  0.000000 <= surp_3 <= +inf
 0 <= a1_z1 <= 1
 0 <= a1_z2 <= 1
 0 <= a2_z1 <= 1
 0 <= a2_z2 <= 1
 0 <= a3_z1 <= 1
 0 <= a3_z2 <= 1
 0 <= a4_z1 <= 1
 0 <= a4_z2 <= 1

binary
  a1_z1
  a1_z2
  a2_z1
  a2_z2
  a3_z1
  a3_z2
  a4_z1
  a4_z2
end
