min
obj: 
  +3.05711040055168581 a1_x1
  +8.05560131874530505 a1_x2
  +1.97423451738110156 a1_x3
  +4.43855917145081946 a1_x4
  +2.09177435273224699 a1_x5
  +8.36067334918018190 a1_x6
  +15.66642560195388789 a1_z1
  +12.32473257168471292 a1_z2
  +9.22293190738236213 a2_x1
  +7.63381403352449350 a2_x2
  +9.96116936913966633 a2_x3
  +9.94077753687388643 a2_x4
  +8.29981383037531018 a2_x5
  +5.15933962158974069 a2_x6
  +11.18650581061075044 a2_z1
  +36.51341922859109701 a2_z2
  +6.07766745897419902 a3_x1
  +8.77356431574039775 a3_x2
  +3.66477499322525757 a3_x3
  +8.98940674965133013 a3_x4
  +1.83133745097963319 a3_x5
  +5.96614000496332153 a3_x6
  +11.77177519345455892 a3_z1
  +18.83602233642604062 a3_z2
  +3.57390445949198776 a4_x1
  +7.85154573325681415 a4_x2
  +9.06414056673653157 a4_x3
  +3.88034584638911362 a4_x4
  +5.56052955494331336 a4_x5
  +7.24881590451171665 a4_x6
  +49.90852608237385368 a4_z1
  +15.56555023854576802 a4_z2
  +1000000.00000000000000000 short_1
  +1000000.00000000000000000 surp_1
  +1000000.00000000000000000 short_2
  +1000000.00000000000000000 surp_2
  +1000000.00000000000000000 short_3
  +1000000.00000000000000000 surp_3

s.t.

a1_local_1: 
+0.93641113939327514 a1_x5
+1.54129588028449560 a1_x1
+0.64880469272091867 a1_x6
<= 122.313907

a1_local_2: 
+1.42509446969425002 a1_x6
+0.70170786657711692 a1_x4
+1.39978924271924199 a1_x1
<= 170.762517

a1_local_3: 
+0.74154992491184912 a1_x3
+1.00615446867439151 a1_x1
+1.34852687109215696 a1_x2
<= 94.910062

a1_local_4: 
+0.63765526498193759 a1_x4
+0.64799871988579472 a1_x5
+1.56824550022076026 a1_x2
<= 199.286397

a1_local_5: 
+1.12208299433235270 a1_x4
+0.98305582258854085 a1_x1
+0.89119967511405629 a1_x2
<= 134.968754

a1_local_6: 
+0.99879407656146180 a1_x4
+0.84275201067255201 a1_x2
+1.18658868485161784 a1_x6
<= 106.855602

a1_local_7: 
+0.88050814813363976 a1_x3
+0.72656307409630827 a1_x5
+1.37634299849849895 a1_x6
<= 100.837966

a1_local_8: 
+0.74907819048164292 a1_x4
+0.98046715461884715 a1_x6
+1.33497412247047165 a1_x3
<= 95.215572

a1_act_1: 
+0.10000000000000001 a1_x1
-10.00000000000000000 a1_z1
<= 0.000000

a1_act_2: 
+0.10000000000000001 a1_x2
-10.00000000000000000 a1_z2
<= 0.000000

a2_local_1: 
+1.28179706852667419 a2_x3
+0.78015469418214700 a2_x4
+0.99618256361011714 a2_x1
<= 135.013823

a2_local_2: 
+1.55833401890911905 a2_x5
+1.51418772574745164 a2_x1
+0.64171094763113123 a2_x6
<= 243.717304

a2_local_3: 
+0.59559162989353576 a2_x1
+1.52809787170795075 a2_x5
+1.67900277607788695 a2_x3
<= 231.555596

a2_local_4: 
+0.94191347088911292 a2_x2
+1.02140817187054789 a2_x5
+1.06166864675590289 a2_x3
<= 183.541530

a2_local_5: 
+1.20933033545497559 a2_x5
+1.04336319165490510 a2_x6
+0.82690392416541769 a2_x4
<= 106.651324

a2_local_6: 
+1.46819630187694261 a2_x4
+0.85656259784090549 a2_x5
+0.68110783191702629 a2_x1
<= 187.687739

a2_local_7: 
+0.88296062350807314 a2_x4
+0.83526915904650456 a2_x5
+1.19721887150908701 a2_x1
<= 142.085463

a2_local_8: 
+0.84084261766403245 a2_x4
+1.18928320115139607 a2_x2
+0.98034508504519868 a2_x6
<= 133.043978

a2_act_1: 
+0.10000000000000001 a2_x1
-10.00000000000000000 a2_z1
<= 0.000000

a2_act_2: 
+0.10000000000000001 a2_x2
-10.00000000000000000 a2_z2
<= 0.000000

a3_local_1: 
+0.71525722236828926 a3_x3
+1.39809843050434135 a3_x1
+0.95310549583272386 a3_x2
<= 135.568675

a3_local_2: 
+0.83214602838172391 a3_x1
+1.20171215855551483 a3_x3
+0.99123766943260638 a3_x2
<= 175.874504

a3_local_3: 
+1.20713148739308940 a3_x4
+0.88311468776609736 a3_x5
+0.82841016943364743 a3_x1
<= 181.159510

a3_local_4: 
+1.24243483013707867 a3_x4
+1.20150858914121339 a3_x5
+0.80487118981497741 a3_x2
<= 204.460263

a3_local_5: 
+0.78677056995359018 a3_x6
+1.10672930539758596 a3_x3
+1.27101856397474045 a3_x2
<= 136.204692

a3_local_6: 
+0.76209475168910823 a3_x3
+1.31217279450304325 a3_x4
+1.25341072679505650 a3_x5
<= 205.437331

a3_local_7: 
+0.68780525395679804 a3_x6
+1.28674497716398695 a3_x2
+1.45389991461567281 a3_x3
<= 167.411039

a3_local_8: 
+0.75526019341285855 a3_x5
+0.96866075602448143 a3_x3
+1.32404700886089999 a3_x4
<= 138.998400

a3_act_1: 
+0.10000000000000001 a3_x1
-10.00000000000000000 a3_z1
<= 0.000000

a3_act_2: 
+0.10000000000000001 a3_x2
-10.00000000000000000 a3_z2
<= 0.000000

a4_local_1: 
+0.94765009017920843 a4_x2
+1.34436540007055472 a4_x5
+0.74384538604423944 a4_x1
<= 153.692796

a4_local_2: 
+1.02021707745805323 a4_x2
+0.88930699721177431 a4_x6
+1.12447108044272559 a4_x3
<= 198.631867

a4_local_3: 
+1.33682227712956148 a4_x5
+1.11759927905643597 a4_x2
+0.74804259108189786 a4_x1
<= 162.219602

a4_local_4: 
+1.33508327919292102 a4_x6
+1.29890158491299013 a4_x4
+0.74901694567286914 a4_x2
<= 179.924696

a4_local_5: 
+0.87390053584235805 a4_x6
+1.39899375205651233 a4_x4
+0.71479947535863264 a4_x1
<= 132.574319

a4_local_6: 
+1.48600677776847667 a4_x5
+0.59747702325111229 a4_x2
+1.67370452935344449 a4_x3
<= 117.659009

a4_local_7: 
+1.21036503990271016 a4_x6
+1.12979781930265810 a4_x2
+0.82619702902223668 a4_x3
<= 169.637004

a4_local_8: 
+0.73782061008822519 a4_x3
+1.26877524989372503 a4_x2
+1.35534300116721407 a4_x1
<= 154.364729

a4_act_1: 
+0.10000000000000001 a4_x1
-10.00000000000000000 a4_z1
<= 0.000000

a4_act_2: 
+0.10000000000000001 a4_x2
-10.00000000000000000 a4_z2
<= 0.000000

coupling_1: 
+0.00005191585721539 a1_x1
+0.00137532964140516 a2_x1
+0.05323210367296673 a3_x1
+0.99851325595360108 a4_x1
+0.00823791832352433 short_1
-0.00823791832352433 surp_1
= 39.628917

coupling_2: 
+0.00016669851411067 a1_x2
+0.00185957370350650 a2_x2
+0.07628599408991353 a3_x2
+0.99692834233034211 a4_x2
+0.01246678710487390 short_2
-0.01246678710487390 surp_2
= 84.345122

coupling_3: 
+0.00006120482491579 a1_x3
+0.00187242682386854 a2_x3
+0.05703687034062561 a3_x3
+0.99829967275581244 a4_x3
+0.00839788869725869 short_3
-0.00839788869725869 surp_3
= 35.835519

bounds
  0.000000 <= a1_x1 <= 100.000000
  0.000000 <= a1_x2 <= 100.000000
  0.000000 <= a1_x3 <= 100.000000
  0.000000 <= a1_x4 <= 100.000000
  0.000000 <= a1_x5 <= 100.000000
  0.000000 <= a1_x6 <= 100.000000
  0.000000 <= a2_x1 <= 100.000000
  0.000000 <= a2_x2 <= 100.000000
  0.000000 <= a2_x3 <= 100.000000
  0.000000 <= a2_x4 <= 100.000000
  0.000000 <= a2_x5 <= 100.000000
  0.000000 <= a2_x6 <= 100.000000
  0.000000 <= a3_x1 <= 100.000000
  0.000000 <= a3_x2 <= 100.000000
  0.000000 <= a3_x3 <= 100.000000
  0.000000 <= a3_x4 <= 100.000000
  0.000000 <= a3_x5 <= 100.000000
  0.000000 <= a3_x6 <= 100.000000
  0.000000 <= a4_x1 <= 100.000000
  0.000000 <= a4_x2 <= 100.000000
  0.000000 <= a4_x3 <= 100.000000
  0.000000 <= a4_x4 <= 100.000000
  0.000000 <= a4_x5 <= 100.000000
  0.000000 <= a4_x6 <= 100.000000
  0.000000 <= short_1 <= +inf
  0.000000 <= surp_1 <= +inf
  0.000000 <= short_2 <= +inf
  0.000000 <= surp_2 <= +inf
  0.000000 <= short_3 <= +inf
  0.000000 <= surp_3 <= +inf
 0 <= a1_z1 <= 1
 0 <= a1_z2 <= 1
 0 <= a2_z1 <= 1
 0 <= a2_z2 <= 1
 0 <= a3_z1 <= 1
 0 <= a3_z2 <= 1
 0 <= a4_z1 <= 1
 0 <= a4_z2 <= 1

binary
  a1_z1
  a1_z2
  a2_z1
  a2_z2
  a3_z1
  a3_z2
  a4_z1
  a4_z2
end
