min
obj: 
  +2.86702301288668870 a1_x1
  +4.61217347674817457 a1_x2
  +8.37266539443051627 a1_x3
  +3.88741117842564377 a1_x4
  +3.57352147071314707 a1_x5
  +7.90632682258909369 a1_x6
  +32.52167325628295202 a1_z1
  +46.95512094955829951 a1_z2
  +6.18957109820114049 a2_x1
  +7.65671715801393571 a2_x2
  +8.20437447093011585 a2_x3
  +3.61886914738285226 a2_x4
  +5.28592570462095690 a2_x5
  +3.39477691808076010 a2_x6
  +12.60548138304202581 a2_z1
  +31.13088232979415793 a2_z2
  +1.00384692741400694 a3_x1
  +6.98746639113835144 a3_x2
  +2.08920162411281263 a3_x3
  +9.36108080061404380 a3_x4
  +4.85098195997041159 a3_x5
  +1.72431460157976346 a3_x6
  +35.01946721881928681 a3_z1
  +33.01267747284549614 a3_z2
  +2.50332166724604033 a4_x1
  +6.42161923356443864 a4_x2
  +2.38773349159600956 a4_x3
  +7.47586240964883597 a4_x4
  +7.41060969147519710 a4_x5
  +8.58602476997859654 a4_x6
  +17.16287865875343854 a4_z1
  +23.31726507162430551 a4_z2
  +1000000.00000000000000000 short_1
  +1000000.00000000000000000 surp_1
  +1000000.00000000000000000 short_2
  +1000000.00000000000000000 surp_2
  +1000000.00000000000000000 short_3
  +1000000.00000000000000000 surp_3

s.t.

a1_local_1: 
+0.00735144189008386 a1_x3
+0.01290607567166612 a1_x1
+0.01146724854267124 a1_x2
<= 1.907945

a1_local_2: 
+0.00735930992846256 a1_x6
+0.01055480606974544 a1_x4
+0.00792732656204651 a1_x3
<= 1.012133

a1_local_3: 
+0.01089460187343665 a1_x5
+0.01472249135398143 a1_x6
+0.01417562056028477 a1_x4
<= 1.459664

a1_local_4: 
+0.01290768417036508 a1_x3
+0.01488898757558407 a1_x6
+0.00765693098331910 a1_x4
<= 1.195086

a1_local_5: 
+0.01160027203372876 a1_x4
+0.00922241088612906 a1_x5
+0.00599498885880886 a1_x2
<= 0.982047

a1_local_6: 
+0.01355419338309602 a1_x5
+0.01314459482056692 a1_x4
+0.01122535029781292 a1_x2
<= 1.844797

a1_local_7: 
+0.00771478456331714 a1_x2
+0.00982480487860094 a1_x3
+0.00500343239926264 a1_x6
<= 1.402629

a1_local_8: 
+0.01490946175735853 a1_x2
+0.01433093527179520 a1_x5
+0.00840674742277464 a1_x1
<= 1.965757

a1_act_1: 
+1.00000000000000000 a1_x1
-100.00000000000000000 a1_z1
<= 0.000000

a1_act_2: 
+1.00000000000000000 a1_x2
-100.00000000000000000 a1_z2
<= 0.000000

a2_local_1: 
+0.29700762285604410 a2_x4
+0.24954467943807185 a2_x3
+0.29615767446211622 a2_x1
<= 45.410074

a2_local_2: 
+0.20162443768555385 a2_x6
+0.11907684876301175 a2_x2
+0.23813301552591390 a2_x5
<= 21.854558

a2_local_3: 
+0.30885363783993341 a2_x6
+0.25638747576578313 a2_x4
+0.18962956189367389 a2_x5
<= 45.415000

a2_local_4: 
+0.32170342620618347 a2_x3
+0.20132770131500413 a2_x4
+0.23329173389944624 a2_x1
<= 49.209736

a2_local_5: 
+0.17153871170193938 a2_x5
+0.16664654923996713 a2_x4
+0.23222594331460619 a2_x3
<= 38.417452

a2_local_6: 
+0.15752571116317041 a2_x6
+0.30910520966661253 a2_x4
+0.28154169459691719 a2_x3
<= 41.917081

a2_local_7: 
+0.14594410538453736 a2_x6
+0.15314705749223745 a2_x3
+0.16920873276373505 a2_x5
<= 17.453059

a2_local_8: 
+0.11067542248375593 a2_x5
+0.18113064842450569 a2_x3
+0.14763682098582023 a2_x4
<= 18.492885

a2_act_1: 
+1.00000000000000000 a2_x1
-100.00000000000000000 a2_z1
<= 0.000000

a2_act_2: 
+1.00000000000000000 a2_x2
-100.00000000000000000 a2_z2
<= 0.000000

a3_local_1: 
+4.49159541937053586 a3_x4
+5.17906562904449164 a3_x2
+4.56856513910907402 a3_x6
<= 472.879028

a3_local_2: 
+3.70201225173884341 a3_x4
+6.43719448193206212 a3_x6
+2.56045148123631972 a3_x3
<= 474.207562

a3_local_3: 
+3.84235451733451772 a3_x4
+3.20465456425650297 a3_x2
+3.36739657067993825 a3_x3
<= 327.058930

a3_local_4: 
+3.66087813223702030 a3_x2
+4.76854715156531928 a3_x4
+2.45413193448940570 a3_x3
<= 564.299599

a3_local_5: 
+3.89728632020898713 a3_x4
+4.78322092745004834 a3_x6
+4.13951125139694032 a3_x1
<= 483.120446

a3_local_6: 
+4.54247911060919840 a3_x3
+5.28006602140550907 a3_x4
+5.52929990158769602 a3_x1
<= 524.310842

a3_local_7: 
+5.67321140226797827 a3_x4
+4.58579539326158425 a3_x1
+6.71417916820315508 a3_x6
<= 989.173206

a3_local_8: 
+4.79376974699230640 a3_x2
+4.71241151207985975 a3_x3
+4.74409214495103093 a3_x1
<= 552.444929

a3_act_1: 
+1.00000000000000000 a3_x1
-100.00000000000000000 a3_z1
<= 0.000000

a3_act_2: 
+1.00000000000000000 a3_x2
-100.00000000000000000 a3_z2
<= 0.000000

a4_local_1: 
+117.76413034405609892 a4_x1
+146.57794852031415189 a4_x4
+129.94366992459976018 a4_x5
<= 12394.821912

a4_local_2: 
+56.44298257187729462 a4_x6
+66.21578191334370445 a4_x2
+61.31859781533265163 a4_x3
<= 7173.405457

a4_local_3: 
+138.58583500901767138 a4_x1
+135.06309721080563691 a4_x4
+137.85670775857755643 a4_x5
<= 20136.425653

a4_local_4: 
+56.81699809891622976 a4_x2
+112.65438555262686293 a4_x6
+106.16597028209291409 a4_x5
<= 9626.154697

a4_local_5: 
+58.06969244273626174 a4_x2
+50.58192092992000966 a4_x5
+92.67972827638195099 a4_x1
<= 10900.937185

a4_local_6: 
+93.05439509637309925 a4_x5
+131.49184448795239177 a4_x6
+108.43883221419119423 a4_x4
<= 23185.381140

a4_local_7: 
+75.18561336909547776 a4_x1
+120.74929441352027482 a4_x5
+149.27256867998519851 a4_x2
<= 11603.517556

a4_local_8: 
+99.55928389878823737 a4_x1
+92.28961247647492883 a4_x6
+104.38199234269862359 a4_x5
<= 14646.264774

a4_act_1: 
+1.00000000000000000 a4_x1
-100.00000000000000000 a4_z1
<= 0.000000

a4_act_2: 
+1.00000000000000000 a4_x2
-100.00000000000000000 a4_z2
<= 0.000000

coupling_1: 
+0.00009610483166134 a1_x1
+0.00349639500213646 a2_x1
+0.08035513241204799 a3_x1
+1.58854145896055821 a4_x1
+0.01464607790712203 short_1
-0.01464607790712203 surp_1
= 99.382709

coupling_2: 
+0.00000011094464152 a1_x2
+0.00000275316031282 a2_x2
+0.00006129467395934 a3_x2
+0.00194175818877770 a4_x2
+0.00001609843274143 short_2
-0.00001609843274143 surp_2
= 0.079913

coupling_3: 
+7934.77643670741417736 a1_x3
+134325.99187130233622156 a2_x3
+3173441.59666197653859854 a3_x3
+47910876.78731998056173325 a4_x3
+856600.08900491858366877 short_3
-856600.08900491858366877 surp_3
= 2268376515.139294

bounds
  0.000000 <= a1_x1 <= 100.000000
  0.000000 <= a1_x2 <= 100.000000
  0.000000 <= a1_x3 <= 100.000000
  0.000000 <= a1_x4 <= 100.000000
  0.000000 <= a1_x5 <= 100.000000
  0.000000 <= a1_x6 <= 100.000000
  0.000000 <= a2_x1 <= 100.000000
  0.000000 <= a2_x2 <= 100.000000
  0.000000 <= a2_x3 <= 100.000000
  0.000000 <= a2_x4 <= 100.000000
  0.000000 <= a2_x5 <= 100.000000
  0.000000 <= a2_x6 <= 100.000000
  0.000000 <= a3_x1 <= 100.000000
  0.000000 <= a3_x2 <= 100.000000
  0.000000 <= a3_x3 <= 100.000000
  0.000000 <= a3_x4 <= 100.000000
  0.000000 <= a3_x5 <= 100.000000
  0.000000 <= a3_x6 <= 100.000000
  0.000000 <= a4_x1 <= 100.000000
  0.000000 <= a4_x2 <= 100.000000
  0.000000 <= a4_x3 <= 100.000000
  0.000000 <= a4_x4 <= 100.000000
  0.000000 <= a4_x5 <= 100.000000
  0.000000 <= a4_x6 <= 100.000000
  0.000000 <= short_1 <= +inf
  0.000000 <= surp_1 <= +inf
  0.000000 <= short_2 <= +inf
  0.000000 <= surp_2 <= +inf
  0.000000 <= short_3 <= +inf
  0.000000 <= surp_3 <= +inf
 0 <= a1_z1 <= 1
 0 <= a1_z2 <= 1
 0 <= a2_z1 <= 1
 0 <= a2_z2 <= 1
 0 <= a3_z1 <= 1
 0 <= a3_z2 <= 1
 0 <= a4_z1 <= 1
 0 <= a4_z2 <= 1

binary
  a1_z1
  a1_z2
  a2_z1
  a2_z2
  a3_z1
  a3_z2
  a4_z1
  a4_z2
end
