min
obj: 
  +3.05711040055168581 a1_x1
  +8.05560131874530505 a1_x2
  +1.97423451738110156 a1_x3
  +4.43855917145081946 a1_x4
  +2.09177435273224699 a1_x5
  +8.36067334918018190 a1_x6
  +15.66642560195388789 a1_z1
  +12.32473257168471292 a1_z2
  +9.22293190738236213 a2_x1
  +7.63381403352449350 a2_x2
  +9.96116936913966633 a2_x3
  +9.94077753687388643 a2_x4
  +8.29981383037531018 a2_x5
  +5.15933962158974069 a2_x6
  +11.18650581061075044 a2_z1
  +36.51341922859109701 a2_z2
  +6.07766745897419902 a3_x1
  +8.77356431574039775 a3_x2
  +3.66477499322525757 a3_x3
  +8.98940674965133013 a3_x4
  +1.83133745097963319 a3_x5
  +5.96614000496332153 a3_x6
  +11.77177519345455892 a3_z1
  +18.83602233642604062 a3_z2
  +3.57390445949198776 a4_x1
  +7.85154573325681415 a4_x2
  +9.06414056673653157 a4_x3
  +3.88034584638911362 a4_x4
  +5.56052955494331336 a4_x5
  +7.24881590451171665 a4_x6
  +49.90852608237385368 a4_z1
  +15.56555023854576802 a4_z2
  +1000000.00000000000000000 short_1
  +1000000.00000000000000000 surp_1
  +1000000.00000000000000000 short_2
  +1000000.00000000000000000 surp_2
  +1000000.00000000000000000 short_3
  +1000000.00000000000000000 surp_3

s.t.

a1_local_1: 
+0.48857595054224545 a1_x5
+0.80417678527912262 a1_x1
+0.33851623088099797 a1_x6
<= 63.817730

a1_local_2: 
+0.67309119458220135 a1_x6
+0.33142601855963494 a1_x4
+0.66113919714203429 a1_x1
<= 80.653423

a1_local_3: 
+0.40330417868328167 a1_x3
+0.54721373165195386 a1_x1
+0.73341861944468478 a1_x2
<= 51.618405

a1_local_4: 
+0.35176995555940394 a1_x4
+0.35747604295752744 a1_x5
+0.86514090012966260 a1_x2
<= 109.938662

a1_local_5: 
+0.64571765334937958 a1_x4
+0.56571260956593783 a1_x1
+0.51285276203903496 a1_x2
<= 77.669573

a1_local_6: 
+0.56583557274525664 a1_x4
+0.47743481647668351 a1_x2
+0.67222473967559604 a1_x6
<= 60.535702

a1_local_7: 
+0.49241074600632262 a1_x3
+0.40631931242743002 a1_x5
+0.76969882003677093 a1_x6
<= 56.392094

a1_local_8: 
+0.41206750505630674 a1_x4
+0.53935444834359436 a1_x6
+0.73436853849320627 a1_x3
<= 52.378034

a1_act_1: 
+0.00999950003749688 a1_x1
-0.99995000374968757 a1_z1
<= 0.000000

a1_act_2: 
+0.00999950003749688 a1_x2
-0.99995000374968757 a1_z2
<= 0.000000

a2_local_1: 
+0.71166759814768010 a2_x3
+0.43315032544926790 a2_x4
+0.55309133541387667 a2_x1
<= 74.961135

a2_local_2: 
+0.68782271375929827 a2_x5
+0.66833727431151679 a2_x1
+0.28324053771070040 a2_x6
<= 107.572764

a2_local_3: 
+0.25375675207801729 a2_x1
+0.65105876798714379 a2_x5
+0.71535305367481183 a2_x3
<= 98.656181

a2_local_4: 
+0.53866597001214767 a2_x2
+0.58412777891330880 a2_x5
+0.60715213139103497 a2_x3
<= 104.964606

a2_local_5: 
+0.67238408142912232 a2_x5
+0.58010684148918357 a2_x6
+0.45975613046283437 a2_x4
<= 59.297820

a2_local_6: 
+0.80177755721735755 a2_x4
+0.46776624244500864 a2_x5
+0.37195092575693955 a2_x1
<= 102.495706

a2_local_7: 
+0.51754492599086022 a2_x4
+0.48959070607662120 a2_x5
+0.70174652838792906 a2_x1
<= 83.283001

a2_local_8: 
+0.47892120412444927 a2_x4
+0.67738353263153117 a2_x2
+0.55837803499028760 a2_x6
<= 75.778250

a2_act_1: 
+0.00999950003749688 a2_x1
-0.99995000374968757 a2_z1
<= 0.000000

a2_act_2: 
+0.00999950003749688 a2_x2
-0.99995000374968757 a2_z2
<= 0.000000

a3_local_1: 
+0.38935504944354193 a3_x3
+0.76106422488616887 a3_x1
+0.51882934677139469 a3_x2
<= 73.797714

a3_local_2: 
+0.47117552203127405 a3_x1
+0.68043027825278202 a3_x3
+0.56125597001314653 a3_x2
<= 99.583196

a3_local_3: 
+0.70601884989081798 a3_x4
+0.51651010903940930 a3_x5
+0.48451490261801428 a3_x1
<= 105.955341

a3_local_4: 
+0.65165291567723271 a3_x4
+0.63018723906727947 a3_x5
+0.42215224884645691 a3_x2
<= 107.238724

a3_local_5: 
+0.42301046648128976 a3_x6
+0.59503761023033963 a3_x3
+0.68336841283355187 a3_x2
<= 73.231019

a3_local_6: 
+0.38721326104395398 a3_x3
+0.66670280261942261 a3_x4
+0.63684634210389701 a3_x5
<= 104.380799

a3_local_7: 
+0.33392485473398842 a3_x6
+0.62470608810755324 a3_x2
+0.70585869327524953 a3_x3
<= 81.276941

a3_local_8: 
+0.41818308283620925 a3_x5
+0.53634170675183135 a3_x3
+0.73311696394786596 a3_x4
<= 76.962588

a3_act_1: 
+0.00999950003749688 a3_x1
-0.99995000374968757 a3_z1
<= 0.000000

a3_act_2: 
+0.00999950003749688 a3_x2
-0.99995000374968757 a3_z2
<= 0.000000

a4_local_1: 
+0.52496234318269297 a4_x2
+0.74472763505073414 a4_x5
+0.41206223781350948 a4_x1
<= 85.140001

a4_local_2: 
+0.57980497964627653 a4_x2
+0.50540677745012974 a4_x6
+0.63905412516065963 a4_x3
<= 112.885530

a4_local_3: 
+0.70498937722588939 a4_x5
+0.58937948088498149 a4_x2
+0.39448929707965752 a4_x1
<= 85.548467

a4_local_4: 
+0.66500127634266981 a4_x6
+0.64697927483056983 a4_x4
+0.37308326202381453 a4_x2
<= 89.619992

a4_local_5: 
+0.48611403238797790 a4_x6
+0.77820125541204077 a4_x4
+0.39761281869505161 a4_x1
<= 73.745506

a4_local_6: 
+0.64146942402042195 a4_x5
+0.25791486802359698 a4_x2
+0.72249352862103811 a4_x3
<= 50.790251

a4_local_7: 
+0.65410535763238409 a4_x6
+0.61056522807917080 a4_x2
+0.44649331840156475 a4_x3
<= 91.675214

a4_local_8: 
+0.36932026857460581 a4_x3
+0.63509260875151219 a4_x2
+0.67842458499761027 a4_x1
<= 77.268136

a4_act_1: 
+0.00999950003749688 a4_x1
-0.99995000374968757 a4_z1
<= 0.000000

a4_act_2: 
+0.00999950003749688 a4_x2
-0.99995000374968757 a4_z2
<= 0.000000

coupling_1: 
+0.00005191585721539 a1_x1
+0.00137532964140516 a2_x1
+0.05323210367296673 a3_x1
+0.99851325595360108 a4_x1
+0.00823791832352433 short_1
-0.00823791832352433 surp_1
= 39.628917

coupling_2: 
+0.00016669851411067 a1_x2
+0.00185957370350650 a2_x2
+0.07628599408991353 a3_x2
+0.99692834233034211 a4_x2
+0.01246678710487390 short_2
-0.01246678710487390 surp_2
= 84.345122

coupling_3: 
+0.00006120482491579 a1_x3
+0.00187242682386854 a2_x3
+0.05703687034062561 a3_x3
+0.99829967275581244 a4_x3
+0.00839788869725869 short_3
-0.00839788869725869 surp_3
= 35.835519

bounds
  0.000000 <= a1_x1 <= 100.000000
  0.000000 <= a1_x2 <= 100.000000
  0.000000 <= a1_x3 <= 100.000000
  0.000000 <= a1_x4 <= 100.000000
  0.000000 <= a1_x5 <= 100.000000
  0.000000 <= a1_x6 <= 100.000000
  0.000000 <= a2_x1 <= 100.000000
  0.000000 <= a2_x2 <= 100.000000
  0.000000 <= a2_x3 <= 100.000000
  0.000000 <= a2_x4 <= 100.000000
  0.000000 <= a2_x5 <= 100.000000
  0.000000 <= a2_x6 <= 100.000000
  0.000000 <= a3_x1 <= 100.000000
  0.000000 <= a3_x2 <= 100.000000
  0.000000 <= a3_x3 <= 100.000000
  0.000000 <= a3_x4 <= 100.000000
  0.000000 <= a3_x5 <= 100.000000
  0.000000 <= a3_x6 <= 100.000000
  0.000000 <= a4_x1 <= 100.000000
  0.000000 <= a4_x2 <= 100.000000
  0.000000 <= a4_x3 <= 100.000000
  0.000000 <= a4_x4 <= 100.000000
  0.000000 <= a4_x5 <= 100.000000
  0.000000 <= a4_x6 <= 100.000000
  0.000000 <= short_1 <= +inf
  0.000000 <= surp_1 <= +inf
  0.000000 <= short_2 <= +inf
  0.000000 <= surp_2 <= +inf
  0.000000 <= short_3 <= +inf
  0.000000 <= surp_3 <= +inf
 0 <= a1_z1 <= 1
 0 <= a1_z2 <= 1
 0 <= a2_z1 <= 1
 0 <= a2_z2 <= 1
 0 <= a3_z1 <= 1
 0 <= a3_z2 <= 1
 0 <= a4_z1 <= 1
 0 <= a4_z2 <= 1

binary
  a1_z1
  a1_z2
  a2_z1
  a2_z2
  a3_z1
  a3_z2
  a4_z1
  a4_z2
end
