min
obj: 
  +3.04305245350352704 a1_x1
  +8.52421046785006808 a1_x2
  +7.69307565210918742 a1_x3
  +6.91899621560824230 a1_x4
  +9.20970734213053355 a1_x5
  +1.67836132765545631 a1_x6
  +29.95730103851083470 a1_z1
  +31.08072985890714435 a1_z2
  +8.69577677526249104 a2_x1
  +6.90777420422215815 a2_x2
  +5.08754459362986733 a2_x3
  +7.59170235780382363 a2_x4
  +8.27944903727416381 a2_x5
  +1.03512879040065853 a2_x6
  +28.92886188645300649 a2_z1
  +23.93421358976911506 a2_z2
  +5.14038055583452635 a3_x1
  +3.33875162916421697 a3_x2
  +6.11068986646011059 a3_x3
  +6.55082117265498010 a3_x4
  +5.19513264683116827 a3_x5
  +3.93701514527552376 a3_x6
  +16.85304582879687985 a3_z1
  +38.53959756350231913 a3_z2
  +1.41634150693496075 a4_x1
  +8.54382197580174818 a4_x2
  +7.14956107064012691 a4_x3
  +5.56590579337685210 a4_x4
  +2.52647125500070402 a4_x5
  +2.35011295395534869 a4_x6
  +43.90402305541062589 a4_z1
  +7.45391026181894656 a4_z2
  +1000000.00000000000000000 short_1
  +1000000.00000000000000000 surp_1
  +1000000.00000000000000000 short_2
  +1000000.00000000000000000 surp_2
  +1000000.00000000000000000 short_3
  +1000000.00000000000000000 surp_3

s.t.

a1_local_1: 
+0.00506971843823565 a1_x4
+0.00630708143005991 a1_x3
+0.01358737841502925 a1_x1
<= 1.550779

a1_local_2: 
+0.00661646603900644 a1_x6
+0.01152781114522258 a1_x4
+0.00701766389528128 a1_x2
<= 1.124834

a1_local_3: 
+0.01440245891456506 a1_x3
+0.00850638389791281 a1_x1
+0.00565101208201029 a1_x4
<= 1.199611

a1_local_4: 
+0.01194156848519692 a1_x3
+0.00669902766800993 a1_x1
+0.01256403097436077 a1_x2
<= 1.548362

a1_local_5: 
+0.00656640627257859 a1_x3
+0.01128959656064683 a1_x2
+0.01200766114697299 a1_x4
<= 1.179523

a1_local_6: 
+0.00776783339660146 a1_x3
+0.01464402913831837 a1_x5
+0.01021874908116620 a1_x4
<= 1.133687

a1_local_7: 
+0.01371700993762162 a1_x5
+0.01155776711302704 a1_x6
+0.00878324448847401 a1_x1
<= 1.504810

a1_local_8: 
+0.00903918888629484 a1_x2
+0.00732522222347790 a1_x3
+0.00818378055381734 a1_x6
<= 1.224720

a1_act_1: 
+1.00000000000000000 a1_x1
-100.00000000000000000 a1_z1
<= 0.000000

a1_act_2: 
+1.00000000000000000 a1_x2
-100.00000000000000000 a1_z2
<= 0.000000

a2_local_1: 
+0.11152089970013591 a2_x6
+0.13669675873606688 a2_x3
+0.15446467096363120 a2_x1
<= 13.609611

a2_local_2: 
+0.15052952401648081 a2_x4
+0.18742763219773920 a2_x1
+0.28745219910292813 a2_x5
<= 32.860294

a2_local_3: 
+0.18681982689014132 a2_x6
+0.22185394724539700 a2_x5
+0.29978223631961465 a2_x3
<= 43.455033

a2_local_4: 
+0.17898012512154285 a2_x4
+0.27909633329258809 a2_x3
+0.19010807522615744 a2_x6
<= 31.701930

a2_local_5: 
+0.26537107348584227 a2_x6
+0.24112622656338359 a2_x2
+0.18055954248389533 a2_x5
<= 39.180018

a2_local_6: 
+0.20794186060899947 a2_x2
+0.17686029438442633 a2_x1
+0.21899049145634322 a2_x4
<= 25.064923

a2_local_7: 
+0.17668076844648395 a2_x6
+0.30873671389233587 a2_x2
+0.29361188992224996 a2_x5
<= 35.509657

a2_local_8: 
+0.30492211106347583 a2_x2
+0.15837007096997080 a2_x4
+0.22041508877149205 a2_x5
<= 29.749502

a2_act_1: 
+1.00000000000000000 a2_x1
-100.00000000000000000 a2_z1
<= 0.000000

a2_act_2: 
+1.00000000000000000 a2_x2
-100.00000000000000000 a2_z2
<= 0.000000

a3_local_1: 
+4.19094529712046882 a3_x6
+6.41334391594680131 a3_x5
+5.68980978179305996 a3_x2
<= 1086.930270

a3_local_2: 
+6.40413972929045539 a3_x4
+3.01077887137793709 a3_x3
+4.48763242159887454 a3_x1
<= 598.447333

a3_local_3: 
+5.47872922922164918 a3_x2
+5.31114897153526577 a3_x4
+6.23318035024636607 a3_x3
<= 920.994345

a3_local_4: 
+5.02508429902442799 a3_x5
+6.43768704668541858 a3_x2
+5.78225553393596403 a3_x1
<= 1145.266802

a3_local_5: 
+4.30172045241454715 a3_x6
+5.04718697010250850 a3_x2
+2.56697959061044712 a3_x3
<= 828.716724

a3_local_6: 
+6.10781427285310752 a3_x1
+6.36937575861740335 a3_x4
+2.56172316705557224 a3_x3
<= 850.844333

a3_local_7: 
+6.49430462129241270 a3_x2
+5.53111091818735279 a3_x6
+4.96312759467119857 a3_x5
<= 1187.292280

a3_local_8: 
+3.91034749216956712 a3_x2
+3.07798372493437666 a3_x3
+4.39917358974797335 a3_x4
<= 518.784425

a3_act_1: 
+1.00000000000000000 a3_x1
-100.00000000000000000 a3_z1
<= 0.000000

a3_act_2: 
+1.00000000000000000 a3_x2
-100.00000000000000000 a3_z2
<= 0.000000

a4_local_1: 
+77.00421437924535439 a4_x4
+63.98123295929527643 a4_x5
+110.65667947026361162 a4_x6
<= 9283.820182

a4_local_2: 
+125.76350377333413633 a4_x3
+146.29530018541871073 a4_x1
+101.04540539742004057 a4_x2
<= 24744.882098

a4_local_3: 
+56.51652991107042112 a4_x4
+72.03283113086669687 a4_x6
+117.00823344984270591 a4_x2
<= 7612.187896

a4_local_4: 
+98.67935670918517133 a4_x2
+89.65256641200328147 a4_x3
+70.87024352332119292 a4_x1
<= 15382.272758

a4_local_5: 
+71.91663336918804816 a4_x4
+130.14117074196286694 a4_x5
+84.73153718567508008 a4_x2
<= 19696.571948

a4_local_6: 
+127.03666453410993142 a4_x6
+52.73386134141889414 a4_x5
+96.91641477467284460 a4_x3
<= 19000.106949

a4_local_7: 
+52.16336439531137614 a4_x4
+122.48324706887530056 a4_x3
+130.32917768911806888 a4_x5
<= 20021.774025

a4_local_8: 
+97.92540669889649507 a4_x1
+57.61556020062796790 a4_x6
+136.63715836365403788 a4_x4
<= 16139.903016

a4_act_1: 
+1.00000000000000000 a4_x1
-100.00000000000000000 a4_z1
<= 0.000000

a4_act_2: 
+1.00000000000000000 a4_x2
-100.00000000000000000 a4_z2
<= 0.000000

coupling_1: 
+387.16776111132634242 a1_x1
+3257.64064209635034786 a2_x1
+67850.20003916861605830 a3_x1
+3365426.11523345345631242 a4_x1
+26981.41666960299335187 short_1
-26981.41666960299335187 surp_1
= 69358203.617612

coupling_2: 
+0.00000003307473195 a1_x2
+0.00000086581751586 a2_x2
+0.00002703406027509 a3_x2
+0.00053881208608314 a4_x2
+0.00000440907917818 short_2
-0.00000440907917818 surp_2
= 0.018826

coupling_3: 
+0.00000001992498268 a1_x3
+0.00000062599454535 a2_x3
+0.00001524381254301 a3_x3
+0.00017049549788686 a4_x3
+0.00000307504105825 short_3
-0.00000307504105825 surp_3
= 0.003884

bounds
  0.000000 <= a1_x1 <= 100.000000
  0.000000 <= a1_x2 <= 100.000000
  0.000000 <= a1_x3 <= 100.000000
  0.000000 <= a1_x4 <= 100.000000
  0.000000 <= a1_x5 <= 100.000000
  0.000000 <= a1_x6 <= 100.000000
  0.000000 <= a2_x1 <= 100.000000
  0.000000 <= a2_x2 <= 100.000000
  0.000000 <= a2_x3 <= 100.000000
  0.000000 <= a2_x4 <= 100.000000
  0.000000 <= a2_x5 <= 100.000000
  0.000000 <= a2_x6 <= 100.000000
  0.000000 <= a3_x1 <= 100.000000
  0.000000 <= a3_x2 <= 100.000000
  0.000000 <= a3_x3 <= 100.000000
  0.000000 <= a3_x4 <= 100.000000
  0.000000 <= a3_x5 <= 100.000000
  0.000000 <= a3_x6 <= 100.000000
  0.000000 <= a4_x1 <= 100.000000
  0.000000 <= a4_x2 <= 100.000000
  0.000000 <= a4_x3 <= 100.000000
  0.000000 <= a4_x4 <= 100.000000
  0.000000 <= a4_x5 <= 100.000000
  0.000000 <= a4_x6 <= 100.000000
  0.000000 <= short_1 <= +inf
  0.000000 <= surp_1 <= +inf
  0.000000 <= short_2 <= +inf
  0.000000 <= surp_2 <= +inf
  0.000000 <= short_3 <= +inf
  0.000000 <= surp_3 <= +inf
 0 <= a1_z1 <= 1
 0 <= a1_z2 <= 1
 0 <= a2_z1 <= 1
 0 <= a2_z2 <= 1
 0 <= a3_z1 <= 1
 0 <= a3_z2 <= 1
 0 <= a4_z1 <= 1
 0 <= a4_z2 <= 1

binary
  a1_z1
  a1_z2
  a2_z1
  a2_z2
  a3_z1
  a3_z2
  a4_z1
  a4_z2
end
