min
obj: 
  +9.92789069156587445 a1_x1
  +4.10293210566149646 a1_x2
  +3.32901181929639423 a1_x3
  +9.10176472428019245 a1_x4
  +1.02767819950250816 a1_x5
  +7.50152284301075145 a1_x6
  +48.47610588570461232 a1_z1
  +46.46239370281180214 a1_z2
  +6.93758052846583873 a2_x1
  +8.73612443817434503 a2_x2
  +2.04228756855595339 a2_x3
  +7.91416373752481395 a2_x4
  +8.85104976446995906 a2_x5
  +5.35890260317347789 a2_x6
  +22.32551298055883748 a2_z1
  +43.59910462783197715 a2_z2
  +2.44474458582316245 a3_x1
  +8.77121756982191414 a3_x2
  +5.76281450528001393 a3_x3
  +8.52709380603204359 a3_x4
  +1.13892657158295396 a3_x5
  +2.91144295006929399 a3_x6
  +15.13786411581276603 a3_z1
  +21.64888772902043002 a3_z2
  +4.31354625098332889 a4_x1
  +3.73746776663401503 a4_x2
  +6.30470396079639350 a4_x3
  +7.23244248154489888 a4_x4
  +3.53129435828251648 a4_x5
  +2.19432544763669313 a4_x6
  +13.98335585286305616 a4_z1
  +25.76781967633817416 a4_z2
  +1000000.00000000000000000 short_1
  +1000000.00000000000000000 surp_1
  +1000000.00000000000000000 short_2
  +1000000.00000000000000000 surp_2
  +1000000.00000000000000000 short_3
  +1000000.00000000000000000 surp_3

s.t.

a1_local_1: 
+1.21501867946975217 a1_x4
+1.18164631490537908 a1_x6
+0.82303261414582618 a1_x1
<= 128.373546

a1_local_2: 
+1.05148116348112253 a1_x4
+0.91201026733257162 a1_x3
+1.09647888386693149 a1_x5
<= 154.346076

a1_local_3: 
+0.75664890650966599 a1_x4
+0.94991445195648339 a1_x3
+1.32161692351196858 a1_x2
<= 162.941027

a1_local_4: 
+1.07192480178993699 a1_x4
+1.35216756611632505 a1_x5
+0.73955331059462159 a1_x2
<= 207.259973

a1_local_5: 
+1.52554721067789334 a1_x2
+0.65550249313860243 a1_x1
+1.35918274828457308 a1_x6
<= 178.363233

a1_local_6: 
+0.70229148870958735 a1_x3
+1.42391017985627588 a1_x5
+1.14116453450411193 a1_x4
<= 223.831032

a1_local_7: 
+0.72880026951819588 a1_x6
+0.81002640736533738 a1_x4
+1.37211804361857892 a1_x3
<= 97.558206

a1_local_8: 
+1.35127531285957314 a1_x1
+0.74004164102117476 a1_x3
+1.21572688211841951 a1_x4
<= 201.196128

a1_act_1: 
+0.10000000000000001 a1_x1
-10.00000000000000000 a1_z1
<= 0.000000

a1_act_2: 
+0.10000000000000001 a1_x2
-10.00000000000000000 a1_z2
<= 0.000000

a2_local_1: 
+0.76527659051235042 a2_x3
+0.73916055019772742 a2_x1
+1.35288605396012729 a2_x6
<= 171.853028

a2_local_2: 
+0.74840880784559671 a2_x4
+1.33616813366834220 a2_x1
+1.18711353535216890 a2_x5
<= 115.032637

a2_local_3: 
+0.60709627354040496 a2_x2
+1.43189962289797390 a2_x5
+1.64718520535185808 a2_x1
<= 190.273264

a2_local_4: 
+1.07695403690108549 a2_x2
+1.03994431642959650 a2_x1
+0.92854473425577255 a2_x4
<= 169.619087

a2_local_5: 
+0.85101975162979593 a2_x4
+1.14247934461605305 a2_x5
+1.17506085855808928 a2_x2
<= 122.896613

a2_local_6: 
+1.06787208593486782 a2_x1
+1.23640084455691701 a2_x2
+0.80879918871162293 a2_x3
<= 203.369346

a2_local_7: 
+0.86430641799258312 a2_x1
+0.97576147649340239 a2_x2
+1.15699707786802652 a2_x4
<= 191.335906

a2_local_8: 
+0.65568429538975681 a2_x6
+1.52512422065191044 a2_x3
+1.26651329856328254 a2_x5
<= 155.206400

a2_act_1: 
+0.10000000000000001 a2_x1
-10.00000000000000000 a2_z1
<= 0.000000

a2_act_2: 
+0.10000000000000001 a2_x2
-10.00000000000000000 a2_z2
<= 0.000000

a3_local_1: 
+1.59456805558424075 a3_x4
+0.61429344521114027 a3_x6
+1.62788648942247360 a3_x3
<= 164.400381

a3_local_2: 
+1.07016672572159255 a3_x6
+1.05551066019918616 a3_x4
+0.93443383723757589 a3_x3
<= 122.101310

a3_local_3: 
+1.16958030016538372 a3_x2
+0.85500756113846643 a3_x1
+0.93444786978920158 a3_x4
<= 136.270181

a3_local_4: 
+0.73418617648838647 a3_x5
+0.78901750512116542 a3_x3
+1.36205234043359602 a3_x2
<= 167.833043

a3_local_5: 
+0.61735490789970071 a3_x1
+0.83836344733774260 a3_x2
+1.61981380111173623 a3_x5
<= 107.088659

a3_local_6: 
+1.13966323651581658 a3_x6
+0.97547903340670139 a3_x4
+0.87745218759289334 a3_x2
<= 175.530619

a3_local_7: 
+1.39624204437054233 a3_x2
+0.85747778462066959 a3_x3
+0.71620819902384680 a3_x5
<= 155.369181

a3_local_8: 
+0.64367469071505246 a3_x5
+0.86223092083818242 a3_x2
+1.55357980424724995 a3_x3
<= 174.377931

a3_act_1: 
+0.10000000000000001 a3_x1
-10.00000000000000000 a3_z1
<= 0.000000

a3_act_2: 
+0.10000000000000001 a3_x2
-10.00000000000000000 a3_z2
<= 0.000000

a4_local_1: 
+0.70324529153788740 a4_x1
+1.42197894821756488 a4_x4
+1.07483931909977604 a4_x6
<= 137.382062

a4_local_2: 
+1.12009862686782879 a4_x6
+1.11846103865430657 a4_x3
+0.89277852504500910 a4_x4
<= 209.447731

a4_local_3: 
+0.80718506019082659 a4_x1
+1.52835033008549059 a4_x2
+0.65430024799619313 a4_x5
<= 105.251528

a4_local_4: 
+1.09580791442912417 a4_x4
+0.91256869642245975 a4_x5
+1.04518022884542860 a4_x1
<= 111.203509

a4_local_5: 
+0.67531843618071796 a4_x4
+1.48078291132628848 a4_x6
+1.01655210253788342 a4_x2
<= 216.062013

a4_local_6: 
+1.21738940896177206 a4_x6
+1.11979119258846138 a4_x2
+0.82142985033263227 a4_x3
<= 159.549914

a4_local_7: 
+1.49656109700580586 a4_x6
+1.31532496345145544 a4_x3
+0.66819858006513477 a4_x4
<= 216.631570

a4_local_8: 
+0.94803023231847239 a4_x2
+0.93191586716542862 a4_x4
+1.07305823973322845 a4_x3
<= 134.273624

a4_act_1: 
+0.10000000000000001 a4_x1
-10.00000000000000000 a4_z1
<= 0.000000

a4_act_2: 
+0.10000000000000001 a4_x2
-10.00000000000000000 a4_z2
<= 0.000000

coupling_1: 
+0.00024551504481960 a1_x1
+0.00308746441267622 a2_x1
+0.11321962304990028 a3_x1
+0.98131950505780985 a4_x1
+0.01861423724644573 short_1
-0.01861423724644573 surp_1
= 48.830603

coupling_2: 
+0.00009050281140713 a1_x2
+0.00326629189538001 a2_x2
+0.04606775332606650 a3_x2
+0.99873880261145376 a4_x2
+0.01392640312901246 short_2
-0.01392640312901246 surp_2
= 49.614787

coupling_3: 
+0.00013834924500797 a1_x3
+0.00141917093854662 a2_x3
+0.04512216371961553 a3_x3
+0.99882816707159872 a4_x3
+0.01233389271447380 short_3
-0.01233389271447380 surp_3
= 70.553843

bounds
  0.000000 <= a1_x1 <= 100.000000
  0.000000 <= a1_x2 <= 100.000000
  0.000000 <= a1_x3 <= 100.000000
  0.000000 <= a1_x4 <= 100.000000
  0.000000 <= a1_x5 <= 100.000000
  0.000000 <= a1_x6 <= 100.000000
  0.000000 <= a2_x1 <= 100.000000
  0.000000 <= a2_x2 <= 100.000000
  0.000000 <= a2_x3 <= 100.000000
  0.000000 <= a2_x4 <= 100.000000
  0.000000 <= a2_x5 <= 100.000000
  0.000000 <= a2_x6 <= 100.000000
  0.000000 <= a3_x1 <= 100.000000
  0.000000 <= a3_x2 <= 100.000000
  0.000000 <= a3_x3 <= 100.000000
  0.000000 <= a3_x4 <= 100.000000
  0.000000 <= a3_x5 <= 100.000000
  0.000000 <= a3_x6 <= 100.000000
  0.000000 <= a4_x1 <= 100.000000
  0.000000 <= a4_x2 <= 100.000000
  0.000000 <= a4_x3 <= 100.000000
  0.000000 <= a4_x4 <= 100.000000
  0.000000 <= a4_x5 <= 100.000000
  0.000000 <= a4_x6 <= 100.000000
  0.000000 <= short_1 <= +inf
  0.000000 <= surp_1 <= +inf
  0.000000 <= short_2 <= +inf
  0.000000 <= surp_2 <= +inf
  0.000000 <= short_3 <= +inf
  0.000000 <= surp_3 <= +inf
 0 <= a1_z1 <= 1
 0 <= a1_z2 <= 1
 0 <= a2_z1 <= 1
 0 <= a2_z2 <= 1
 0 <= a3_z1 <= 1
 0 <= a3_z2 <= 1
 0 <= a4_z1 <= 1
 0 <= a4_z2 <= 1

binary
  a1_z1
  a1_z2
  a2_z1
  a2_z2
  a3_z1
  a3_z2
  a4_z1
  a4_z2
end
