min
obj: 
  +1.57709742578195788 a1_x1
  +5.24362332399284625 a1_x2
  +8.06959664561268042 a1_x3
  +3.47810228856863679 a1_x4
  +9.41205830682384104 a1_x5
  +8.31656886029670339 a1_x6
  +34.00140095985545230 a1_z1
  +10.41050343041974102 a1_z2
  +7.41825931722322895 a2_x1
  +8.28066141375753872 a2_x2
  +6.06494311381576523 a2_x3
  +8.65417661359723311 a2_x4
  +4.32929045080204133 a2_x5
  +7.27024404204758401 a2_x6
  +22.65925838872017550 a2_z1
  +14.32924585982750010 a2_z2
  +6.57062993093993875 a3_x1
  +3.46672163395224064 a3_x2
  +8.73068689063360637 a3_x3
  +5.78731633243780319 a3_x4
  +5.65993509091970015 a3_x5
  +4.88699203046912878 a3_x6
  +21.67833706752954370 a3_z1
  +5.90058593924896702 a3_z2
  +6.06162452349797132 a4_x1
  +4.52735162287015491 a4_x2
  +9.79326185053260900 a4_x3
  +5.17425215108361947 a4_x4
  +5.44899982766291835 a4_x5
  +4.65504731238401082 a4_x6
  +25.90789863548987526 a4_z1
  +20.49298729783527051 a4_z2
  +1000000.00000000000000000 short_1
  +1000000.00000000000000000 surp_1
  +1000000.00000000000000000 short_2
  +1000000.00000000000000000 surp_2
  +1000000.00000000000000000 short_3
  +1000000.00000000000000000 surp_3

s.t.

a1_local_1: 
+0.64098504467401418 a1_x1
+0.65529248652179228 a1_x6
+0.39966226943800792 a1_x5
<= 89.211706

a1_local_2: 
+0.55064285615084863 a1_x5
+0.73094825274735109 a1_x2
+0.40312168978564067 a1_x4
<= 111.982952

a1_local_3: 
+0.60653474482124858 a1_x4
+0.65355255721177885 a1_x2
+0.45275231450161302 a1_x6
<= 87.041750

a1_local_4: 
+0.48468281106156536 a1_x3
+0.40415584568472496 a1_x4
+0.77571942418655715 a1_x1
<= 114.895558

a1_local_5: 
+0.37700140450220204 a1_x4
+0.56011405745587217 a1_x6
+0.73765993767025662 a1_x3
<= 114.187745

a1_local_6: 
+0.73341007215429344 a1_x2
+0.54977101137033380 a1_x4
+0.39982683891839316 a1_x3
<= 74.627733

a1_local_7: 
+0.43823025832809320 a1_x2
+0.36074934649066820 a1_x4
+0.82329469188878446 a1_x3
<= 63.231895

a1_local_8: 
+0.42881947157940209 a1_x6
+0.55486649710622926 a1_x4
+0.71290744924108151 a1_x3
<= 87.164532

a1_act_1: 
+0.00999950003749688 a1_x1
-0.99995000374968757 a1_z1
<= 0.000000

a1_act_2: 
+0.00999950003749688 a1_x2
-0.99995000374968757 a1_z2
<= 0.000000

a2_local_1: 
+0.45238617504383721 a2_x1
+0.42581800356112653 a2_x3
+0.78359796865001075 a2_x6
<= 96.635570

a2_local_2: 
+0.33197778069406741 a2_x2
+0.75249537638068831 a2_x3
+0.56880705133738263 a2_x5
<= 62.943859

a2_local_3: 
+0.59607595203841446 a2_x6
+0.59612007569886249 a2_x5
+0.53789805237635924 a2_x1
<= 88.242078

a2_local_4: 
+0.70063395603317591 a2_x6
+0.28979465704822427 a2_x4
+0.65202079445336991 a2_x2
<= 88.256257

a2_local_5: 
+0.56376506246806635 a2_x1
+0.47343629022507228 a2_x2
+0.67677694511434028 a2_x3
<= 102.964453

a2_local_6: 
+0.76944969397791729 a2_x4
+0.41250882611250411 a2_x6
+0.48763063564195080 a2_x1
<= 80.791555

a2_local_7: 
+0.48141072203871960 a2_x5
+0.73532590670584375 a2_x1
+0.47701103512747778 a2_x6
<= 112.199396

a2_local_8: 
+0.48134038153081543 a2_x1
+0.55553049116899866 a2_x2
+0.67800981592400267 a2_x6
<= 69.579558

a2_act_1: 
+0.00999950003749688 a2_x1
-0.99995000374968757 a2_z1
<= 0.000000

a2_act_2: 
+0.00999950003749688 a2_x2
-0.99995000374968757 a2_z2
<= 0.000000

a3_local_1: 
+0.58252338184701835 a3_x2
+0.67057188152998637 a3_x4
+0.45934721214223889 a3_x6
<= 63.033578

a3_local_2: 
+0.85116678055839834 a3_x2
+0.38573807972718666 a3_x4
+0.35597927681570685 a3_x6
<= 99.466159

a3_local_3: 
+0.45979558350298677 a3_x6
+0.70455626049622155 a3_x3
+0.54054463015252330 a3_x2
<= 105.880998

a3_local_4: 
+0.66080022141240813 a3_x3
+0.68471781480628391 a3_x2
+0.30741597464708925 a3_x5
<= 81.328422

a3_local_5: 
+0.70075955304631110 a3_x4
+0.63365044496067469 a3_x2
+0.32775472905127323 a3_x6
<= 55.492207

a3_local_6: 
+0.44005501780588829 a3_x3
+0.64363104158597351 a3_x5
+0.62617143308427459 a3_x1
<= 85.718804

a3_local_7: 
+0.47237822426315729 a3_x2
+0.75340605349799250 a3_x3
+0.45742554781578015 a3_x5
<= 63.350654

a3_local_8: 
+0.53547569938088846 a3_x2
+0.43994267092888661 a3_x5
+0.72091346337026185 a3_x3
<= 83.357248

a3_act_1: 
+0.00999950003749688 a3_x1
-0.99995000374968757 a3_z1
<= 0.000000

a3_act_2: 
+0.00999950003749688 a3_x2
-0.99995000374968757 a3_z2
<= 0.000000

a4_local_1: 
+0.32555929213073820 a4_x4
+0.83767345682004768 a4_x5
+0.43853657435439092 a4_x1
<= 62.804404

a4_local_2: 
+0.40886978489745956 a4_x6
+0.80468397244190404 a4_x4
+0.43047555504699947 a4_x1
<= 103.607779

a4_local_3: 
+0.66977799368245083 a4_x1
+0.52661841747378257 a4_x3
+0.52351741284900888 a4_x4
<= 105.692446

a4_local_4: 
+0.60029606012849290 a4_x3
+0.59319729937207688 a4_x6
+0.53643415645527615 a4_x5
<= 116.735009

a4_local_5: 
+0.73016237111377835 a4_x4
+0.59424072278216511 a4_x5
+0.33725491130128138 a4_x6
<= 81.055602

a4_local_6: 
+0.45964356119822353 a4_x5
+0.62459314261105636 a4_x3
+0.63135663681651366 a4_x2
<= 99.245878

a4_local_7: 
+0.44192213813734699 a4_x6
+0.34162602604070413 a4_x3
+0.82945553356147539 a4_x4
<= 52.129407

a4_local_8: 
+0.43597329915212507 a4_x6
+0.58149436991934367 a4_x4
+0.68687086135496900 a4_x1
<= 70.241881

a4_act_1: 
+0.00999950003749688 a4_x1
-0.99995000374968757 a4_z1
<= 0.000000

a4_act_2: 
+0.00999950003749688 a4_x2
-0.99995000374968757 a4_z2
<= 0.000000

coupling_1: 
+0.00011204162028741 a1_x1
+0.00198860971970655 a2_x1
+0.03109218394260792 a3_x1
+0.99943522343117308 a4_x1
+0.00890345833983927 short_1
-0.00890345833983927 surp_1
= 72.825807

coupling_2: 
+0.00007468558499752 a1_x2
+0.00138886340929535 a2_x2
+0.04513982565818436 a3_x2
+0.99890800907464206 a4_x2
+0.00846318576474380 short_2
-0.00846318576474380 surp_2
= 70.303647

coupling_3: 
+0.00008128447977062 a1_x3
+0.00195503237018268 a2_x3
+0.03364974213589307 a3_x3
+0.99933513379715511 a4_x3
+0.00982742219697603 short_3
-0.00982742219697603 surp_3
= 68.085685

bounds
  0.000000 <= a1_x1 <= 100.000000
  0.000000 <= a1_x2 <= 100.000000
  0.000000 <= a1_x3 <= 100.000000
  0.000000 <= a1_x4 <= 100.000000
  0.000000 <= a1_x5 <= 100.000000
  0.000000 <= a1_x6 <= 100.000000
  0.000000 <= a2_x1 <= 100.000000
  0.000000 <= a2_x2 <= 100.000000
  0.000000 <= a2_x3 <= 100.000000
  0.000000 <= a2_x4 <= 100.000000
  0.000000 <= a2_x5 <= 100.000000
  0.000000 <= a2_x6 <= 100.000000
  0.000000 <= a3_x1 <= 100.000000
  0.000000 <= a3_x2 <= 100.000000
  0.000000 <= a3_x3 <= 100.000000
  0.000000 <= a3_x4 <= 100.000000
  0.000000 <= a3_x5 <= 100.000000
  0.000000 <= a3_x6 <= 100.000000
  0.000000 <= a4_x1 <= 100.000000
  0.000000 <= a4_x2 <= 100.000000
  0.000000 <= a4_x3 <= 100.000000
  0.000000 <= a4_x4 <= 100.000000
  0.000000 <= a4_x5 <= 100.000000
  0.000000 <= a4_x6 <= 100.000000
  0.000000 <= short_1 <= +inf
  0.000000 <= surp_1 <= +inf
  0.000000 <= short_2 <= +inf
  0.000000 <= surp_2 <= +inf
  0.000000 <= short_3 <= +inf
  0.000000 <= surp_3 <= +inf
 0 <= a1_z1 <= 1
 0 <= a1_z2 <= 1
 0 <= a2_z1 <= 1
 0 <= a2_z2 <= 1
 0 <= a3_z1 <= 1
 0 <= a3_z2 <= 1
 0 <= a4_z1 <= 1
 0 <= a4_z2 <= 1

binary
  a1_z1
  a1_z2
  a2_z1
  a2_z2
  a3_z1
  a3_z2
  a4_z1
  a4_z2
end
