min
obj: 
  +4.00927114806491947 a1_x1
  +1.96797315584533505 a1_x2
  +5.12450639908132288 a1_x3
  +5.32896604620880687 a1_x4
  +7.73264361972508052 a1_x5
  +5.13954220661915251 a1_x6
  +7.46013036925632012 a1_z1
  +49.87266735161764331 a1_z2
  +4.20073886186967549 a2_x1
  +7.53413172178710777 a2_x2
  +3.45719216892709458 a2_x3
  +4.76571137466424233 a2_x4
  +9.38617884989886875 a2_x5
  +1.72886855476886026 a2_x6
  +29.54080410777594423 a2_z1
  +23.53717041290824596 a2_z2
  +8.21626166621846110 a3_x1
  +4.90875225577424779 a3_x2
  +9.92442060145863181 a3_x3
  +6.78612387718403109 a3_x4
  +8.67367115140907785 a3_x5
  +9.64439582433125331 a3_x6
  +44.88444155829282778 a3_z1
  +12.68276888992290807 a3_z2
  +8.69787784647402162 a4_x1
  +4.12769081519996917 a4_x2
  +7.02237149328651711 a4_x3
  +1.06108582988083655 a4_x4
  +7.09274128796206593 a4_x5
  +7.93550517031278613 a4_x6
  +37.98565391640966737 a4_z1
  +17.37310151636162914 a4_z2
  +1000000.00000000000000000 short_1
  +1000000.00000000000000000 surp_1
  +1000000.00000000000000000 short_2
  +1000000.00000000000000000 surp_2
  +1000000.00000000000000000 short_3
  +1000000.00000000000000000 surp_3

s.t.

a1_local_1: 
+0.01346329719369153 a1_x3
+0.00571987176354480 a1_x6
+0.00910073192041656 a1_x4
<= 1.069147

a1_local_2: 
+0.01136095083088589 a1_x2
+0.01371656515333186 a1_x5
+0.00759906790734515 a1_x3
<= 1.020906

a1_local_3: 
+0.00834100030676048 a1_x4
+0.00505091083104228 a1_x2
+0.00680635499859815 a1_x5
<= 1.131956

a1_local_4: 
+0.01400205607022425 a1_x3
+0.00670277076690149 a1_x6
+0.00839237983064083 a1_x5
<= 1.697730

a1_local_5: 
+0.00600109664001855 a1_x1
+0.01394694337606759 a1_x6
+0.01339007870280470 a1_x3
<= 2.318042

a1_local_6: 
+0.01346349024685050 a1_x1
+0.01340199851485714 a1_x3
+0.00634001334421599 a1_x2
<= 2.311473

a1_local_7: 
+0.00629753143020532 a1_x1
+0.01442663000398244 a1_x5
+0.00867805224888279 a1_x4
<= 1.150497

a1_local_8: 
+0.01307026074348971 a1_x3
+0.00829772394478138 a1_x1
+0.01012555578714986 a1_x6
<= 1.132718

a1_act_1: 
+1.00000000000000000 a1_x1
-100.00000000000000000 a1_z1
<= 0.000000

a1_act_2: 
+1.00000000000000000 a1_x2
-100.00000000000000000 a1_z2
<= 0.000000

a2_local_1: 
+0.24537258450035124 a2_x6
+0.27052400497488932 a2_x5
+0.27004126065829109 a2_x3
<= 43.565907

a2_local_2: 
+0.24133503768795897 a2_x4
+0.26181799940870254 a2_x5
+0.15353902955927415 a2_x3
<= 20.281253

a2_local_3: 
+0.32139945820190752 a2_x1
+0.25780004780587773 a2_x5
+0.25694669433847300 a2_x6
<= 33.648964

a2_local_4: 
+0.15085248796495773 a2_x1
+0.20815163949793866 a2_x4
+0.13299369818753179 a2_x5
<= 31.602517

a2_local_5: 
+0.17860060978129594 a2_x5
+0.21003351276605031 a2_x1
+0.15525151659341857 a2_x3
<= 36.078819

a2_local_6: 
+0.19122208559643558 a2_x6
+0.21889147751454935 a2_x2
+0.28479446613303988 a2_x4
<= 31.819077

a2_local_7: 
+0.23673768898669176 a2_x6
+0.21225220535887915 a2_x4
+0.21272335428503739 a2_x3
<= 36.515172

a2_local_8: 
+0.23763051977665606 a2_x3
+0.19157831694815841 a2_x5
+0.13592175979294546 a2_x4
<= 21.979231

a2_act_1: 
+1.00000000000000000 a2_x1
-100.00000000000000000 a2_z1
<= 0.000000

a2_act_2: 
+1.00000000000000000 a2_x2
-100.00000000000000000 a2_z2
<= 0.000000

a3_local_1: 
+6.57664664806517063 a3_x1
+5.04238099354286717 a3_x2
+4.43964207600365413 a3_x5
<= 590.492873

a3_local_2: 
+4.48454188616855198 a3_x6
+6.54506609257039784 a3_x2
+6.69817134366806322 a3_x3
<= 1105.757185

a3_local_3: 
+6.06635470499429452 a3_x1
+2.36925313379753488 a3_x6
+4.70410152128580616 a3_x3
<= 473.835517

a3_local_4: 
+5.37093531934186785 a3_x1
+3.56053557594965486 a3_x2
+6.84174443045527436 a3_x3
<= 520.025828

a3_local_5: 
+6.25595811443394467 a3_x6
+4.08039486259844608 a3_x5
+5.44858806390720662 a3_x3
<= 1059.507786

a3_local_6: 
+2.41887730606744089 a3_x5
+4.99357038699602551 a3_x3
+3.83536353322829537 a3_x4
<= 445.090514

a3_local_7: 
+3.32951154355764123 a3_x1
+2.57197878020111759 a3_x5
+5.18996661721000674 a3_x2
<= 574.505586

a3_local_8: 
+4.47052155203285384 a3_x1
+4.17593757643108354 a3_x3
+6.35391044430721674 a3_x6
<= 923.373041

a3_act_1: 
+1.00000000000000000 a3_x1
-100.00000000000000000 a3_z1
<= 0.000000

a3_act_2: 
+1.00000000000000000 a3_x2
-100.00000000000000000 a3_z2
<= 0.000000

a4_local_1: 
+106.24662179156226216 a4_x3
+139.87653336921428604 a4_x5
+135.62215274067034443 a4_x2
<= 21815.817261

a4_local_2: 
+138.85905477343902703 a4_x6
+99.76866817171571711 a4_x4
+102.30159129434058229 a4_x5
<= 13486.646607

a4_local_3: 
+89.35872128409963011 a4_x6
+74.62968531455035759 a4_x3
+78.13798281066071638 a4_x2
<= 15982.321173

a4_local_4: 
+76.83611545384312080 a4_x3
+76.24372181366101131 a4_x6
+148.63953104817178996 a4_x5
<= 11172.994779

a4_local_5: 
+77.48351269404297170 a4_x1
+133.19813380499695654 a4_x6
+72.12804877424754579 a4_x3
<= 11140.772573

a4_local_6: 
+63.80324420254774509 a4_x6
+72.03302476035517543 a4_x3
+91.64918231563228801 a4_x4
<= 13286.435967

a4_local_7: 
+123.97093788335915576 a4_x6
+121.67445157202357109 a4_x4
+128.44002327056404056 a4_x5
<= 12415.602648

a4_local_8: 
+144.39534246687864538 a4_x2
+147.96501181840432082 a4_x4
+101.29068066987821339 a4_x1
<= 12148.625637

a4_act_1: 
+1.00000000000000000 a4_x1
-100.00000000000000000 a4_z1
<= 0.000000

a4_act_2: 
+1.00000000000000000 a4_x2
-100.00000000000000000 a4_z2
<= 0.000000

coupling_1: 
+0.00022541612066859 a1_x1
+0.01134191843139964 a2_x1
+0.21389752171065404 a3_x1
+4.57639020920450168 a4_x1
+0.03750614771464270 short_1
-0.03750614771464270 surp_1
= 356.377077

coupling_2: 
+780.71587060777062561 a1_x2
+21646.32932295539649203 a2_x2
+475109.55697801621863618 a3_x2
+8482769.68484582193195820 a4_x2
+123949.17156767786946148 short_2
-123949.17156767786946148 surp_2
= 221233375.314159

coupling_3: 
+0.00601671614845413 a1_x3
+0.12088596772283619 a2_x3
+2.25707812242394956 a3_x3
+70.59506849429278930 a4_x3
+0.66724544800694141 short_3
-0.66724544800694141 surp_3
= 3626.403361

bounds
  0.000000 <= a1_x1 <= 100.000000
  0.000000 <= a1_x2 <= 100.000000
  0.000000 <= a1_x3 <= 100.000000
  0.000000 <= a1_x4 <= 100.000000
  0.000000 <= a1_x5 <= 100.000000
  0.000000 <= a1_x6 <= 100.000000
  0.000000 <= a2_x1 <= 100.000000
  0.000000 <= a2_x2 <= 100.000000
  0.000000 <= a2_x3 <= 100.000000
  0.000000 <= a2_x4 <= 100.000000
  0.000000 <= a2_x5 <= 100.000000
  0.000000 <= a2_x6 <= 100.000000
  0.000000 <= a3_x1 <= 100.000000
  0.000000 <= a3_x2 <= 100.000000
  0.000000 <= a3_x3 <= 100.000000
  0.000000 <= a3_x4 <= 100.000000
  0.000000 <= a3_x5 <= 100.000000
  0.000000 <= a3_x6 <= 100.000000
  0.000000 <= a4_x1 <= 100.000000
  0.000000 <= a4_x2 <= 100.000000
  0.000000 <= a4_x3 <= 100.000000
  0.000000 <= a4_x4 <= 100.000000
  0.000000 <= a4_x5 <= 100.000000
  0.000000 <= a4_x6 <= 100.000000
  0.000000 <= short_1 <= +inf
  0.000000 <= surp_1 <= +inf
  0.000000 <= short_2 <= +inf
  0.000000 <= surp_2 <= +inf
  0.000000 <= short_3 <= +inf
  0.000000 <= surp_3 <= +inf
 0 <= a1_z1 <= 1
 0 <= a1_z2 <= 1
 0 <= a2_z1 <= 1
 0 <= a2_z2 <= 1
 0 <= a3_z1 <= 1
 0 <= a3_z2 <= 1
 0 <= a4_z1 <= 1
 0 <= a4_z2 <= 1

binary
  a1_z1
  a1_z2
  a2_z1
  a2_z2
  a3_z1
  a3_z2
  a4_z1
  a4_z2
end
