min
obj: 
  +2.86702301288668870 a1_x1
  +4.61217347674817457 a1_x2
  +8.37266539443051627 a1_x3
  +3.88741117842564377 a1_x4
  +3.57352147071314707 a1_x5
  +7.90632682258909369 a1_x6
  +32.52167325628295202 a1_z1
  +46.95512094955829951 a1_z2
  +6.18957109820114049 a2_x1
  +7.65671715801393571 a2_x2
  +8.20437447093011585 a2_x3
  +3.61886914738285226 a2_x4
  +5.28592570462095690 a2_x5
  +3.39477691808076010 a2_x6
  +12.60548138304202581 a2_z1
  +31.13088232979415793 a2_z2
  +1.00384692741400694 a3_x1
  +6.98746639113835144 a3_x2
  +2.08920162411281263 a3_x3
  +9.36108080061404380 a3_x4
  +4.85098195997041159 a3_x5
  +1.72431460157976346 a3_x6
  +35.01946721881928681 a3_z1
  +33.01267747284549614 a3_z2
  +2.50332166724604033 a4_x1
  +6.42161923356443864 a4_x2
  +2.38773349159600956 a4_x3
  +7.47586240964883597 a4_x4
  +7.41060969147519710 a4_x5
  +8.58602476997859654 a4_x6
  +17.16287865875343854 a4_z1
  +23.31726507162430551 a4_z2
  +1000000.00000000000000000 short_1
  +1000000.00000000000000000 surp_1
  +1000000.00000000000000000 short_2
  +1000000.00000000000000000 surp_2
  +1000000.00000000000000000 short_3
  +1000000.00000000000000000 surp_3

s.t.

a1_local_1: 
+0.75472573801036935 a1_x3
+1.32498462638392334 a1_x1
+1.17726940492991528 a1_x2
<= 195.876542

a1_local_2: 
+0.83501334719060161 a1_x6
+1.19758564742048179 a1_x4
+0.89946252450197972 a1_x3
<= 114.840219

a1_local_3: 
+0.86023087927746567 a1_x5
+1.16247861369488481 a1_x6
+1.11929804140982858 a1_x4
<= 115.254113

a1_local_4: 
+1.20889444057699236 a1_x3
+1.39445729136045382 a1_x6
+0.71712486728394853 a1_x4
<= 111.928132

a1_local_5: 
+1.39104089118424734 a1_x4
+1.10590084617046980 a1_x5
+0.71888612788992912 a1_x2
<= 117.761669

a1_local_6: 
+1.09884614159380289 a1_x5
+1.06563975392349053 a1_x4
+0.91004551242230047 a1_x2
<= 149.558708

a1_local_7: 
+1.10034232255426989 a1_x2
+1.40128976124175941 a1_x3
+0.71362827850383015 a1_x6
<= 200.053802

a1_local_8: 
+1.33173245233488458 a1_x2
+1.28005771666042700 a1_x5
+0.75090157805100533 a1_x1
<= 175.583995

a1_act_1: 
+0.10000000000000001 a1_x1
-10.00000000000000000 a1_z1
<= 0.000000

a1_act_2: 
+0.10000000000000001 a1_x2
-10.00000000000000000 a1_z2
<= 0.000000

a2_local_1: 
+1.09096204252827245 a2_x4
+0.91662217475736318 a2_x3
+1.08784003028169574 a2_x1
<= 166.799313

a2_local_2: 
+1.19734608056762992 a2_x6
+0.70713748685113864 a2_x2
+1.41415215371054526 a2_x5
<= 129.783223

a2_local_3: 
+1.27621351566961860 a2_x6
+1.05941818949947630 a2_x4
+0.78356794354689818 a2_x5
<= 187.659235

a2_local_4: 
+1.26408441133474336 a2_x3
+0.79108641087038067 a2_x4
+0.91668418827015530 a2_x1
<= 193.362131

a2_local_5: 
+0.87198419583563436 a2_x5
+0.84711582467920155 a2_x4
+1.18047611774776495 a2_x3
<= 195.287760

a2_local_6: 
+0.71387563931575104 a2_x6
+1.40080420864129596 a2_x4
+1.27589176230556056 a2_x3
<= 189.959994

a2_local_7: 
+0.92871378714409647 a2_x6
+0.97454969749439169 a2_x3
+1.07675799998093824 a2_x5
<= 111.062357

a2_local_8: 
+0.78168112142113444 a2_x5
+1.27929404023721505 a2_x3
+1.04273300432338933 a2_x4
<= 130.612004

a2_act_1: 
+0.10000000000000001 a2_x1
-10.00000000000000000 a2_z1
<= 0.000000

a2_act_2: 
+0.10000000000000001 a2_x2
-10.00000000000000000 a2_z2
<= 0.000000

a3_local_1: 
+0.93126784523215711 a3_x4
+1.07380492639119129 a3_x2
+0.94722641192316082 a3_x6
<= 98.044679

a3_local_2: 
+0.91186650051630269 a3_x4
+1.58558686633874757 a3_x6
+0.63068130875042094 a3_x3
<= 116.805121

a3_local_3: 
+1.09498483622458109 a3_x4
+0.91325465606256129 a3_x2
+0.95963247686136777 a3_x3
<= 93.204458

a3_local_4: 
+1.07014660432455599 a3_x2
+1.39394002134971062 a3_x4
+0.71739098145107416 a3_x3
<= 164.955860

a3_local_5: 
+0.90265322112945068 a3_x4
+1.10784515757750635 a3_x6
+0.95875510752175996 a3_x1
<= 111.895866

a3_local_6: 
+0.90638225907679648 a3_x3
+1.05355645056875846 a3_x4
+1.10328726096046781 a3_x1
<= 104.618213

a3_local_7: 
+1.02241018488976709 a3_x4
+0.82643913357730203 a3_x1
+1.21001046461997386 a3_x6
<= 178.266010

a3_local_8: 
+1.00859539514839325 a3_x2
+0.99147785604639960 a3_x3
+0.99814337026916711 a3_x1
<= 116.232827

a3_act_1: 
+0.10000000000000001 a3_x1
-10.00000000000000000 a3_z1
<= 0.000000

a3_act_2: 
+0.10000000000000001 a3_x2
-10.00000000000000000 a3_z2
<= 0.000000

a4_local_1: 
+0.89633879767285585 a4_x1
+1.11564957647295571 a4_x4
+0.98904099682245006 a4_x5
<= 94.340779

a4_local_2: 
+0.92326042774078843 a4_x6
+1.08311801302585087 a4_x2
+1.00301281519550378 a4_x3
<= 117.338260

a4_local_3: 
+1.01295713808790366 a4_x1
+0.98720860182459247 a4_x4
+1.00762777197440667 a4_x5
<= 147.181969

a4_local_4: 
+0.71017452675661286 a4_x2
+1.40810457475436124 a4_x6
+1.32700371764590153 a4_x5
<= 120.320504

a4_local_5: 
+0.84812426917146089 a4_x2
+0.73876325011160304 a4_x5
+1.35361362364591487 a4_x1
<= 159.211268

a4_local_6: 
+0.84123829877085554 a4_x5
+1.18872381519138304 a4_x6
+0.98031800258427515 a4_x4
<= 209.602465

a4_local_7: 
+0.70970419192545464 a4_x1
+1.13979625326221079 a4_x5
+1.40903775316158364 a4_x2
<= 109.529798

a4_local_8: 
+1.01436104398474058 a4_x1
+0.94029390323611650 a4_x6
+1.06349727096857594 a4_x5
<= 149.223657

a4_act_1: 
+0.10000000000000001 a4_x1
-10.00000000000000000 a4_z1
<= 0.000000

a4_act_2: 
+0.10000000000000001 a4_x2
-10.00000000000000000 a4_z2
<= 0.000000

coupling_1: 
+0.00777809663000622 a1_x1
+0.28297534799416796 a2_x1
+6.50341896253781471 a3_x1
+128.56615796494682513 a4_x1
+1.18535777278742205 short_1
-1.18535777278742205 surp_1
= 8043.386622

coupling_2: 
+0.00755884766389762 a1_x2
+0.18757750815237542 a2_x2
+4.17611068659973750 a3_x2
+132.29529744013424875 a4_x2
+1.09681368161947113 short_2
-1.09681368161947113 surp_2
= 5444.587027

coupling_3: 
+0.01286916259935355 a1_x3
+0.21785907196001017 a2_x3
+5.14690441914224373 a3_x3
+77.70513366970997993 a4_x3
+1.38929255486363634 short_3
-1.38929255486363634 surp_3
= 3679.008028

bounds
  0.000000 <= a1_x1 <= 100.000000
  0.000000 <= a1_x2 <= 100.000000
  0.000000 <= a1_x3 <= 100.000000
  0.000000 <= a1_x4 <= 100.000000
  0.000000 <= a1_x5 <= 100.000000
  0.000000 <= a1_x6 <= 100.000000
  0.000000 <= a2_x1 <= 100.000000
  0.000000 <= a2_x2 <= 100.000000
  0.000000 <= a2_x3 <= 100.000000
  0.000000 <= a2_x4 <= 100.000000
  0.000000 <= a2_x5 <= 100.000000
  0.000000 <= a2_x6 <= 100.000000
  0.000000 <= a3_x1 <= 100.000000
  0.000000 <= a3_x2 <= 100.000000
  0.000000 <= a3_x3 <= 100.000000
  0.000000 <= a3_x4 <= 100.000000
  0.000000 <= a3_x5 <= 100.000000
  0.000000 <= a3_x6 <= 100.000000
  0.000000 <= a4_x1 <= 100.000000
  0.000000 <= a4_x2 <= 100.000000
  0.000000 <= a4_x3 <= 100.000000
  0.000000 <= a4_x4 <= 100.000000
  0.000000 <= a4_x5 <= 100.000000
  0.000000 <= a4_x6 <= 100.000000
  0.000000 <= short_1 <= +inf
  0.000000 <= surp_1 <= +inf
  0.000000 <= short_2 <= +inf
  0.000000 <= surp_2 <= +inf
  0.000000 <= short_3 <= +inf
  0.000000 <= surp_3 <= +inf
 0 <= a1_z1 <= 1
 0 <= a1_z2 <= 1
 0 <= a2_z1 <= 1
 0 <= a2_z2 <= 1
 0 <= a3_z1 <= 1
 0 <= a3_z2 <= 1
 0 <= a4_z1 <= 1
 0 <= a4_z2 <= 1

binary
  a1_z1
  a1_z2
  a2_z1
  a2_z2
  a3_z1
  a3_z2
  a4_z1
  a4_z2
end
