min
obj: 
  +4.68205187695116365 a1_x1
  +5.71291625483064269 a1_x2
  +9.00563589084773142 a1_x3
  +9.01724711762336106 a1_x4
  +9.40638568868457803 a1_x5
  +5.77535620951187667 a1_x6
  +36.44079832510822570 a1_z1
  +20.35589591192510284 a1_z2
  +7.59221324303607314 a2_x1
  +9.57055811069523088 a2_x2
  +1.26049992587512483 a2_x3
  +5.39403189015226747 a2_x4
  +5.18163926236740036 a2_x5
  +3.59512023493198285 a2_x6
  +41.62149658815251030 a2_z1
  +8.22405720557796727 a2_z2
  +7.86202629574308798 a3_x1
  +4.44432428569451421 a3_x2
  +6.87835612826100196 a3_x3
  +6.09227189830646143 a3_x4
  +7.96998209317280093 a3_x5
  +3.38862436120579025 a3_x6
  +44.38425278971256915 a3_z1
  +46.43685776379189178 a3_z2
  +5.32725959516227121 a4_x1
  +2.14266889482626155 a4_x2
  +3.71753864038075932 a4_x3
  +7.47528281002840789 a4_x4
  +1.46230104481487744 a4_x5
  +9.33481878718765401 a4_x6
  +27.54992178484519982 a4_z1
  +29.02492698326168252 a4_z2
  +1000000.00000000000000000 short_1
  +1000000.00000000000000000 surp_1
  +1000000.00000000000000000 short_2
  +1000000.00000000000000000 surp_2
  +1000000.00000000000000000 short_3
  +1000000.00000000000000000 surp_3

s.t.

a1_local_1: 
+0.01295758023750051 a1_x4
+0.01060188095637868 a1_x2
+0.00698100765834143 a1_x6
<= 1.339860

a1_local_2: 
+0.01070046655634748 a1_x5
+0.01188089909120491 a1_x4
+0.00531363722835275 a1_x1
<= 1.473657

a1_local_3: 
+0.01251068496014215 a1_x6
+0.00989026338684520 a1_x2
+0.00609199406742069 a1_x1
<= 1.505616

a1_local_4: 
+0.01244542434940060 a1_x5
+0.00823210472182871 a1_x2
+0.01009844083533842 a1_x6
<= 1.115074

a1_local_5: 
+0.01205365072150733 a1_x6
+0.01170806721422342 a1_x2
+0.00610850461328330 a1_x1
<= 1.591428

a1_local_6: 
+0.01246288666851483 a1_x5
+0.00851127791341383 a1_x4
+0.00834686311500774 a1_x2
<= 1.179521

a1_local_7: 
+0.01476175992028154 a1_x1
+0.00866528074602993 a1_x4
+0.01250179503752081 a1_x3
<= 2.331203

a1_local_8: 
+0.00960865377332163 a1_x5
+0.01231479306389708 a1_x6
+0.01178239837155356 a1_x4
<= 1.276725

a1_act_1: 
+1.00000000000000000 a1_x1
-100.00000000000000000 a1_z1
<= 0.000000

a1_act_2: 
+1.00000000000000000 a1_x2
-100.00000000000000000 a1_z2
<= 0.000000

a2_local_1: 
+0.11651745964308745 a2_x3
+0.15698102447829759 a2_x4
+0.22640822766052343 a2_x5
<= 28.501692

a2_local_2: 
+0.16189758467711102 a2_x3
+0.23227582520079390 a2_x2
+0.28554752413043394 a2_x5
<= 42.931297

a2_local_3: 
+0.28008325554158237 a2_x4
+0.29354079405932654 a2_x6
+0.12472454033329508 a2_x5
<= 47.570599

a2_local_4: 
+0.19613442715238791 a2_x1
+0.23012480326455395 a2_x4
+0.28988574214081031 a2_x5
<= 49.729084

a2_local_5: 
+0.18572470737277522 a2_x2
+0.28793535947703408 a2_x5
+0.19995615068369019 a2_x1
<= 22.234465

a2_local_6: 
+0.25910535968748050 a2_x5
+0.19432968481919774 a2_x4
+0.16008429143266378 a2_x3
<= 41.132628

a2_local_7: 
+0.12539266157614043 a2_x3
+0.14230969160046911 a2_x5
+0.12736291289021598 a2_x6
<= 12.702075

a2_local_8: 
+0.22120290528980655 a2_x2
+0.13894960164161968 a2_x6
+0.19263803322689838 a2_x4
<= 34.724147

a2_act_1: 
+1.00000000000000000 a2_x1
-100.00000000000000000 a2_z1
<= 0.000000

a2_act_2: 
+1.00000000000000000 a2_x2
-100.00000000000000000 a2_z2
<= 0.000000

a3_local_1: 
+4.26345242366558441 a3_x2
+6.24139049174952909 a3_x6
+4.95745219987757135 a3_x5
<= 1056.728560

a3_local_2: 
+4.43707720073635414 a3_x4
+6.91091210465649741 a3_x5
+5.09415838682315680 a3_x3
<= 798.032673

a3_local_3: 
+4.03554751320622795 a3_x4
+4.48250690958669207 a3_x5
+3.68299554761944847 a3_x1
<= 689.176292

a3_local_4: 
+6.86682301829397801 a3_x3
+3.24902366528145858 a3_x4
+6.78663789216235536 a3_x5
<= 689.398324

a3_local_5: 
+3.85374002167991891 a3_x5
+3.33305833894317960 a3_x3
+5.43793919439109708 a3_x2
<= 636.780334

a3_local_6: 
+3.07457272291223349 a3_x1
+4.20010285878732859 a3_x3
+4.72217579641313545 a3_x5
<= 643.996349

a3_local_7: 
+2.51005741712020836 a3_x6
+5.10194130190745554 a3_x4
+4.37957934649606884 a3_x1
<= 822.822460

a3_local_8: 
+6.88993504256267730 a3_x4
+5.77289814493773434 a3_x3
+6.49639203222746175 a3_x5
<= 623.354923

a3_act_1: 
+1.00000000000000000 a3_x1
-100.00000000000000000 a3_z1
<= 0.000000

a3_act_2: 
+1.00000000000000000 a3_x2
-100.00000000000000000 a3_z2
<= 0.000000

a4_local_1: 
+89.61025545954282734 a4_x1
+139.06669355693827583 a4_x4
+145.94185742939478700 a4_x6
<= 12817.863989

a4_local_2: 
+128.85433039160659519 a4_x3
+103.03358935906308602 a4_x5
+93.57178363754523787 a4_x2
<= 14762.966482

a4_local_3: 
+132.71102850498562020 a4_x5
+91.02256530232928355 a4_x1
+143.23163774225068323 a4_x3
<= 20715.405654

a4_local_4: 
+133.91259458899514811 a4_x3
+112.19372786962161115 a4_x1
+72.57565645849271618 a4_x5
<= 16517.857488

a4_local_5: 
+97.14772190356477211 a4_x6
+99.66831368253848211 a4_x4
+122.25237943971805521 a4_x2
<= 16736.218079

a4_local_6: 
+112.16032220672143183 a4_x1
+82.44167143630834005 a4_x4
+63.99721452951430933 a4_x5
<= 10649.489392

a4_local_7: 
+134.73484533009843744 a4_x2
+112.57466778863411605 a4_x5
+70.49312297263490734 a4_x4
<= 12490.055316

a4_local_8: 
+79.81739669844904483 a4_x5
+60.89388128920988663 a4_x6
+93.05256520589254876 a4_x2
<= 13537.218627

a4_act_1: 
+1.00000000000000000 a4_x1
-100.00000000000000000 a4_z1
<= 0.000000

a4_act_2: 
+1.00000000000000000 a4_x2
-100.00000000000000000 a4_z2
<= 0.000000

coupling_1: 
+1334.87151087023266882 a1_x1
+38170.74919668964139419 a2_x1
+365752.72857480036327615 a3_x1
+14410174.62237672880291939 a4_x1
+135730.35749204750754870 short_1
-135730.35749204750754870 surp_1
= 362797407.650150

coupling_2: 
+0.04835434557709803 a1_x2
+1.03877485733340991 a2_x2
+21.13962356833242850 a3_x2
+521.80958519313458055 a4_x2
+3.55978733688330884 short_2
-3.55978733688330884 surp_2
= 41868.702374

coupling_3: 
+0.00002274664961726 a1_x3
+0.00046339534788493 a2_x3
+0.01197789330899111 a3_x3
+0.22851933431356547 a4_x3
+0.00356134804176463 short_3
-0.00356134804176463 surp_3
= 9.332844

bounds
  0.000000 <= a1_x1 <= 100.000000
  0.000000 <= a1_x2 <= 100.000000
  0.000000 <= a1_x3 <= 100.000000
  0.000000 <= a1_x4 <= 100.000000
  0.000000 <= a1_x5 <= 100.000000
  0.000000 <= a1_x6 <= 100.000000
  0.000000 <= a2_x1 <= 100.000000
  0.000000 <= a2_x2 <= 100.000000
  0.000000 <= a2_x3 <= 100.000000
  0.000000 <= a2_x4 <= 100.000000
  0.000000 <= a2_x5 <= 100.000000
  0.000000 <= a2_x6 <= 100.000000
  0.000000 <= a3_x1 <= 100.000000
  0.000000 <= a3_x2 <= 100.000000
  0.000000 <= a3_x3 <= 100.000000
  0.000000 <= a3_x4 <= 100.000000
  0.000000 <= a3_x5 <= 100.000000
  0.000000 <= a3_x6 <= 100.000000
  0.000000 <= a4_x1 <= 100.000000
  0.000000 <= a4_x2 <= 100.000000
  0.000000 <= a4_x3 <= 100.000000
  0.000000 <= a4_x4 <= 100.000000
  0.000000 <= a4_x5 <= 100.000000
  0.000000 <= a4_x6 <= 100.000000
  0.000000 <= short_1 <= +inf
  0.000000 <= surp_1 <= +inf
  0.000000 <= short_2 <= +inf
  0.000000 <= surp_2 <= +inf
  0.000000 <= short_3 <= +inf
  0.000000 <= surp_3 <= +inf
 0 <= a1_z1 <= 1
 0 <= a1_z2 <= 1
 0 <= a2_z1 <= 1
 0 <= a2_z2 <= 1
 0 <= a3_z1 <= 1
 0 <= a3_z2 <= 1
 0 <= a4_z1 <= 1
 0 <= a4_z2 <= 1

binary
  a1_z1
  a1_z2
  a2_z1
  a2_z2
  a3_z1
  a3_z2
  a4_z1
  a4_z2
end
