min
obj: 
  +3.05711040055168581 a1_x1
  +8.05560131874530505 a1_x2
  +1.97423451738110156 a1_x3
  +4.43855917145081946 a1_x4
  +2.09177435273224699 a1_x5
  +8.36067334918018190 a1_x6
  +15.66642560195388789 a1_z1
  +12.32473257168471292 a1_z2
  +9.22293190738236213 a2_x1
  +7.63381403352449350 a2_x2
  +9.96116936913966633 a2_x3
  +9.94077753687388643 a2_x4
  +8.29981383037531018 a2_x5
  +5.15933962158974069 a2_x6
  +11.18650581061075044 a2_z1
  +36.51341922859109701 a2_z2
  +6.07766745897419902 a3_x1
  +8.77356431574039775 a3_x2
  +3.66477499322525757 a3_x3
  +8.98940674965133013 a3_x4
  +1.83133745097963319 a3_x5
  +5.96614000496332153 a3_x6
  +11.77177519345455892 a3_z1
  +18.83602233642604062 a3_z2
  +3.57390445949198776 a4_x1
  +7.85154573325681415 a4_x2
  +9.06414056673653157 a4_x3
  +3.88034584638911362 a4_x4
  +5.56052955494331336 a4_x5
  +7.24881590451171665 a4_x6
  +49.90852608237385368 a4_z1
  +15.56555023854576802 a4_z2
  +1000000.00000000000000000 short_1
  +1000000.00000000000000000 surp_1
  +1000000.00000000000000000 short_2
  +1000000.00000000000000000 surp_2
  +1000000.00000000000000000 short_3
  +1000000.00000000000000000 surp_3

s.t.

a1_local_1: 
+0.00827811452543594 a1_x5
+0.01362545069983316 a1_x1
+0.00573559980764856 a1_x6
<= 1.081286

a1_local_2: 
+0.01121370975973229 a1_x6
+0.00552156261865570 a1_x4
+0.01101458929667781 a1_x1
<= 1.343687

a1_local_3: 
+0.00638465591592214 a1_x3
+0.00866286930245066 a1_x1
+0.01161065462493574 a1_x2
<= 0.817164

a1_local_4: 
+0.00511571635236631 a1_x4
+0.00519869877923159 a1_x5
+0.01258156184161904 a1_x2
<= 1.598815

a1_local_5: 
+0.01467088820915418 a1_x4
+0.01285315092502223 a1_x1
+0.01165216019819673 a1_x2
<= 1.764675

a1_local_6: 
+0.00885921503216556 a1_x4
+0.00747513572271229 a1_x2
+0.01052493658154783 a1_x6
<= 0.947800

a1_local_7: 
+0.00941737182965709 a1_x3
+0.00777087031047569 a1_x5
+0.01472051543132147 a1_x6
<= 1.078501

a1_local_8: 
+0.00560649922721815 a1_x4
+0.00733833719167406 a1_x6
+0.00999165571911060 a1_x3
<= 0.712644

a1_act_1: 
+1.00000000000000000 a1_x1
-100.00000000000000000 a1_z1
<= 0.000000

a1_act_2: 
+1.00000000000000000 a1_x2
-100.00000000000000000 a1_z2
<= 0.000000

a2_local_1: 
+0.20436290719193509 a2_x3
+0.12438371508038815 a2_x4
+0.15882604960805602 a2_x1
<= 21.525886

a2_local_2: 
+0.31993862625276109 a2_x5
+0.31087503384130694 a2_x1
+0.13174846762325290 a2_x6
<= 50.037141

a2_local_3: 
+0.11090445887543587 a2_x1
+0.28454541512070847 a2_x5
+0.31264525051260073 a2_x3
<= 43.117711

a2_local_4: 
+0.26033294739255264 a2_x2
+0.28230427538412667 a2_x5
+0.29343176046026076 a2_x3
<= 50.728553

a2_local_5: 
+0.18483484506521319 a2_x5
+0.15946831748310236 a2_x6
+0.12638454045678918 a2_x4
<= 16.300659

a2_local_6: 
+0.28495367441406233 a2_x4
+0.16624524888694245 a2_x5
+0.13219225462483111 a2_x1
<= 36.427221

a2_local_7: 
+0.21215724857406335 a2_x4
+0.20069797212248824 a2_x5
+0.28766703175409564 a2_x1
<= 34.140210

a2_local_8: 
+0.21526298720691248 a2_x4
+0.30446679216388128 a2_x2
+0.25097682618266642 a2_x6
<= 34.060410

a2_act_1: 
+1.00000000000000000 a2_x1
-100.00000000000000000 a2_z1
<= 0.000000

a2_act_2: 
+1.00000000000000000 a2_x2
-100.00000000000000000 a2_z2
<= 0.000000

a3_local_1: 
+2.52501587376489312 a3_x3
+4.93559606209962620 a3_x1
+3.36467277936973286 a3_x2
<= 478.587347

a3_local_2: 
+3.48206402149317995 a3_x1
+5.02849082826790905 a3_x3
+4.14777323661842257 a3_x2
<= 735.936077

a3_local_3: 
+3.98482137097979106 a3_x4
+2.91522035303395910 a3_x5
+2.73463709759169848 a3_x1
<= 598.019597

a3_local_4: 
+4.55359601073624987 a3_x4
+4.40359895397904211 a3_x5
+2.94989978564400968 a3_x2
<= 749.358770

a3_local_5: 
+2.99277811923701531 a3_x6
+4.20986164913064087 a3_x3
+4.83479770682327104 a3_x2
<= 518.105833

a3_local_6: 
+3.84719572404946897 a3_x3
+6.62409175898054947 a3_x4
+6.32744993705301173 a3_x5
<= 1037.085770

a3_local_7: 
+2.49279915719059542 a3_x6
+4.66352470578116840 a3_x2
+5.26934108302271476 a3_x3
<= 606.744561

a3_local_8: 
+2.60594458035491794 a3_x5
+3.34226041486157621 a3_x3
+4.56848269903464299 a3_x4
<= 479.599123

a3_act_1: 
+1.00000000000000000 a3_x1
-100.00000000000000000 a3_z1
<= 0.000000

a3_act_2: 
+1.00000000000000000 a3_x2
-100.00000000000000000 a3_z2
<= 0.000000

a4_local_1: 
+87.29252789261350642 a4_x2
+123.83584975054557731 a4_x5
+68.51911352298760960 a4_x1
<= 14157.369669

a4_local_2: 
+120.34888846563723064 a4_x2
+104.90621161313686116 a4_x6
+132.64710779025386955 a4_x3
<= 23431.409837

a4_local_3: 
+139.30050684541751593 a4_x5
+116.45687589596207090 a4_x2
+77.94806674183564610 a4_x1
<= 16903.722457

a4_local_4: 
+105.73190694235377407 a4_x6
+102.86649802573926138 a4_x4
+59.31838952099263196 a4_x2
<= 14249.134472

a4_local_5: 
+79.82451352358019392 a4_x6
+127.78799314134303700 a4_x4
+65.29177869471625684 a4_x1
<= 12109.708259

a4_local_6: 
+128.42606703765360976 a4_x5
+51.63611996220654987 a4_x2
+144.64758391664565806 a4_x3
<= 10168.516045

a4_local_7: 
+135.72531138729868871 a4_x6
+126.69083770121946486 a4_x2
+92.64630531654951540 a4_x3
<= 19022.389518

a4_local_8: 
+62.73322485948929739 a4_x3
+107.87766288911373636 a4_x2
+115.23808916613349140 a4_x1
<= 13124.866803

a4_act_1: 
+1.00000000000000000 a4_x1
-100.00000000000000000 a4_z1
<= 0.000000

a4_act_2: 
+1.00000000000000000 a4_x2
-100.00000000000000000 a4_z2
<= 0.000000

coupling_1: 
+30.95212139313627375 a1_x1
+819.96854717697965498 a2_x1
+31736.86467434935548226 a3_x1
+595311.43601669487543404 a4_x1
+4911.42902482748286275 short_1
-4911.42902482748286275 surp_1
= 23626674.229525

coupling_2: 
+0.01778689249387884 a1_x2
+0.19841831059607362 a2_x2
+8.13978926509905243 a3_x2
+106.37321720431565097 a4_x2
+1.33021822756773989 short_2
-1.33021822756773989 surp_2
= 8999.706044

coupling_3: 
+319.30091153955976324 a1_x3
+9768.30817627399119374 a2_x3
+297557.00986290193395689 a3_x3
+5208053.38368561770766973 a4_x3
+43811.14593059819890186 short_3
-43811.14593059819890186 surp_3
= 186951175.443672

bounds
  0.000000 <= a1_x1 <= 100.000000
  0.000000 <= a1_x2 <= 100.000000
  0.000000 <= a1_x3 <= 100.000000
  0.000000 <= a1_x4 <= 100.000000
  0.000000 <= a1_x5 <= 100.000000
  0.000000 <= a1_x6 <= 100.000000
  0.000000 <= a2_x1 <= 100.000000
  0.000000 <= a2_x2 <= 100.000000
  0.000000 <= a2_x3 <= 100.000000
  0.000000 <= a2_x4 <= 100.000000
  0.000000 <= a2_x5 <= 100.000000
  0.000000 <= a2_x6 <= 100.000000
  0.000000 <= a3_x1 <= 100.000000
  0.000000 <= a3_x2 <= 100.000000
  0.000000 <= a3_x3 <= 100.000000
  0.000000 <= a3_x4 <= 100.000000
  0.000000 <= a3_x5 <= 100.000000
  0.000000 <= a3_x6 <= 100.000000
  0.000000 <= a4_x1 <= 100.000000
  0.000000 <= a4_x2 <= 100.000000
  0.000000 <= a4_x3 <= 100.000000
  0.000000 <= a4_x4 <= 100.000000
  0.000000 <= a4_x5 <= 100.000000
  0.000000 <= a4_x6 <= 100.000000
  0.000000 <= short_1 <= +inf
  0.000000 <= surp_1 <= +inf
  0.000000 <= short_2 <= +inf
  0.000000 <= surp_2 <= +inf
  0.000000 <= short_3 <= +inf
  0.000000 <= surp_3 <= +inf
 0 <= a1_z1 <= 1
 0 <= a1_z2 <= 1
 0 <= a2_z1 <= 1
 0 <= a2_z2 <= 1
 0 <= a3_z1 <= 1
 0 <= a3_z2 <= 1
 0 <= a4_z1 <= 1
 0 <= a4_z2 <= 1

binary
  a1_z1
  a1_z2
  a2_z1
  a2_z2
  a3_z1
  a3_z2
  a4_z1
  a4_z2
end
