min
obj: 
  +1.57709742578195788 a1_x1
  +5.24362332399284625 a1_x2
  +8.06959664561268042 a1_x3
  +3.47810228856863679 a1_x4
  +9.41205830682384104 a1_x5
  +8.31656886029670339 a1_x6
  +34.00140095985545230 a1_z1
  +10.41050343041974102 a1_z2
  +7.41825931722322895 a2_x1
  +8.28066141375753872 a2_x2
  +6.06494311381576523 a2_x3
  +8.65417661359723311 a2_x4
  +4.32929045080204133 a2_x5
  +7.27024404204758401 a2_x6
  +22.65925838872017550 a2_z1
  +14.32924585982750010 a2_z2
  +6.57062993093993875 a3_x1
  +3.46672163395224064 a3_x2
  +8.73068689063360637 a3_x3
  +5.78731633243780319 a3_x4
  +5.65993509091970015 a3_x5
  +4.88699203046912878 a3_x6
  +21.67833706752954370 a3_z1
  +5.90058593924896702 a3_z2
  +6.06162452349797132 a4_x1
  +4.52735162287015491 a4_x2
  +9.79326185053260900 a4_x3
  +5.17425215108361947 a4_x4
  +5.44899982766291835 a4_x5
  +4.65504731238401082 a4_x6
  +25.90789863548987526 a4_z1
  +20.49298729783527051 a4_z2
  +1000000.00000000000000000 short_1
  +1000000.00000000000000000 surp_1
  +1000000.00000000000000000 short_2
  +1000000.00000000000000000 surp_2
  +1000000.00000000000000000 short_3
  +1000000.00000000000000000 surp_3

s.t.

a1_local_1: 
+1.25251728369794457 a1_x1
+1.28047475064471095 a1_x6
+0.78096034263581249 a1_x5
<= 174.324198

a1_local_2: 
+1.01439852759066107 a1_x5
+1.34655852345926541 a1_x2
+0.74263389416676251 a1_x4
<= 206.295860

a1_local_3: 
+1.11502623382397603 a1_x4
+1.20146166843029123 a1_x2
+0.83231952069390536 a1_x6
<= 160.013643

a1_local_4: 
+0.86562711615788279 a1_x3
+0.72180867815834371 a1_x4
+1.38540866888916669 a1_x1
<= 205.199583

a1_local_5: 
+0.71489685301351280 a1_x4
+1.06212807756660244 a1_x6
+1.39880319207545623 a1_x3
<= 216.530916

a1_local_6: 
+1.35437043018309833 a1_x2
+1.01524867116249506 a1_x4
+0.73835043774900577 a1_x3
<= 137.813208

a1_local_7: 
+0.80412196758250176 a1_x2
+0.66194989686676664 a1_x4
+1.51068835380644195 a1_x3
<= 116.026119

a1_local_8: 
+0.77556941176978278 a1_x6
+1.00353997729264699 a1_x4
+1.28937524459362796 a1_x3
<= 157.647097

a1_act_1: 
+0.10000000000000001 a1_x1
-10.00000000000000000 a1_z1
<= 0.000000

a1_act_2: 
+0.10000000000000001 a1_x2
-10.00000000000000000 a1_z2
<= 0.000000

a2_local_1: 
+0.78316029972216328 a2_x1
+0.73716610651001824 a2_x3
+1.35654636203273360 a2_x6
<= 167.293225

a2_local_2: 
+0.66420568852408501 a2_x2
+1.50555771695071594 a2_x3
+1.13804266773825202 a2_x5
<= 125.935144

a2_local_3: 
+1.05265180923714752 a2_x6
+1.05272973026523453 a2_x5
+0.94991142669453332 a2_x1
<= 155.832798

a2_local_4: 
+1.55489262502666703 a2_x6
+0.64313122585094873 a2_x4
+1.44700712252029007 a2_x2
<= 195.864049

a2_local_5: 
+0.99596621844909150 a2_x1
+0.83638838772266200 a2_x2
+1.19561679081033545 a2_x3
<= 181.900447

a2_local_6: 
+1.36575718210537089 a2_x4
+0.73219457536255372 a2_x6
+0.86553422277625203 a2_x1
<= 143.403328

a2_local_7: 
+0.81285224979467574 a2_x5
+1.24158289426316792 a2_x1
+0.80542346759171624 a2_x6
<= 189.446406

a2_local_8: 
+0.84257420294121366 a2_x1
+0.97244211947817594 a2_x2
+1.18683908967216500 a2_x6
<= 121.797262

a2_act_1: 
+0.10000000000000001 a2_x1
-10.00000000000000000 a2_z1
<= 0.000000

a2_act_2: 
+0.10000000000000001 a2_x2
-10.00000000000000000 a2_z2
<= 0.000000

a3_local_1: 
+1.04959112644269603 a3_x2
+1.20823698829774107 a3_x4
+0.82765219877010909 a3_x6
<= 113.573955

a3_local_2: 
+1.54630433912633181 a3_x2
+0.70076567844565218 a3_x4
+0.64670322309578743 a3_x6
<= 180.698961

a3_local_3: 
+0.80783852159737746 a3_x6
+1.23787115031683870 a3_x3
+0.94971067697734635 a3_x2
<= 186.027773

a3_local_4: 
+1.44029399624887700 a3_x3
+1.49242528351795589 a3_x2
+0.67005029400385974 a3_x5
<= 177.265131

a3_local_5: 
+1.46221094418678654 a3_x4
+1.32218049883523148 a3_x2
+0.68389585235675643 a3_x6
<= 115.790518

a3_local_6: 
+0.82686574015006709 a3_x3
+1.20938618138721155 a3_x5
+1.17657948331007289 a3_x1
<= 161.066093

a3_local_7: 
+0.80466499375644929 a3_x2
+1.28337727311558547 a3_x3
+0.77919410055653737 a3_x5
<= 107.913639

a3_local_8: 
+0.95082404318212954 a3_x2
+0.78118964058423690 a3_x5
+1.28009890050784469 a3_x3
<= 148.014328

a3_act_1: 
+0.10000000000000001 a3_x1
-10.00000000000000000 a3_z1
<= 0.000000

a3_act_2: 
+0.10000000000000001 a3_x2
-10.00000000000000000 a3_z2
<= 0.000000

a4_local_1: 
+0.62341560719084987 a4_x4
+1.60406635391446728 a4_x5
+0.83975654015966350 a4_x1
<= 120.264563

a4_local_2: 
+0.71281992914983450 a4_x6
+1.40287884654498796 a4_x4
+0.75048723574986875 a4_x1
<= 180.628876

a4_local_3: 
+1.13109705435262309 a4_x1
+0.88933429642485795 a4_x3
+0.88409743103110128 a4_x4
<= 178.489612

a4_local_4: 
+1.05785108301736197 a4_x3
+1.04534153605706970 a4_x6
+0.94531263998676407 a4_x5
<= 205.712253

a4_local_5: 
+1.47139942673364210 a4_x4
+1.19749454838342251 a4_x5
+0.67962511187047214 a4_x6
<= 163.340609

a4_local_6: 
+0.85324394562225336 a4_x5
+1.15944258203201866 a4_x3
+1.17199776820065282 a4_x2
<= 184.231764

a4_local_7: 
+0.83018279602318390 a4_x6
+0.64176927340222023 a4_x3
+1.55819239319247327 a4_x4
<= 97.928873

a4_local_8: 
+0.79669556493233529 a4_x6
+1.06262008808528585 a4_x4
+1.25518459499009749 a4_x1
<= 128.359685

a4_act_1: 
+0.10000000000000001 a4_x1
-10.00000000000000000 a4_z1
<= 0.000000

a4_act_2: 
+0.10000000000000001 a4_x2
-10.00000000000000000 a4_z2
<= 0.000000

coupling_1: 
+0.01058796177399987 a1_x1
+0.18792412713816578 a2_x1
+2.93821933501164612 a3_x1
+94.44688423938507071 a4_x1
+0.84137909034871672 short_1
-0.84137909034871672 surp_1
= 6882.057358

coupling_2: 
+0.00864680461987767 a1_x2
+0.16079716781054049 a2_x2
+5.22611228197031430 a3_x2
+115.64965833750360957 a4_x2
+0.97983451253548548 short_2
-0.97983451253548548 surp_2
= 8139.481020

coupling_3: 
+0.00901878922192494 a1_x3
+0.21691748435216496 a2_x3
+3.73355322630025466 a3_x3
+110.87962867221362728 a4_x3
+1.09038588472858700 short_3
-1.09038588472858700 surp_3
= 7554.338130

bounds
  0.000000 <= a1_x1 <= 100.000000
  0.000000 <= a1_x2 <= 100.000000
  0.000000 <= a1_x3 <= 100.000000
  0.000000 <= a1_x4 <= 100.000000
  0.000000 <= a1_x5 <= 100.000000
  0.000000 <= a1_x6 <= 100.000000
  0.000000 <= a2_x1 <= 100.000000
  0.000000 <= a2_x2 <= 100.000000
  0.000000 <= a2_x3 <= 100.000000
  0.000000 <= a2_x4 <= 100.000000
  0.000000 <= a2_x5 <= 100.000000
  0.000000 <= a2_x6 <= 100.000000
  0.000000 <= a3_x1 <= 100.000000
  0.000000 <= a3_x2 <= 100.000000
  0.000000 <= a3_x3 <= 100.000000
  0.000000 <= a3_x4 <= 100.000000
  0.000000 <= a3_x5 <= 100.000000
  0.000000 <= a3_x6 <= 100.000000
  0.000000 <= a4_x1 <= 100.000000
  0.000000 <= a4_x2 <= 100.000000
  0.000000 <= a4_x3 <= 100.000000
  0.000000 <= a4_x4 <= 100.000000
  0.000000 <= a4_x5 <= 100.000000
  0.000000 <= a4_x6 <= 100.000000
  0.000000 <= short_1 <= +inf
  0.000000 <= surp_1 <= +inf
  0.000000 <= short_2 <= +inf
  0.000000 <= surp_2 <= +inf
  0.000000 <= short_3 <= +inf
  0.000000 <= surp_3 <= +inf
 0 <= a1_z1 <= 1
 0 <= a1_z2 <= 1
 0 <= a2_z1 <= 1
 0 <= a2_z2 <= 1
 0 <= a3_z1 <= 1
 0 <= a3_z2 <= 1
 0 <= a4_z1 <= 1
 0 <= a4_z2 <= 1

binary
  a1_z1
  a1_z2
  a2_z1
  a2_z2
  a3_z1
  a3_z2
  a4_z1
  a4_z2
end
