min
obj: 
  +9.92789069156587445 a1_x1
  +4.10293210566149646 a1_x2
  +3.32901181929639423 a1_x3
  +9.10176472428019245 a1_x4
  +1.02767819950250816 a1_x5
  +7.50152284301075145 a1_x6
  +48.47610588570461232 a1_z1
  +46.46239370281180214 a1_z2
  +6.93758052846583873 a2_x1
  +8.73612443817434503 a2_x2
  +2.04228756855595339 a2_x3
  +7.91416373752481395 a2_x4
  +8.85104976446995906 a2_x5
  +5.35890260317347789 a2_x6
  +22.32551298055883748 a2_z1
  +43.59910462783197715 a2_z2
  +2.44474458582316245 a3_x1
  +8.77121756982191414 a3_x2
  +5.76281450528001393 a3_x3
  +8.52709380603204359 a3_x4
  +1.13892657158295396 a3_x5
  +2.91144295006929399 a3_x6
  +15.13786411581276603 a3_z1
  +21.64888772902043002 a3_z2
  +4.31354625098332889 a4_x1
  +3.73746776663401503 a4_x2
  +6.30470396079639350 a4_x3
  +7.23244248154489888 a4_x4
  +3.53129435828251648 a4_x5
  +2.19432544763669313 a4_x6
  +13.98335585286305616 a4_z1
  +25.76781967633817416 a4_z2
  +1000000.00000000000000000 short_1
  +1000000.00000000000000000 surp_1
  +1000000.00000000000000000 short_2
  +1000000.00000000000000000 surp_2
  +1000000.00000000000000000 short_3
  +1000000.00000000000000000 surp_3

s.t.

a1_local_1: 
+0.01113450407483421 a1_x4
+0.01082867772376031 a1_x6
+0.00754232025463794 a1_x1
<= 1.176423

a1_local_2: 
+0.00729817776992190 a1_x4
+0.00633013057214563 a1_x3
+0.00761050040015300 a1_x5
<= 1.071294

a1_local_3: 
+0.00775215779892074 a1_x4
+0.00973223732128383 a1_x3
+0.01354047148240749 a1_x2
<= 1.669393

a1_local_4: 
+0.00896241774487949 a1_x4
+0.01130554173984524 a1_x5
+0.00618344281528857 a1_x2
<= 1.732911

a1_local_5: 
+0.01307723735060204 a1_x2
+0.00561907335720915 a1_x1
+0.01165113428004809 a1_x6
<= 1.528958

a1_local_6: 
+0.00591821751071691 a1_x3
+0.01199930555273783 a1_x5
+0.00961660512662731 a1_x4
<= 1.886226

a1_local_7: 
+0.00662329051629968 a1_x6
+0.00736146849314686 a1_x4
+0.01246972154874555 a1_x3
<= 0.886603

a1_local_8: 
+0.01414142626926242 a1_x1
+0.00774471656744644 a1_x3
+0.01272287882671068 a1_x4
<= 2.105567

a1_act_1: 
+1.00000000000000000 a1_x1
-100.00000000000000000 a1_z1
<= 0.000000

a1_act_2: 
+1.00000000000000000 a1_x2
-100.00000000000000000 a1_z2
<= 0.000000

a2_local_1: 
+0.17470214193228770 a2_x3
+0.16874020838000170 a2_x1
+0.30884531729752479 a2_x6
<= 39.231688

a2_local_2: 
+0.17698502415892864 a2_x4
+0.31597937776604895 a2_x1
+0.28073068559749037 a2_x5
<= 27.203119

a2_local_3: 
+0.11171551526477647 a2_x2
+0.26349264713258014 a2_x5
+0.30310866986429025 a2_x1
<= 35.013352

a2_local_4: 
+0.21640498885506507 a2_x2
+0.20896819223075633 a2_x1
+0.18658336937596309 a2_x4
<= 34.083550

a2_local_5: 
+0.22169912829315860 a2_x4
+0.29762725754513503 a2_x5
+0.30611506670066568 a2_x2
<= 32.015793

a2_local_6: 
+0.22956956679581378 a2_x1
+0.26579963088221581 a2_x2
+0.17387445727152168 a2_x3
<= 43.720042

a2_local_7: 
+0.23712958769306847 a2_x1
+0.26770820138656631 a2_x2
+0.31743168201174288 a2_x4
<= 52.494582

a2_local_8: 
+0.13700566857861160 a2_x6
+0.31867571784930876 a2_x3
+0.26463879408644442 a2_x5
<= 32.430480

a2_act_1: 
+1.00000000000000000 a2_x1
-100.00000000000000000 a2_z1
<= 0.000000

a2_act_2: 
+1.00000000000000000 a2_x2
-100.00000000000000000 a2_z2
<= 0.000000

a3_local_1: 
+6.47662370091694406 a3_x4
+2.49506283073924884 a3_x6
+6.61195248636352506 a3_x3
<= 667.741588

a3_local_2: 
+5.73209279201685629 a3_x6
+5.65359107305931197 a3_x4
+5.00507195216197598 a3_x3
<= 654.006542

a3_local_3: 
+4.47990843570242347 a3_x2
+3.27498298765116225 a3_x1
+3.57926761762390466 a3_x4
<= 521.963250

a3_local_4: 
+2.34001851385149306 a3_x5
+2.51477844293850961 a3_x3
+4.34117093935748866 a3_x2
<= 534.922122

a3_local_5: 
+2.43619435148587682 a3_x1
+3.30833410208874446 a3_x2
+6.39207882245977110 a3_x5
<= 422.591258

a3_local_6: 
+4.35742916077224152 a3_x6
+3.72968140911799040 a3_x4
+3.35488206243248932 a3_x2
<= 671.130044

a3_local_7: 
+5.03256541862208095 a3_x2
+3.09066258498475177 a3_x3
+2.58147548949218297 a3_x5
<= 560.007178

a3_local_8: 
+2.73523711282291027 a3_x5
+3.66397195434255352 a3_x2
+6.60179621726092680 a3_x3
<= 741.003175

a3_act_1: 
+1.00000000000000000 a3_x1
-100.00000000000000000 a3_z1
<= 0.000000

a3_act_2: 
+1.00000000000000000 a3_x2
-100.00000000000000000 a3_z2
<= 0.000000

a4_local_1: 
+68.55646586634561856 a4_x1
+138.62282819263990064 a4_x4
+104.78162595376589650 a4_x6
<= 13392.807256

a4_local_2: 
+136.47334170554989896 a4_x6
+136.27381719005083482 a4_x3
+108.77655395092409663 a4_x4
<= 25519.209697

a4_local_3: 
+73.52403358637590713 a4_x1
+139.21278594327404221 a4_x2
+59.59822075729853452 a4_x5
<= 9587.041756

a4_local_4: 
+130.32955764842242274 a4_x4
+108.53606089393620948 a4_x5
+124.30817034139248278 a4_x1
<= 13225.953100

a4_local_5: 
+56.41693173622994806 a4_x4
+123.70642344216275887 a4_x6
+84.92401140349366528 a4_x2
<= 18050.085955

a4_local_6: 
+137.64657945147632745 a4_x6
+126.61144102702735381 a4_x2
+92.87661640990624790 a4_x3
<= 18039.831564

a4_local_7: 
+139.35486177297295285 a4_x6
+122.47874733283086357 a4_x3
+62.22046059340563318 a4_x4
<= 20172.021435

a4_local_8: 
+120.98890439555181331 a4_x2
+118.93236725313536795 a4_x4
+136.94514832131369531 a4_x3
<= 17136.182068

a4_act_1: 
+1.00000000000000000 a4_x1
-100.00000000000000000 a4_z1
<= 0.000000

a4_act_2: 
+1.00000000000000000 a4_x2
-100.00000000000000000 a4_z2
<= 0.000000

coupling_1: 
+0.00024551504481960 a1_x1
+0.00308746441267622 a2_x1
+0.11321962304990028 a3_x1
+0.98131950505780985 a4_x1
+0.01861423724644573 short_1
-0.01861423724644573 surp_1
= 48.830603

coupling_2: 
+0.00037792007999763 a1_x2
+0.01363932540001111 a2_x2
+0.19236893033057101 a3_x2
+4.17051627801631675 a4_x2
+0.05815363415529494 short_2
-0.05815363415529494 surp_2
= 207.180573

coupling_3: 
+0.00314542520732091 a1_x3
+0.03226541672377508 a2_x3
+1.02587037005054516 a3_x3
+22.70875633841123431 a4_x3
+0.28041596501854932 short_3
-0.28041596501854932 surp_3
= 1604.069731

bounds
  0.000000 <= a1_x1 <= 100.000000
  0.000000 <= a1_x2 <= 100.000000
  0.000000 <= a1_x3 <= 100.000000
  0.000000 <= a1_x4 <= 100.000000
  0.000000 <= a1_x5 <= 100.000000
  0.000000 <= a1_x6 <= 100.000000
  0.000000 <= a2_x1 <= 100.000000
  0.000000 <= a2_x2 <= 100.000000
  0.000000 <= a2_x3 <= 100.000000
  0.000000 <= a2_x4 <= 100.000000
  0.000000 <= a2_x5 <= 100.000000
  0.000000 <= a2_x6 <= 100.000000
  0.000000 <= a3_x1 <= 100.000000
  0.000000 <= a3_x2 <= 100.000000
  0.000000 <= a3_x3 <= 100.000000
  0.000000 <= a3_x4 <= 100.000000
  0.000000 <= a3_x5 <= 100.000000
  0.000000 <= a3_x6 <= 100.000000
  0.000000 <= a4_x1 <= 100.000000
  0.000000 <= a4_x2 <= 100.000000
  0.000000 <= a4_x3 <= 100.000000
  0.000000 <= a4_x4 <= 100.000000
  0.000000 <= a4_x5 <= 100.000000
  0.000000 <= a4_x6 <= 100.000000
  0.000000 <= short_1 <= +inf
  0.000000 <= surp_1 <= +inf
  0.000000 <= short_2 <= +inf
  0.000000 <= surp_2 <= +inf
  0.000000 <= short_3 <= +inf
  0.000000 <= surp_3 <= +inf
 0 <= a1_z1 <= 1
 0 <= a1_z2 <= 1
 0 <= a2_z1 <= 1
 0 <= a2_z2 <= 1
 0 <= a3_z1 <= 1
 0 <= a3_z2 <= 1
 0 <= a4_z1 <= 1
 0 <= a4_z2 <= 1

binary
  a1_z1
  a1_z2
  a2_z1
  a2_z2
  a3_z1
  a3_z2
  a4_z1
  a4_z2
end
