min
obj: 
  +1.85914319529187777 a1_x1
  +3.32311090405199927 a1_x2
  +9.20870591814637862 a1_x3
  +9.62032466035919853 a1_x4
  +2.65221673698665317 a1_x5
  +9.19424318038364063 a1_x6
  +15.23159126469524693 a1_z1
  +37.87053616888882601 a1_z2
  +9.50992409015265672 a2_x1
  +7.57539983332453648 a2_x2
  +7.25458697589536605 a2_x3
  +4.07761765395989872 a2_x4
  +7.08231795774132511 a2_x5
  +8.34807126494008500 a2_x6
  +13.29578844905750223 a2_z1
  +34.63921833196101829 a2_z2
  +8.76504266892960793 a3_x1
  +7.77977201232387294 a3_x2
  +6.04838547653606717 a3_x3
  +6.48681552366104786 a3_x4
  +7.59141867997845843 a3_x5
  +2.66707871930021945 a3_x6
  +17.07642873173313092 a3_z1
  +32.16693189471635606 a3_z2
  +3.95786841150633606 a4_x1
  +4.77265222387028487 a4_x2
  +6.62265288598760282 a4_x3
  +9.50730455200969438 a4_x4
  +5.10859874083684673 a4_x5
  +6.19908634988090146 a4_x6
  +14.10084107909216655 a4_z1
  +36.13532285979064795 a4_z2
  +1000000.00000000000000000 short_1
  +1000000.00000000000000000 surp_1
  +1000000.00000000000000000 short_2
  +1000000.00000000000000000 surp_2
  +1000000.00000000000000000 short_3
  +1000000.00000000000000000 surp_3

s.t.

a1_local_1: 
+1.18663059751256639 a1_x5
+0.84272224405490270 a1_x4
+1.13850953885975370 a1_x3
<= 113.089468

a1_local_2: 
+1.21290375604193224 a1_x2
+0.82446772468023277 a1_x4
+0.94047146436761953 a1_x3
<= 200.526359

a1_local_3: 
+1.18925953027628895 a1_x1
+0.70624019261684512 a1_x6
+1.41594886619902072 a1_x3
<= 137.364848

a1_local_4: 
+0.97107579677322953 a1_x3
+0.97039826357777592 a1_x6
+1.03050472938099147 a1_x5
<= 177.037267

a1_local_5: 
+1.04489827236373634 a1_x2
+1.01999762953961315 a1_x3
+0.95703096315570602 a1_x5
<= 100.432314

a1_local_6: 
+0.95322638536518678 a1_x4
+1.04906873682152013 a1_x3
+0.96257655513364349 a1_x2
<= 193.709001

a1_local_7: 
+1.10229725778337206 a1_x6
+1.11267016811752928 a1_x4
+0.89873893329219900 a1_x5
<= 207.952689

a1_local_8: 
+1.02754704685920806 a1_x3
+1.42696340140722255 a1_x4
+0.70078882122262864 a1_x2
<= 216.617563

a1_act_1: 
+0.10000000000000001 a1_x1
-10.00000000000000000 a1_z1
<= 0.000000

a1_act_2: 
+0.10000000000000001 a1_x2
-10.00000000000000000 a1_z2
<= 0.000000

a2_local_1: 
+1.26343232982890918 a2_x5
+1.54229499331672648 a2_x1
+0.64838439101036460 a2_x3
<= 222.251623

a2_local_2: 
+0.51995823675303232 a2_x3
+0.47969357296189841 a2_x1
+0.60003905109844158 a2_x2
<= 95.762200

a2_local_3: 
+0.85028578090460416 a2_x4
+1.15090557327702192 a2_x6
+1.17607517667309125 a2_x2
<= 104.589146

a2_local_4: 
+0.66876191396897688 a2_x5
+0.54579570241004216 a2_x2
+0.41498759817513420 a2_x3
<= 88.612445

a2_local_5: 
+0.63772816619695083 a2_x2
+0.56737692429587161 a2_x1
+0.51827546427339344 a2_x5
<= 57.279199

a2_local_6: 
+0.59606155638378677 a2_x4
+1.67767907406551298 a2_x3
+1.14445859410784179 a2_x2
<= 238.747435

a2_local_7: 
+1.32053753704684662 a2_x1
+1.43329061426030102 a2_x4
+0.69769521271586954 a2_x6
<= 173.195421

a2_local_8: 
+0.89268321571713583 a2_x4
+0.88907013168472648 a2_x5
+1.12477066134824377 a2_x1
<= 180.298240

a2_act_1: 
+0.10000000000000001 a2_x1
-10.00000000000000000 a2_z1
<= 0.000000

a2_act_2: 
+0.10000000000000001 a2_x2
-10.00000000000000000 a2_z2
<= 0.000000

a3_local_1: 
+2.38028795288582007 a3_x3
+1.45776209052965489 a3_x2
+1.26287552689675375 a3_x1
<= 295.619427

a3_local_2: 
+2.97023123181216864 a3_x3
+1.15188022011013569 a3_x5
+2.08789106320770568 a3_x1
<= 365.152732

a3_local_3: 
+1.59920258805324700 a3_x1
+1.41475554871262710 a3_x6
+1.32572945168005818 a3_x5
<= 247.077380

a3_local_4: 
+2.04541429219861515 a3_x4
+1.46155074249982753 a3_x5
+2.49288194533105667 a3_x3
<= 203.796060

a3_local_5: 
+1.32750274105753707 a3_x5
+1.61130976700376949 a3_x2
+1.26824555285251050 a3_x3
<= 145.695784

a3_local_6: 
+0.76978643567623550 a3_x1
+0.98787716071662601 a3_x4
+1.29906160157463457 a3_x6
<= 152.066962

a3_local_7: 
+0.94696891904956715 a3_x2
+1.05600086748745459 a3_x6
+0.98329938535233496 a3_x3
<= 178.245006

a3_local_8: 
+3.02346240724633075 a3_x4
+2.64493865011604079 a3_x3
+1.27310635610220579 a3_x1
<= 303.109918

a3_act_1: 
+0.10000000000000001 a3_x1
-10.00000000000000000 a3_z1
<= 0.000000

a3_act_2: 
+0.10000000000000001 a3_x2
-10.00000000000000000 a3_z2
<= 0.000000

a4_local_1: 
+0.70567542439175346 a4_x4
+1.41708208254798662 a4_x1
+0.79082808277754668 a4_x2
<= 102.259583

a4_local_2: 
+1.30552465173857057 a4_x5
+1.20044286027214309 a4_x4
+0.76597557822312867 a4_x1
<= 106.209602

a4_local_3: 
+1.48961649270116503 a4_x1
+0.67131372732499128 a4_x2
+0.86319441635113603 a4_x4
<= 119.972200

a4_local_4: 
+1.33979863034028446 a4_x6
+0.66128787772163222 a4_x3
+1.51220071271433154 a4_x4
<= 151.836906

a4_local_5: 
+0.60380460951652060 a4_x6
+1.65616489877532036 a4_x3
+1.46940220087430773 a4_x5
<= 116.462824

a4_local_6: 
+0.81171975453084677 a4_x4
+0.83434651703754104 a4_x1
+1.23195227714764033 a4_x5
<= 143.545966

a4_local_7: 
+0.66872042334298265 a4_x1
+0.67875866413331765 a4_x2
+1.49539323922683032 a4_x3
<= 145.583834

a4_local_8: 
+0.87962752140740263 a4_x2
+1.19351857057303290 a4_x3
+0.83785876873275567 a4_x4
<= 191.262031

a4_act_1: 
+0.10000000000000001 a4_x1
-10.00000000000000000 a4_z1
<= 0.000000

a4_act_2: 
+0.10000000000000001 a4_x2
-10.00000000000000000 a4_z2
<= 0.000000

coupling_1: 
+0.00553851389681029 a1_x1
+0.03345925437841203 a2_x1
+0.18338765289715003 a3_x1
+0.97488785761806307 a4_x1
+0.08605938935988629 short_1
-0.08605938935988629 surp_1
= 92.665580

coupling_2: 
+0.00913766452519487 a1_x2
+0.03935480113651251 a2_x2
+0.21620983454489096 a3_x2
+0.96585140995110652 a4_x2
+0.09682991287835804 short_2
-0.09682991287835804 surp_2
= 54.509269

coupling_3: 
+0.00911992438880407 a1_x3
+0.04459541452178385 a2_x3
+0.12912136556998707 a3_x3
+0.98618617114421747 a4_x3
+0.06592641648088822 short_3
-0.06592641648088822 surp_3
= 81.788170

bounds
  0.000000 <= a1_x1 <= 100.000000
  0.000000 <= a1_x2 <= 100.000000
  0.000000 <= a1_x3 <= 100.000000
  0.000000 <= a1_x4 <= 100.000000
  0.000000 <= a1_x5 <= 100.000000
  0.000000 <= a1_x6 <= 100.000000
  0.000000 <= a2_x1 <= 100.000000
  0.000000 <= a2_x2 <= 100.000000
  0.000000 <= a2_x3 <= 100.000000
  0.000000 <= a2_x4 <= 100.000000
  0.000000 <= a2_x5 <= 100.000000
  0.000000 <= a2_x6 <= 100.000000
  0.000000 <= a3_x1 <= 100.000000
  0.000000 <= a3_x2 <= 100.000000
  0.000000 <= a3_x3 <= 100.000000
  0.000000 <= a3_x4 <= 100.000000
  0.000000 <= a3_x5 <= 100.000000
  0.000000 <= a3_x6 <= 100.000000
  0.000000 <= a4_x1 <= 100.000000
  0.000000 <= a4_x2 <= 100.000000
  0.000000 <= a4_x3 <= 100.000000
  0.000000 <= a4_x4 <= 100.000000
  0.000000 <= a4_x5 <= 100.000000
  0.000000 <= a4_x6 <= 100.000000
  0.000000 <= short_1 <= +inf
  0.000000 <= surp_1 <= +inf
  0.000000 <= short_2 <= +inf
  0.000000 <= surp_2 <= +inf
  0.000000 <= short_3 <= +inf
  0.000000 <= surp_3 <= +inf
 0 <= a1_z1 <= 1
 0 <= a1_z2 <= 1
 0 <= a2_z1 <= 1
 0 <= a2_z2 <= 1
 0 <= a3_z1 <= 1
 0 <= a3_z2 <= 1
 0 <= a4_z1 <= 1
 0 <= a4_z2 <= 1

binary
  a1_z1
  a1_z2
  a2_z1
  a2_z2
  a3_z1
  a3_z2
  a4_z1
  a4_z2
end
