min
obj: 
  +1.96797315584533505 a1_x1
  +5.12450639908132288 a1_x2
  +5.32896604620880687 a1_x3
  +7.73264361972508052 a1_x4
  +5.13954220661915251 a1_x5
  +1.49202607385126407 a1_x6
  +49.87266735161764331 a1_z1
  +13.86958179616855702 a1_z2
  +7.53413172178710777 a2_x1
  +3.45719216892709458 a2_x2
  +4.76571137466424233 a2_x3
  +9.38617884989886875 a2_x4
  +1.72886855476886026 a2_x5
  +5.90816082155518885 a2_x6
  +23.53717041290824596 a2_z1
  +38.77106799595807018 a2_z2
  +4.90875225577424779 a3_x1
  +9.92442060145863181 a3_x2
  +6.78612387718403109 a3_x3
  +8.67367115140907785 a3_x4
  +9.64439582433125331 a3_x5
  +8.97688831165856627 a3_x6
  +12.68276888992290807 a3_z1
  +43.15224448184653028 a3_z2
  +4.12769081519996917 a4_x1
  +7.02237149328651711 a4_x2
  +1.06108582988083655 a4_x3
  +7.09274128796206593 a4_x4
  +7.93550517031278613 a4_x5
  +7.59713078328193436 a4_x6
  +17.37310151636162914 a4_z1
  +10.31092367888116890 a4_z2
  +1000000.00000000000000000 short_1
  +1000000.00000000000000000 surp_1
  +1000000.00000000000000000 short_2
  +1000000.00000000000000000 surp_2
  +1000000.00000000000000000 short_3
  +1000000.00000000000000000 surp_3

s.t.

a1_local_1: 
+0.05719871763544802 a1_x3
+0.09100731920416558 a1_x6
+0.06950135026497101 a1_x2
<= 14.923008

a1_local_2: 
+0.13716565153331864 a1_x4
+0.07599067907345147 a1_x6
+0.05310682449947090 a1_x2
<= 15.094326

a1_local_3: 
+0.05050910831042280 a1_x4
+0.06806354998598153 a1_x5
+0.11510560972847120 a1_x2
<= 7.959942

a1_local_4: 
+0.06702770766901486 a1_x2
+0.08392379830640834 a1_x1
+0.12086711919743730 a1_x4
<= 18.232274

a1_local_5: 
+0.13946943376067589 a1_x5
+0.13390078702804706 a1_x2
+0.14882819916661474 a1_x4
<= 23.726434

a1_local_6: 
+0.13401998514857136 a1_x4
+0.06340013344215988 a1_x6
+0.14902787308237189 a1_x1
<= 22.673058

a1_local_7: 
+0.14426630003982435 a1_x5
+0.08678052248882787 a1_x4
+0.07282401804837145 a1_x3
<= 12.437505

a1_local_8: 
+0.08297723944781384 a1_x6
+0.10125555787149859 a1_x3
+0.06491671706679539 a1_x2
<= 11.018763

a1_act_1: 
+1.00000000000000000 a1_x1
-100.00000000000000000 a1_z1
<= 0.000000

a1_act_2: 
+1.00000000000000000 a1_x2
-100.00000000000000000 a1_z2
<= 0.000000

a2_local_1: 
+0.58282630080425946 a2_x3
+0.58178625970216458 a2_x6
+0.52718870159965348 a2_x4
<= 99.750357

a2_local_2: 
+0.56406978040085598 a2_x6
+0.33078981155633108 a2_x4
+0.24233690833001070 a2_x3
<= 75.936956

a2_local_3: 
+0.55541336608486103 a2_x2
+0.55357487177182529 a2_x3
+0.35093799580041857 a2_x4
<= 89.058272

a2_local_4: 
+0.44844911292136991 a2_x6
+0.28652623693084900 a2_x5
+0.62931870616811691 a2_x2
<= 78.515622

a2_local_5: 
+0.45250348597243334 a2_x4
+0.33447925302892162 a2_x5
+0.65371329797565914 a2_x3
<= 92.040376

a2_local_6: 
+0.47158739250967924 a2_x2
+0.61357107736613170 a2_x5
+0.41529343549107611 a2_x1
<= 91.154175

a2_local_7: 
+0.45728351426094060 a2_x4
+0.45829857385162720 a2_x3
+0.52429964240780547 a2_x5
<= 55.420126

a2_local_8: 
+0.41274297189103570 a2_x6
+0.29283455442810263 a2_x4
+0.33526549234856434 a2_x3
<= 64.607493

a2_act_1: 
+1.00000000000000000 a2_x1
-100.00000000000000000 a2_z1
<= 0.000000

a2_act_2: 
+1.00000000000000000 a2_x2
-100.00000000000000000 a2_z2
<= 0.000000

a3_local_1: 
+2.34046593144498871 a3_x1
+2.06069930852160210 a3_x3
+1.44190769732416912 a3_x4
<= 348.497356

a3_local_2: 
+3.03795056905323824 a3_x1
+3.10901573143947862 a3_x6
+2.82092327336262594 a3_x5
<= 622.666735

a3_local_3: 
+1.09970988898367228 a3_x6
+2.18345050933810869 a3_x2
+1.40368633319224045 a3_x3
<= 327.500924

a3_local_4: 
+1.65265421710089644 a3_x1
+3.17565645508336258 a3_x6
+1.23712579354619279 a3_x2
<= 414.767193

a3_local_5: 
+1.89395152309679005 a3_x4
+2.52901055163875643 a3_x6
+3.07660965884206039 a3_x3
<= 382.788805

a3_local_6: 
+2.31781005481401969 a3_x6
+1.78021805486781126 a3_x3
+1.59273586926870858 a3_x1
<= 266.000363

a3_local_7: 
+1.19380679864705241 a3_x6
+2.40896910972650602 a3_x5
+2.25122942429201123 a3_x1
<= 294.426078

a3_local_8: 
+1.93829852246265300 a3_x4
+2.94922397680719905 a3_x6
+2.77688782430721881 a3_x5
<= 492.153174

a3_act_1: 
+1.00000000000000000 a3_x1
-100.00000000000000000 a3_z1
<= 0.000000

a3_act_2: 
+1.00000000000000000 a3_x2
-100.00000000000000000 a3_z2
<= 0.000000

a4_local_1: 
+13.98765333692142931 a4_x4
+13.56221527406703231 a4_x1
+11.78689286407302816 a4_x5
<= 1838.157982

a4_local_2: 
+9.97686681717157242 a4_x4
+10.23015912943405681 a4_x1
+7.38962084191327140 a4_x6
<= 1213.551114

a4_local_3: 
+7.46296853145503558 a4_x3
+7.81379828106607199 a4_x5
+14.00204384151335901 a4_x1
<= 1236.133105

a4_local_4: 
+7.62437218136610184 a4_x3
+14.86395310481717758 a4_x5
+6.75777059131444791 a4_x6
<= 2002.724449

a4_local_5: 
+13.31981338049969388 a4_x4
+7.21280487742475440 a4_x5
+7.34829441766438407 a4_x6
<= 1463.298038

a4_local_6: 
+7.20330247603551754 a4_x5
+9.16491823156322738 a4_x2
+12.10141285129570932 a4_x1
<= 1375.300001

a4_local_7: 
+12.16744515720235675 a4_x2
+12.84400232705640299 a4_x3
+5.79730472380099648 a4_x1
<= 1458.996643

a4_local_8: 
+14.79650118184043350 a4_x1
+10.12906806698781992 a4_x2
+5.21535227775178889 a4_x4
<= 1026.010383

a4_act_1: 
+1.00000000000000000 a4_x1
-100.00000000000000000 a4_z1
<= 0.000000

a4_act_2: 
+1.00000000000000000 a4_x2
-100.00000000000000000 a4_z2
<= 0.000000

coupling_1: 
+0.00144414984280250 a1_x1
+0.00586765841827083 a2_x1
+0.02704677275698399 a3_x1
+0.14441346360929919 a4_x1
+0.01028872432063203 short_1
-0.01028872432063203 surp_1
= 7.664049

coupling_2: 
+0.00064805357420559 a1_x2
+0.00387110986480060 a2_x2
+0.01830536257769657 a3_x2
+0.07041344259016608 a4_x2
+0.01028872432063203 short_2
-0.01028872432063203 surp_2
= 2.296954

coupling_3: 
+0.00146556392865377 a1_x3
+0.00430627837511865 a2_x3
+0.01864025299607805 a3_x3
+0.07498179547947513 a4_x3
+0.01028872432063203 short_3
-0.01028872432063203 surp_3
= 5.315630

bounds
  0.000000 <= a1_x1 <= 100.000000
  0.000000 <= a1_x2 <= 100.000000
  0.000000 <= a1_x3 <= 100.000000
  0.000000 <= a1_x4 <= 100.000000
  0.000000 <= a1_x5 <= 100.000000
  0.000000 <= a1_x6 <= 100.000000
  0.000000 <= a2_x1 <= 100.000000
  0.000000 <= a2_x2 <= 100.000000
  0.000000 <= a2_x3 <= 100.000000
  0.000000 <= a2_x4 <= 100.000000
  0.000000 <= a2_x5 <= 100.000000
  0.000000 <= a2_x6 <= 100.000000
  0.000000 <= a3_x1 <= 100.000000
  0.000000 <= a3_x2 <= 100.000000
  0.000000 <= a3_x3 <= 100.000000
  0.000000 <= a3_x4 <= 100.000000
  0.000000 <= a3_x5 <= 100.000000
  0.000000 <= a3_x6 <= 100.000000
  0.000000 <= a4_x1 <= 100.000000
  0.000000 <= a4_x2 <= 100.000000
  0.000000 <= a4_x3 <= 100.000000
  0.000000 <= a4_x4 <= 100.000000
  0.000000 <= a4_x5 <= 100.000000
  0.000000 <= a4_x6 <= 100.000000
  0.000000 <= short_1 <= +inf
  0.000000 <= surp_1 <= +inf
  0.000000 <= short_2 <= +inf
  0.000000 <= surp_2 <= +inf
  0.000000 <= short_3 <= +inf
  0.000000 <= surp_3 <= +inf
 0 <= a1_z1 <= 1
 0 <= a1_z2 <= 1
 0 <= a2_z1 <= 1
 0 <= a2_z2 <= 1
 0 <= a3_z1 <= 1
 0 <= a3_z2 <= 1
 0 <= a4_z1 <= 1
 0 <= a4_z2 <= 1

binary
  a1_z1
  a1_z2
  a2_z1
  a2_z2
  a3_z1
  a3_z2
  a4_z1
  a4_z2
end
