min
obj: 
  +4.61217347674817457 a1_x1
  +8.37266539443051627 a1_x2
  +3.88741117842564377 a1_x3
  +3.57352147071314707 a1_x4
  +7.90632682258909369 a1_x5
  +6.50433465125659094 a1_x6
  +46.95512094955829951 a1_z1
  +19.80665349763778238 a1_z2
  +7.65671715801393571 a2_x1
  +8.20437447093011585 a2_x2
  +3.61886914738285226 a2_x3
  +5.28592570462095690 a2_x4
  +3.39477691808076010 a2_x5
  +2.52109627660840552 a2_x6
  +31.13088232979415793 a2_z1
  +23.01056128172705328 a2_z2
  +6.98746639113835144 a3_x1
  +2.08920162411281263 a3_x2
  +9.36108080061404380 a3_x3
  +4.85098195997041159 a3_x4
  +1.72431460157976346 a3_x5
  +7.00389344376385736 a3_x6
  +33.01267747284549614 a3_z1
  +8.00105962872783749 a3_z2
  +6.42161923356443864 a4_x1
  +2.38773349159600956 a4_x2
  +7.47586240964883597 a4_x3
  +7.41060969147519710 a4_x4
  +8.58602476997859654 a4_x5
  +3.43257573175068753 a4_x6
  +23.31726507162430551 a4_z1
  +25.04248719439813797 a4_z2
  +1000000.00000000000000000 short_1
  +1000000.00000000000000000 surp_1
  +1000000.00000000000000000 short_2
  +1000000.00000000000000000 surp_2
  +1000000.00000000000000000 short_3
  +1000000.00000000000000000 surp_3

s.t.

a1_local_1: 
+1.06088300154747106 a1_x1
+0.94261101228065380 a1_x6
+1.03039170294381965 a1_x2
<= 184.665611

a1_local_2: 
+1.20311966167186646 a1_x4
+0.90361891902783420 a1_x6
+0.83117251912448209 a1_x2
<= 110.084938

a1_local_3: 
+1.48564166218637350 a1_x2
+1.43045711390481034 a1_x1
+0.67310982550686593 a1_x5
<= 137.928027

a1_local_4: 
+1.58493320114710889 a1_x1
+0.81508054679657105 a1_x2
+0.63094141713748031 a1_x4
<= 95.685986

a1_local_5: 
+1.24030371224889246 a1_x2
+0.80625413769569476 a1_x6
+0.89499736356293791 a1_x3
<= 103.126294

a1_local_6: 
+1.16643452052824026 a1_x4
+0.99612321803208148 a1_x6
+0.85731344743392246 a1_x1
<= 165.314809

a1_local_7: 
+1.21562909697798816 a1_x1
+0.61907774092834422 a1_x5
+1.61530601714162758 a1_x6
<= 191.290781

a1_local_8: 
+1.30563946100689821 a1_x2
+0.76590822341476150 a1_x1
+0.96152091107570303 a1_x4
<= 160.949058

a1_act_1: 
+0.10000000000000001 a1_x1
-10.00000000000000000 a1_z1
<= 0.000000

a1_act_2: 
+0.10000000000000001 a1_x2
-10.00000000000000000 a1_z2
<= 0.000000

a2_local_1: 
+0.53762771409426813 a2_x4
+0.63805236758035289 a2_x2
+0.50924922686811580 a2_x6
<= 62.935855

a2_local_2: 
+0.70713748685113864 a2_x2
+1.41415215371054526 a2_x6
+0.93100780847491982 a2_x5
<= 148.408715

a2_local_3: 
+1.13270545633941166 a2_x2
+0.83777274532878165 a2_x1
+1.19364112233986863 a2_x3
<= 105.680364

a2_local_4: 
+0.43374738377742261 a2_x3
+0.50261180441065423 a2_x2
+0.63896641404520371 a2_x4
<= 95.839154

a2_local_5: 
+0.73450215460200574 a2_x2
+1.02354628101806067 a2_x5
+1.36146639425701377 a2_x6
<= 190.730980

a2_local_6: 
+0.66594698657532880 a2_x6
+0.60656319352996069 a2_x5
+0.53408383509445312 a2_x1
<= 83.096032

a2_local_7: 
+0.97146277692760230 a2_x5
+1.07334733100824042 a2_x4
+0.93166486850128727 a2_x3
<= 154.041796

a2_local_8: 
+1.10763999340282160 a2_x6
+0.90282041634111021 a2_x4
+1.05669372062703859 a2_x3
<= 92.067064

a2_act_1: 
+0.10000000000000001 a2_x1
-10.00000000000000000 a2_z1
<= 0.000000

a2_act_2: 
+0.10000000000000001 a2_x2
-10.00000000000000000 a2_z2
<= 0.000000

a3_local_1: 
+2.40390931923206619 a3_x2
+2.12054009353212924 a3_x1
+1.25008926633298789 a3_x6
<= 345.696442

a3_local_2: 
+2.98788100271296608 a3_x3
+1.18845630043138040 a3_x5
+1.47256596935462181 a3_x6
<= 322.945318

a3_local_3: 
+1.48746888410392120 a3_x4
+1.56300703208139669 a3_x5
+1.15286352363979749 a3_x3
<= 265.983947

a3_local_4: 
+2.21336352112616153 a3_x1
+1.13910713833385535 a3_x5
+2.25401373948266848 a3_x6
<= 259.413126

a3_local_5: 
+2.22017448455551047 a3_x3
+1.92139092010985024 a3_x5
+1.49112991256060456 a3_x1
<= 201.764380

a3_local_6: 
+2.45078954856940667 a3_x3
+2.56647366809056932 a3_x4
+1.30089899735244630 a3_x6
<= 194.552832

a3_local_7: 
+0.82643913357730203 a3_x2
+1.21001046461997408 a3_x3
+1.00961868465683846 a3_x1
<= 162.590832

a3_local_8: 
+2.18730766538581944 a3_x1
+2.20201251256348041 a3_x3
+1.54943287831461185 a3_x5
<= 217.841952

a3_act_1: 
+0.10000000000000001 a3_x1
-10.00000000000000000 a3_z1
<= 0.000000

a3_act_2: 
+0.10000000000000001 a3_x2
-10.00000000000000000 a3_z2
<= 0.000000

a4_local_1: 
+1.65383060711211249 a4_x4
+1.46614699339985166 a4_x2
+0.60465684677718057 a4_x6
<= 260.297362

a4_local_2: 
+0.99326715993971038 a4_x5
+0.91980714783717077 a4_x6
+1.08718441942030375 a4_x2
<= 142.811058

a4_local_3: 
+1.16597927198155094 a4_x1
+1.19009608893568219 a4_x3
+0.84026828530653586 a4_x6
<= 163.666440

a4_local_4: 
+1.34462639461388211 a4_x5
+1.26718161171282029 a4_x1
+0.74370100423854635 a4_x6
<= 166.011482

a4_local_5: 
+0.67700288248403773 a4_x5
+1.24045196460369378 a4_x1
+1.47709858535731997 a4_x6
<= 224.361607

a4_local_6: 
+1.03420833220374431 a4_x6
+0.85289201202615761 a4_x1
+1.17248137618778725 a4_x5
<= 145.101797

a4_local_7: 
+1.28631533828537914 a4_x2
+1.59016742591270299 a4_x6
+0.62886459859786981 a4_x1
<= 185.096756

a4_local_8: 
+0.94029390323611639 a4_x2
+1.06349727096857594 a4_x3
+1.00463978690844447 a4_x6
<= 109.047361

a4_act_1: 
+0.10000000000000001 a4_x1
-10.00000000000000000 a4_z1
<= 0.000000

a4_act_2: 
+0.10000000000000001 a4_x2
-10.00000000000000000 a4_z2
<= 0.000000

coupling_1: 
+0.09786104660245751 a1_x1
+0.48454745825214007 a2_x1
+2.06373811831667853 a3_x1
+10.21857046003519542 a4_x1
+0.88316945168704142 short_1
-0.88316945168704142 surp_1
= 525.248474

coupling_2: 
+0.07558847663897623 a1_x2
+0.40412349063321623 a2_x2
+1.93837887308523471 a3_x2
+13.22952974401342630 a4_x2
+1.09681368161947135 short_2
-1.09681368161947135 surp_2
= 623.377377

coupling_3: 
+0.08674356234482034 a1_x3
+0.62101238950049664 a2_x3
+2.26495177297976236 a3_x3
+11.52823302350473789 a4_x3
+1.44436520683590164 short_3
-1.44436520683590164 surp_3
= 341.625694

bounds
  0.000000 <= a1_x1 <= 100.000000
  0.000000 <= a1_x2 <= 100.000000
  0.000000 <= a1_x3 <= 100.000000
  0.000000 <= a1_x4 <= 100.000000
  0.000000 <= a1_x5 <= 100.000000
  0.000000 <= a1_x6 <= 100.000000
  0.000000 <= a2_x1 <= 100.000000
  0.000000 <= a2_x2 <= 100.000000
  0.000000 <= a2_x3 <= 100.000000
  0.000000 <= a2_x4 <= 100.000000
  0.000000 <= a2_x5 <= 100.000000
  0.000000 <= a2_x6 <= 100.000000
  0.000000 <= a3_x1 <= 100.000000
  0.000000 <= a3_x2 <= 100.000000
  0.000000 <= a3_x3 <= 100.000000
  0.000000 <= a3_x4 <= 100.000000
  0.000000 <= a3_x5 <= 100.000000
  0.000000 <= a3_x6 <= 100.000000
  0.000000 <= a4_x1 <= 100.000000
  0.000000 <= a4_x2 <= 100.000000
  0.000000 <= a4_x3 <= 100.000000
  0.000000 <= a4_x4 <= 100.000000
  0.000000 <= a4_x5 <= 100.000000
  0.000000 <= a4_x6 <= 100.000000
  0.000000 <= short_1 <= +inf
  0.000000 <= surp_1 <= +inf
  0.000000 <= short_2 <= +inf
  0.000000 <= surp_2 <= +inf
  0.000000 <= short_3 <= +inf
  0.000000 <= surp_3 <= +inf
 0 <= a1_z1 <= 1
 0 <= a1_z2 <= 1
 0 <= a2_z1 <= 1
 0 <= a2_z2 <= 1
 0 <= a3_z1 <= 1
 0 <= a3_z2 <= 1
 0 <= a4_z1 <= 1
 0 <= a4_z2 <= 1

binary
  a1_z1
  a1_z2
  a2_z1
  a2_z2
  a3_z1
  a3_z2
  a4_z1
  a4_z2
end
