min
obj: 
  +4.08711411622905185 a1_x1
  +7.66136637275760890 a1_x2
  +4.89991689432673461 a1_x3
  +9.18560754331382867 a1_x4
  +7.80552329567271030 a1_x5
  +3.48617462290993085 a1_x6
  +23.40237872614093462 a1_z1
  +18.26756086639244359 a1_z2
  +9.86731097874472596 a2_x1
  +9.26152928173022261 a2_x2
  +3.50078905131847584 a2_x3
  +7.16373731684462012 a2_x4
  +7.92452849914212010 a2_x5
  +2.45821067970353369 a2_x6
  +33.65890549127213660 a2_z1
  +35.25440952037810405 a2_z2
  +2.67328543975586186 a3_x1
  +9.89718173180398963 a3_x2
  +5.22112132820410846 a3_x3
  +8.01142911451852413 a3_x4
  +2.58297506253818687 a3_x5
  +9.90251287309686745 a3_x6
  +27.09261525514139990 a3_z1
  +47.99613585574002173 a3_z2
  +8.20462741556096375 a4_x1
  +7.12140565612760490 a4_x2
  +6.26647229654029836 a4_x3
  +7.50796663445631296 a4_x4
  +5.57360575198759278 a4_x5
  +1.80810837019631565 a4_x6
  +27.56107960188447947 a4_z1
  +34.98595155711783633 a4_z2
  +1000000.00000000000000000 short_1
  +1000000.00000000000000000 surp_1
  +1000000.00000000000000000 short_2
  +1000000.00000000000000000 surp_2
  +1000000.00000000000000000 short_3
  +1000000.00000000000000000 surp_3

s.t.

a1_local_1: 
+0.51177832521965261 a1_x6
+0.28450914320719162 a1_x4
+0.81064017496474805 a1_x2
<= 111.375535

a1_local_2: 
+0.76791484251516662 a1_x6
+0.45663690431334680 a1_x3
+0.44920989778057019 a1_x2
<= 51.838027

a1_local_3: 
+0.44698940347279698 a1_x6
+0.58502824507983364 a1_x4
+0.67671443433832768 a1_x1
<= 91.234534

a1_local_4: 
+0.83720606385463092 a1_x4
+0.33374683498921243 a1_x5
+0.43324249189076436 a1_x2
<= 106.808705

a1_local_5: 
+0.60174235782026142 a1_x5
+0.64665696882494061 a1_x1
+0.46876529252393673 a1_x4
<= 116.200517

a1_local_6: 
+0.57223072458145829 a1_x2
+0.71499759773355109 a1_x6
+0.40165959851624394 a1_x1
<= 82.924669

a1_local_7: 
+0.65645891170005355 a1_x2
+0.65084717522053082 a1_x1
+0.38139173005852778 a1_x3
<= 75.244921

a1_local_8: 
+0.48537972898295129 a1_x2
+0.56254878232091132 a1_x4
+0.66928722249994954 a1_x3
<= 98.355369

a1_act_1: 
+0.00999950003749688 a1_x1
-0.99995000374968757 a1_z1
<= 0.000000

a1_act_2: 
+0.00999950003749688 a1_x2
-0.99995000374968757 a1_z2
<= 0.000000

a2_local_1: 
+0.63676979229140496 a2_x6
+0.67530625543603739 a2_x2
+0.67192086742914170 a2_x4
<= 95.334311

a2_local_2: 
+0.50357863186560414 a2_x2
+0.35955563751158837 a2_x3
+0.38548869849063416 a2_x6
<= 86.185753

a2_local_3: 
+0.31125431327357905 a2_x4
+0.61889551639039064 a2_x6
+0.51668688046025457 a2_x2
<= 43.941670

a2_local_4: 
+0.57897019630146507 a2_x6
+0.63979303083761030 a2_x2
+0.62515195144137559 a2_x4
<= 100.439997

a2_local_5: 
+0.35863055138360755 a2_x2
+0.59322906296440114 a2_x3
+0.33372328686389263 a2_x1
<= 71.736515

a2_local_6: 
+0.46658843108408976 a2_x4
+0.53671075354728992 a2_x6
+0.51462429463162274 a2_x2
<= 95.176988

a2_local_7: 
+0.64497908506506463 a2_x5
+0.62322398699758264 a2_x2
+0.44325598011732043 a2_x3
<= 115.488460

a2_local_8: 
+0.23590559571345707 a2_x5
+0.47902267806306648 a2_x4
+0.53949925980088242 a2_x6
<= 54.766306

a2_act_1: 
+0.00999950003749688 a2_x1
-0.99995000374968757 a2_z1
<= 0.000000

a2_act_2: 
+0.00999950003749688 a2_x2
-0.99995000374968757 a2_z2
<= 0.000000

a3_local_1: 
+0.35554942504552939 a3_x3
+0.48669195589681807 a3_x5
+0.79794457602964075 a3_x6
<= 102.773793

a3_local_2: 
+0.69622092596746210 a3_x4
+0.55796445287334706 a3_x1
+0.45161055299312508 a3_x2
<= 111.015121

a3_local_3: 
+0.54768870288172489 a3_x3
+0.64439965413949107 a3_x5
+0.53365360532899819 a3_x2
<= 68.678984

a3_local_4: 
+0.70260879533184195 a3_x2
+0.55809959007910703 a3_x6
+0.44143598434639458 a3_x4
<= 115.798308

a3_local_5: 
+0.46115077178689168 a3_x2
+0.61974129553870161 a3_x3
+0.63502810353902117 a3_x1
<= 96.897711

a3_local_6: 
+0.57340026613643180 a3_x1
+0.46463369362578838 a3_x5
+0.67477971630920131 a3_x4
<= 76.455391

a3_local_7: 
+0.37155754107264288 a3_x2
+0.80990707206020240 a3_x1
+0.45386730252235752 a3_x3
<= 63.048067

a3_local_8: 
+0.51561991303265620 a3_x4
+0.54327962890760972 a3_x5
+0.66255818619816786 a3_x2
<= 94.768204

a3_act_1: 
+0.00999950003749688 a3_x1
-0.99995000374968757 a3_z1
<= 0.000000

a3_act_2: 
+0.00999950003749688 a3_x2
-0.99995000374968757 a3_z2
<= 0.000000

a4_local_1: 
+0.82150988783141865 a4_x3
+0.38318117213540948 a4_x2
+0.42224837893844380 a4_x6
<= 103.229325

a4_local_2: 
+0.68471316777683144 a4_x6
+0.61982427159996856 a4_x1
+0.38338720663134407 a4_x5
<= 75.781391

a4_local_3: 
+0.31977066863202402 a4_x4
+0.64032252481575425 a4_x5
+0.69837939810407224 a4_x6
<= 83.478520

a4_local_4: 
+0.55442971553093812 a4_x6
+0.70249763027836853 a4_x2
+0.44621157536482570 a4_x4
<= 93.188699

a4_local_5: 
+0.49507287426208862 a4_x3
+0.53812559727547660 a4_x6
+0.68214638511597037 a4_x1
<= 119.145318

a4_local_6: 
+0.41209631250782836 a4_x5
+0.73471033678240849 a4_x6
+0.53886672771895094 a4_x2
<= 98.783245

a4_local_7: 
+0.76613397868634625 a4_x4
+0.34430635287540406 a4_x3
+0.54267104406985545 a4_x2
<= 105.256563

a4_local_8: 
+0.72316651749970251 a4_x3
+0.33876348135179685 a4_x6
+0.60188827174963555 a4_x2
<= 110.790183

a4_act_1: 
+0.00999950003749688 a4_x1
-0.99995000374968757 a4_z1
<= 0.000000

a4_act_2: 
+0.00999950003749688 a4_x2
-0.99995000374968757 a4_z2
<= 0.000000

coupling_1: 
+0.00580550005288068 a1_x1
+0.03724596413619554 a2_x1
+0.20212336271356610 a3_x1
+0.97279238055130646 a4_x1
+0.07549889042689117 short_1
-0.07549889042689117 surp_1
= 72.121780

coupling_2: 
+0.01115592046945879 a1_x2
+0.04136787036861968 a2_x2
+0.25314091346355272 a3_x2
+0.95999313814466192 a4_x2
+0.07904776209876617 short_2
-0.07904776209876617 surp_2
= 82.962003

coupling_3: 
+0.01114842816969391 a1_x3
+0.04835441080605751 a2_x3
+0.16700798266577749 a3_x3
+0.97525714067698610 a4_x3
+0.09622735263271362 short_3
-0.09622735263271362 surp_3
= 80.102879

bounds
  0.000000 <= a1_x1 <= 100.000000
  0.000000 <= a1_x2 <= 100.000000
  0.000000 <= a1_x3 <= 100.000000
  0.000000 <= a1_x4 <= 100.000000
  0.000000 <= a1_x5 <= 100.000000
  0.000000 <= a1_x6 <= 100.000000
  0.000000 <= a2_x1 <= 100.000000
  0.000000 <= a2_x2 <= 100.000000
  0.000000 <= a2_x3 <= 100.000000
  0.000000 <= a2_x4 <= 100.000000
  0.000000 <= a2_x5 <= 100.000000
  0.000000 <= a2_x6 <= 100.000000
  0.000000 <= a3_x1 <= 100.000000
  0.000000 <= a3_x2 <= 100.000000
  0.000000 <= a3_x3 <= 100.000000
  0.000000 <= a3_x4 <= 100.000000
  0.000000 <= a3_x5 <= 100.000000
  0.000000 <= a3_x6 <= 100.000000
  0.000000 <= a4_x1 <= 100.000000
  0.000000 <= a4_x2 <= 100.000000
  0.000000 <= a4_x3 <= 100.000000
  0.000000 <= a4_x4 <= 100.000000
  0.000000 <= a4_x5 <= 100.000000
  0.000000 <= a4_x6 <= 100.000000
  0.000000 <= short_1 <= +inf
  0.000000 <= surp_1 <= +inf
  0.000000 <= short_2 <= +inf
  0.000000 <= surp_2 <= +inf
  0.000000 <= short_3 <= +inf
  0.000000 <= surp_3 <= +inf
 0 <= a1_z1 <= 1
 0 <= a1_z2 <= 1
 0 <= a2_z1 <= 1
 0 <= a2_z2 <= 1
 0 <= a3_z1 <= 1
 0 <= a3_z2 <= 1
 0 <= a4_z1 <= 1
 0 <= a4_z2 <= 1

binary
  a1_z1
  a1_z2
  a2_z1
  a2_z2
  a3_z1
  a3_z2
  a4_z1
  a4_z2
end
