min
obj: 
  +2.62040292120299334 a1_x1
  +1.02293933329670939 a1_x2
  +7.19109322240713489 a1_x3
  +4.26327457704359070 a1_x4
  +6.02462654690972954 a1_x5
  +8.55420542223946256 a1_x6
  +28.11411837117618262 a1_z1
  +36.33719979534413369 a1_z2
  +2.39250112218893918 a2_x1
  +1.83547081268154932 a2_x2
  +3.26801901615166557 a2_x3
  +8.57451293041723162 a2_x4
  +5.28554157085463672 a2_x5
  +8.07508570205658316 a2_x6
  +37.67992106218490278 a2_z1
  +30.78606331188496270 a2_z2
  +6.90983361892269166 a3_x1
  +7.22469297213641504 a3_x2
  +2.76350562177570946 a3_x3
  +4.58041526640907559 a3_x4
  +5.53917660184281146 a3_x5
  +2.52802612578793617 a3_x6
  +24.71990871554554658 a3_z1
  +39.06095262734275053 a3_z2
  +7.87721431876430422 a4_x1
  +7.82223412443215427 a4_x2
  +1.26243572521241743 a4_x3
  +2.93412910760232926 a4_x4
  +4.86803560394161750 a4_x5
  +9.50434430207515391 a4_x6
  +34.58728502900768120 a4_z1
  +29.50594267162487938 a4_z2
  +1000000.00000000000000000 short_1
  +1000000.00000000000000000 surp_1
  +1000000.00000000000000000 short_2
  +1000000.00000000000000000 surp_2
  +1000000.00000000000000000 short_3
  +1000000.00000000000000000 surp_3

s.t.

a1_local_1: 
+1.46705201016064590 a1_x3
+0.68163909191637817 a1_x5
+1.07634814734544371 a1_x4
<= 211.024950

a1_local_2: 
+1.18244517205215227 a1_x6
+0.82897500109521449 a1_x5
+1.20630899445560269 a1_x4
<= 170.495492

a1_local_3: 
+1.16652445021225737 a1_x4
+0.85724735543952213 a1_x3
+1.13105116569312392 a1_x1
<= 220.189307

a1_local_4: 
+0.67959542316245647 a1_x4
+1.06387602274583704 a1_x2
+1.47146370607759525 a1_x5
<= 134.416839

a1_local_5: 
+0.76478921693601354 a1_x2
+1.30754981615237043 a1_x4
+1.12551171871450650 a1_x3
<= 103.884398

a1_local_6: 
+1.38990184680090856 a1_x6
+0.96532977317532220 a1_x1
+0.71947526532299155 a1_x4
<= 189.304574

a1_local_7: 
+1.36733425090074290 a1_x2
+0.73135006991980311 a1_x5
+1.30116854071084864 a1_x1
<= 178.856355

a1_local_8: 
+1.46601989828943391 a1_x3
+1.49267339898541063 a1_x4
+0.66993891676485506 a1_x5
<= 110.379617

a1_act_1: 
+0.10000000000000001 a1_x1
-10.00000000000000000 a1_z1
<= 0.000000

a1_act_2: 
+0.10000000000000001 a1_x2
-10.00000000000000000 a1_z2
<= 0.000000

a2_local_1: 
+0.87549613133497850 a2_x1
+0.70241627513864757 a2_x5
+1.42365721779811172 a2_x6
<= 141.029858

a2_local_2: 
+1.30272968650469689 a2_x5
+0.64896634759072602 a2_x2
+1.54091194976824153 a2_x4
<= 201.991426

a2_local_3: 
+0.97638087532410778 a2_x4
+1.49606535229646509 a2_x5
+0.66841999814045350 a2_x1
<= 106.074274

a2_local_4: 
+0.81585490239967073 a2_x6
+1.22570814621411706 a2_x1
+1.01068365026270768 a2_x3
<= 164.747225

a2_local_5: 
+1.05329592614143319 a2_x4
+0.71248261481990205 a2_x5
+1.40354301873425391 a2_x3
<= 98.180901

a2_local_6: 
+1.05359176103209840 a2_x5
+0.96114250482489272 a2_x3
+0.94913422540472414 a2_x1
<= 201.060702

a2_local_7: 
+0.57494112959922850 a2_x3
+0.57722434682487278 a2_x1
+0.54644542738999002 a2_x4
<= 66.794389

a2_local_8: 
+1.00660592506794799 a2_x6
+0.88834761359364711 a2_x1
+1.12568546895137533 a2_x3
<= 188.304954

a2_act_1: 
+0.10000000000000001 a2_x1
-10.00000000000000000 a2_z1
<= 0.000000

a2_act_2: 
+0.10000000000000001 a2_x2
-10.00000000000000000 a2_z2
<= 0.000000

a3_local_1: 
+1.28993861561017131 a3_x2
+0.77523068764553293 a3_x1
+1.00249679454489771 a3_x3
<= 163.823271

a3_local_2: 
+1.52548079442144813 a3_x6
+1.35222906000305465 a3_x5
+2.62560813301485219 a3_x2
<= 211.161547

a3_local_3: 
+2.46967081206431294 a3_x3
+1.24054166269362587 a3_x6
+2.03424201391593806 a3_x4
<= 304.342881

a3_local_4: 
+1.05713569763427917 a3_x1
+0.78177264721633966 a3_x4
+1.27914426727604646 a3_x3
<= 150.775464

a3_local_5: 
+1.13137929510472568 a3_x1
+1.03638713833686880 a3_x2
+0.88387687871505138 a3_x3
<= 145.677125

a3_local_6: 
+1.10254537729103697 a3_x5
+3.15594551435689619 a3_x1
+2.27513708257521996 a3_x2
<= 409.366863

a3_local_7: 
+2.84838639807926164 a3_x5
+1.34070372434234564 a3_x6
+2.31733879412124555 a3_x3
<= 296.152561

a3_local_8: 
+2.50355308805146271 a3_x2
+1.15200101847499559 a3_x6
+2.74781180991899676 a3_x4
<= 271.598194

a3_act_1: 
+0.10000000000000001 a3_x1
-10.00000000000000000 a3_z1
<= 0.000000

a3_act_2: 
+0.10000000000000001 a3_x2
-10.00000000000000000 a3_z2
<= 0.000000

a4_local_1: 
+1.15268409854774245 a4_x5
+0.86754037924171257 a4_x4
+0.99413848070664224 a4_x6
<= 98.187616

a4_local_2: 
+0.82783830482285792 a4_x6
+1.39528970781989203 a4_x4
+0.71669703746505586 a4_x2
<= 112.731344

a4_local_3: 
+0.64677177216211057 a4_x1
+0.97267054156471500 a4_x6
+1.54614045176565718 a4_x5
<= 201.649438

a4_local_4: 
+1.22569475009569251 a4_x3
+0.85321828426133373 a4_x5
+0.81586381921104578 a4_x4
<= 165.317354

a4_local_5: 
+1.53777419404027693 a4_x2
+0.65029053282045668 a4_x1
+1.52015628983712170 a4_x5
<= 120.399091

a4_local_6: 
+1.36877350883029636 a4_x6
+0.88573577134642001 a4_x5
+0.73058105928318506 a4_x4
<= 205.879472

a4_local_7: 
+1.21837799089005516 a4_x6
+0.94488880893307403 a4_x1
+0.82076334887621816 a4_x4
<= 115.321771

a4_local_8: 
+1.59763937124050637 a4_x6
+1.46762172697283333 a4_x1
+0.62592348310966961 a4_x2
<= 145.721643

a4_act_1: 
+0.10000000000000001 a4_x1
-10.00000000000000000 a4_z1
<= 0.000000

a4_act_2: 
+0.10000000000000001 a4_x2
-10.00000000000000000 a4_z2
<= 0.000000

coupling_1: 
+0.00572700977595017 a1_x1
+0.04762437718635333 a2_x1
+0.22882830491107792 a3_x1
+0.96610015595288656 a4_x1
+0.07741839444204791 short_1
-0.07741839444204791 surp_1
= 70.561049

coupling_2: 
+0.00418800040122291 a1_x2
+0.04355840913885008 a2_x2
+0.12280704977896895 a3_x2
+0.98444455110223861 a4_x2
+0.08328409204532851 short_2
-0.08328409204532851 surp_2
= 80.827314

coupling_3: 
+0.00898682063834602 a1_x3
+0.04277156867215265 a2_x3
+0.20129243476052669 a3_x3
+0.97279560514675778 a4_x3
+0.07496631337964356 short_3
-0.07496631337964356 surp_3
= 43.584181

bounds
  0.000000 <= a1_x1 <= 100.000000
  0.000000 <= a1_x2 <= 100.000000
  0.000000 <= a1_x3 <= 100.000000
  0.000000 <= a1_x4 <= 100.000000
  0.000000 <= a1_x5 <= 100.000000
  0.000000 <= a1_x6 <= 100.000000
  0.000000 <= a2_x1 <= 100.000000
  0.000000 <= a2_x2 <= 100.000000
  0.000000 <= a2_x3 <= 100.000000
  0.000000 <= a2_x4 <= 100.000000
  0.000000 <= a2_x5 <= 100.000000
  0.000000 <= a2_x6 <= 100.000000
  0.000000 <= a3_x1 <= 100.000000
  0.000000 <= a3_x2 <= 100.000000
  0.000000 <= a3_x3 <= 100.000000
  0.000000 <= a3_x4 <= 100.000000
  0.000000 <= a3_x5 <= 100.000000
  0.000000 <= a3_x6 <= 100.000000
  0.000000 <= a4_x1 <= 100.000000
  0.000000 <= a4_x2 <= 100.000000
  0.000000 <= a4_x3 <= 100.000000
  0.000000 <= a4_x4 <= 100.000000
  0.000000 <= a4_x5 <= 100.000000
  0.000000 <= a4_x6 <= 100.000000
  0.000000 <= short_1 <= +inf
  0.000000 <= surp_1 <= +inf
  0.000000 <= short_2 <= +inf
  0.000000 <= surp_2 <= +inf
  0.000000 <= short_3 <= +inf
  0.000000 <= surp_3 <= +inf
 0 <= a1_z1 <= 1
 0 <= a1_z2 <= 1
 0 <= a2_z1 <= 1
 0 <= a2_z2 <= 1
 0 <= a3_z1 <= 1
 0 <= a3_z2 <= 1
 0 <= a4_z1 <= 1
 0 <= a4_z2 <= 1

binary
  a1_z1
  a1_z2
  a2_z1
  a2_z2
  a3_z1
  a3_z2
  a4_z1
  a4_z2
end
