min
obj: 
  +1.85914319529187777 a1_x1
  +3.32311090405199927 a1_x2
  +9.20870591814637862 a1_x3
  +9.62032466035919853 a1_x4
  +2.65221673698665317 a1_x5
  +9.19424318038364063 a1_x6
  +15.23159126469524693 a1_z1
  +37.87053616888882601 a1_z2
  +9.50992409015265672 a2_x1
  +7.57539983332453648 a2_x2
  +7.25458697589536605 a2_x3
  +4.07761765395989872 a2_x4
  +7.08231795774132511 a2_x5
  +8.34807126494008500 a2_x6
  +13.29578844905750223 a2_z1
  +34.63921833196101829 a2_z2
  +8.76504266892960793 a3_x1
  +7.77977201232387294 a3_x2
  +6.04838547653606717 a3_x3
  +6.48681552366104786 a3_x4
  +7.59141867997845843 a3_x5
  +2.66707871930021945 a3_x6
  +17.07642873173313092 a3_z1
  +32.16693189471635606 a3_z2
  +3.95786841150633606 a4_x1
  +4.77265222387028487 a4_x2
  +6.62265288598760282 a4_x3
  +9.50730455200969438 a4_x4
  +5.10859874083684673 a4_x5
  +6.19908634988090146 a4_x6
  +14.10084107909216655 a4_z1
  +36.13532285979064795 a4_z2
  +1000000.00000000000000000 short_1
  +1000000.00000000000000000 surp_1
  +1000000.00000000000000000 short_2
  +1000000.00000000000000000 surp_2
  +1000000.00000000000000000 short_3
  +1000000.00000000000000000 surp_3

s.t.

a1_local_1: 
+0.64217508433350901 a1_x5
+0.45606040268985232 a1_x4
+0.61613315943846136 a1_x3
<= 61.201219

a1_local_2: 
+0.69617846452001109 a1_x2
+0.47322524293868901 a1_x4
+0.53980868368726553 a1_x3
<= 115.097453

a1_local_3: 
+0.60081817168806728 a1_x1
+0.35679507331936439 a1_x6
+0.71534243563795219 a1_x3
<= 69.397213

a1_local_4: 
+0.56570818785161292 a1_x3
+0.56531348531914016 a1_x6
+0.60032900106022757 a1_x5
<= 103.134515

a1_local_5: 
+0.59849190138408193 a1_x2
+0.58422942869783401 a1_x3
+0.54816367867733506 a1_x5
<= 57.525147

a1_local_6: 
+0.55633618212553693 a1_x4
+0.61227312293390856 a1_x3
+0.56179326748434810 a1_x2
<= 113.055333

a1_local_7: 
+0.61042867510448784 a1_x6
+0.61617297127101400 a1_x4
+0.49770242322619840 a1_x5
<= 115.159757

a1_local_8: 
+0.54283426556040604 a1_x3
+0.75383860267237279 a1_x4
+0.37021388582069609 a1_x2
<= 114.435087

a1_act_1: 
+0.00999950003749688 a1_x1
-0.99995000374968757 a1_z1
<= 0.000000

a1_act_2: 
+0.00999950003749688 a1_x2
-0.99995000374968757 a1_z2
<= 0.000000

a2_local_1: 
+0.51140652514905904 a2_x5
+0.62428331511328938 a2_x1
+0.26245015307816461 a2_x3
<= 89.962024

a2_local_2: 
+0.51995823675303232 a2_x3
+0.47969357296189841 a2_x1
+0.60003905109844158 a2_x2
<= 95.762200

a2_local_3: 
+0.37318171882349138 a2_x4
+0.50512066611548001 a2_x6
+0.51616734720599278 a2_x2
<= 45.903105

a2_local_4: 
+0.66876191396897688 a2_x5
+0.54579570241004216 a2_x2
+0.41498759817513420 a2_x3
<= 88.612445

a2_local_5: 
+0.63772816619695083 a2_x2
+0.56737692429587161 a2_x1
+0.51827546427339344 a2_x5
<= 57.279199

a2_local_6: 
+0.24483118808278814 a2_x4
+0.68910359429491985 a2_x3
+0.47008426278471183 a2_x2
<= 98.065070

a2_local_7: 
+0.48717608762904308 a2_x1
+0.52877324142735838 a2_x4
+0.25739550338611256 a2_x6
<= 63.895698

a2_local_8: 
+0.34788775042305126 a2_x4
+0.34647969473880214 a2_x5
+0.43833459420870002 a2_x1
<= 70.264062

a2_act_1: 
+0.00999950003749688 a2_x1
-0.99995000374968757 a2_z1
<= 0.000000

a2_act_2: 
+0.00999950003749688 a2_x2
-0.99995000374968757 a2_z2
<= 0.000000

a3_local_1: 
+0.77695571402146890 a3_x3
+0.47583175159447932 a3_x2
+0.41221834338602525 a3_x1
<= 96.493873

a3_local_2: 
+0.77979534648255455 a3_x3
+0.30241108023066765 a3_x5
+0.54814848002879046 a3_x1
<= 95.866072

a3_local_3: 
+0.63630279733364237 a3_x1
+0.56291361702021170 a3_x6
+0.52749124151838200 a3_x5
<= 98.309013

a3_local_4: 
+0.57773816832688907 a3_x4
+0.41282279688239421 a3_x5
+0.70412779183361951 a3_x3
<= 57.563283

a3_local_5: 
+0.54344592295898020 a3_x5
+0.65962931481753495 a3_x2
+0.51918753437713772 a3_x3
<= 59.644155

a3_local_6: 
+0.42660488367981059 a3_x1
+0.54746771533748928 a3_x4
+0.71992178317070332 a3_x6
<= 84.273385

a3_local_7: 
+0.54867801238597669 a3_x2
+0.61185160927183080 a3_x6
+0.56972804648853737 a3_x3
<= 103.275951

a3_local_8: 
+0.71747981080351408 a3_x4
+0.62765459816003200 a3_x3
+0.30211326766284546 a3_x1
<= 71.929205

a3_act_1: 
+0.00999950003749688 a3_x1
-0.99995000374968757 a3_z1
<= 0.000000

a3_act_2: 
+0.00999950003749688 a3_x2
-0.99995000374968757 a3_z2
<= 0.000000

a4_local_1: 
+0.39877525037721623 a4_x4
+0.80078920526418740 a4_x1
+0.44689478450630798 a4_x2
<= 57.786611

a4_local_2: 
+0.67577792912305956 a4_x5
+0.62138450550508595 a4_x4
+0.39649147131855050 a4_x1
<= 54.977211

a4_local_3: 
+0.80611437834912802 a4_x1
+0.36328521510830486 a4_x2
+0.46712253371306284 a4_x4
<= 64.923634

a4_local_4: 
+0.63025010675943838 a4_x6
+0.31107417644316254 a4_x3
+0.71134918266623792 a4_x4
<= 71.425081

a4_local_5: 
+0.26310618070075403 a4_x6
+0.72166925237012958 a4_x3
+0.64028792574950244 a4_x5
<= 50.748352

a4_local_6: 
+0.47891534164462463 a4_x4
+0.49226515065902809 a4_x1
+0.72685288537919202 a4_x5
<= 84.692241

a4_local_7: 
+0.37713455303123272 a4_x1
+0.38279576408675509 a4_x2
+0.84334864196675496 a4_x3
<= 82.104108

a4_local_8: 
+0.51651382982070904 a4_x2
+0.70082942250654712 a4_x3
+0.49198738210759368 a4_x4
<= 112.308314

a4_act_1: 
+0.00999950003749688 a4_x1
-0.99995000374968757 a4_z1
<= 0.000000

a4_act_2: 
+0.00999950003749688 a4_x2
-0.99995000374968757 a4_z2
<= 0.000000

coupling_1: 
+0.00553851389681029 a1_x1
+0.03345925437841203 a2_x1
+0.18338765289715003 a3_x1
+0.97488785761806307 a4_x1
+0.08605938935988629 short_1
-0.08605938935988629 surp_1
= 92.665580

coupling_2: 
+0.00913766452519487 a1_x2
+0.03935480113651251 a2_x2
+0.21620983454489096 a3_x2
+0.96585140995110652 a4_x2
+0.09682991287835804 short_2
-0.09682991287835804 surp_2
= 54.509269

coupling_3: 
+0.00911992438880407 a1_x3
+0.04459541452178385 a2_x3
+0.12912136556998707 a3_x3
+0.98618617114421747 a4_x3
+0.06592641648088822 short_3
-0.06592641648088822 surp_3
= 81.788170

bounds
  0.000000 <= a1_x1 <= 100.000000
  0.000000 <= a1_x2 <= 100.000000
  0.000000 <= a1_x3 <= 100.000000
  0.000000 <= a1_x4 <= 100.000000
  0.000000 <= a1_x5 <= 100.000000
  0.000000 <= a1_x6 <= 100.000000
  0.000000 <= a2_x1 <= 100.000000
  0.000000 <= a2_x2 <= 100.000000
  0.000000 <= a2_x3 <= 100.000000
  0.000000 <= a2_x4 <= 100.000000
  0.000000 <= a2_x5 <= 100.000000
  0.000000 <= a2_x6 <= 100.000000
  0.000000 <= a3_x1 <= 100.000000
  0.000000 <= a3_x2 <= 100.000000
  0.000000 <= a3_x3 <= 100.000000
  0.000000 <= a3_x4 <= 100.000000
  0.000000 <= a3_x5 <= 100.000000
  0.000000 <= a3_x6 <= 100.000000
  0.000000 <= a4_x1 <= 100.000000
  0.000000 <= a4_x2 <= 100.000000
  0.000000 <= a4_x3 <= 100.000000
  0.000000 <= a4_x4 <= 100.000000
  0.000000 <= a4_x5 <= 100.000000
  0.000000 <= a4_x6 <= 100.000000
  0.000000 <= short_1 <= +inf
  0.000000 <= surp_1 <= +inf
  0.000000 <= short_2 <= +inf
  0.000000 <= surp_2 <= +inf
  0.000000 <= short_3 <= +inf
  0.000000 <= surp_3 <= +inf
 0 <= a1_z1 <= 1
 0 <= a1_z2 <= 1
 0 <= a2_z1 <= 1
 0 <= a2_z2 <= 1
 0 <= a3_z1 <= 1
 0 <= a3_z2 <= 1
 0 <= a4_z1 <= 1
 0 <= a4_z2 <= 1

binary
  a1_z1
  a1_z2
  a2_z1
  a2_z2
  a3_z1
  a3_z2
  a4_z1
  a4_z2
end
