min
obj: 
  +2.62040292120299334 a1_x1
  +1.02293933329670939 a1_x2
  +7.19109322240713489 a1_x3
  +4.26327457704359070 a1_x4
  +6.02462654690972954 a1_x5
  +8.55420542223946256 a1_x6
  +28.11411837117618262 a1_z1
  +36.33719979534413369 a1_z2
  +2.39250112218893918 a2_x1
  +1.83547081268154932 a2_x2
  +3.26801901615166557 a2_x3
  +8.57451293041723162 a2_x4
  +5.28554157085463672 a2_x5
  +8.07508570205658316 a2_x6
  +37.67992106218490278 a2_z1
  +30.78606331188496270 a2_z2
  +6.90983361892269166 a3_x1
  +7.22469297213641504 a3_x2
  +2.76350562177570946 a3_x3
  +4.58041526640907559 a3_x4
  +5.53917660184281146 a3_x5
  +2.52802612578793617 a3_x6
  +24.71990871554554658 a3_z1
  +39.06095262734275053 a3_z2
  +7.87721431876430422 a4_x1
  +7.82223412443215427 a4_x2
  +1.26243572521241743 a4_x3
  +2.93412910760232926 a4_x4
  +4.86803560394161750 a4_x5
  +9.50434430207515391 a4_x6
  +34.58728502900768120 a4_z1
  +29.50594267162487938 a4_z2
  +1000000.00000000000000000 short_1
  +1000000.00000000000000000 surp_1
  +1000000.00000000000000000 short_2
  +1000000.00000000000000000 surp_2
  +1000000.00000000000000000 short_3
  +1000000.00000000000000000 surp_3

s.t.

a1_local_1: 
+0.75502980325012869 a1_x3
+0.35081089551887334 a1_x5
+0.55395100125310559 a1_x4
<= 108.605643

a1_local_2: 
+0.62841303478021893 a1_x6
+0.44056055071972738 a1_x5
+0.64109551462153114 a1_x4
<= 90.610197

a1_local_3: 
+0.63498215683482173 a1_x4
+0.46663126057828352 a1_x3
+0.61567274355173440 a1_x1
<= 119.857137

a1_local_4: 
+0.35052643623325730 a1_x4
+0.54873334654280737 a1_x2
+0.75896174600143296 a1_x5
<= 69.330449

a1_local_5: 
+0.40525974832402606 a1_x2
+0.69286712950526641 a1_x4
+0.59640563146191006 a1_x3
<= 55.048063

a1_local_6: 
+0.75585786524523935 a1_x6
+0.52496663939931187 a1_x1
+0.39126578570672715 a1_x4
<= 102.947810

a1_local_7: 
+0.67548295231229716 a1_x2
+0.36129754233670180 a1_x5
+0.64279613178434869 a1_x1
<= 88.357633

a1_local_8: 
+0.66733118472078945 a1_x3
+0.67946383872989002 a1_x4
+0.30495570458279586 a1_x5
<= 50.244721

a1_act_1: 
+0.00999950003749688 a1_x1
-0.99995000374968757 a1_z1
<= 0.000000

a1_act_2: 
+0.00999950003749688 a1_x2
-0.99995000374968757 a1_z2
<= 0.000000

a2_local_1: 
+0.42604651335373184 a2_x1
+0.34181990557675468 a2_x5
+0.69280054148141812 a2_x6
<= 68.629977

a2_local_2: 
+0.50707755247316377 a2_x5
+0.25260518017109557 a2_x2
+0.59978817413885155 a2_x4
<= 78.623615

a2_local_3: 
+0.40082642051304895 a2_x4
+0.61416864583252806 a2_x5
+0.27440151894110087 a2_x1
<= 43.545887

a2_local_4: 
+0.33131833870032146 a2_x6
+0.49775957163541323 a2_x1
+0.41043821269162012 a2_x3
<= 66.903780

a2_local_5: 
+0.49939095828780122 a2_x4
+0.33780380892741874 a2_x5
+0.66545087256867985 a2_x3
<= 46.549743

a2_local_6: 
+0.61502114048335610 a2_x5
+0.56105503226920750 a2_x3
+0.55404534789487248 a2_x1
<= 117.366694

a2_local_7: 
+0.57494112959922850 a2_x3
+0.57722434682487278 a2_x1
+0.54644542738999002 a2_x4
<= 66.794389

a2_local_8: 
+0.57453920405693615 a2_x6
+0.50704105562017254 a2_x1
+0.64250608628806261 a2_x3
<= 107.478583

a2_act_1: 
+0.00999950003749688 a2_x1
-0.99995000374968757 a2_z1
<= 0.000000

a2_act_2: 
+0.00999950003749688 a2_x2
-0.99995000374968757 a2_z2
<= 0.000000

a3_local_1: 
+0.71334596601488109 a3_x2
+0.42870852695676342 a3_x1
+0.55438843033098906 a3_x3
<= 90.595528

a3_local_2: 
+0.45891974636093991 a3_x6
+0.40679936417937568 a3_x5
+0.78987780301972421 a3_x2
<= 63.525024

a3_local_3: 
+0.71967027844480624 a3_x3
+0.36149796136872986 a3_x6
+0.59278488024698039 a3_x4
<= 88.686526

a3_local_4: 
+0.57629350813981384 a3_x1
+0.42618038766477873 a3_x4
+0.69732063618238449 a3_x3
<= 82.194671

a3_local_5: 
+0.63894696928891670 a3_x1
+0.58530010573426627 a3_x2
+0.49916986754407028 a3_x3
<= 82.271222

a3_local_6: 
+0.27265474704289944 a3_x5
+0.78045180145997062 a3_x1
+0.56263165082748356 a3_x2
<= 101.234671

a3_local_7: 
+0.72866034966597049 a3_x5
+0.34297230363005615 a3_x6
+0.59281033540868566 a3_x3
<= 75.760307

a3_local_8: 
+0.64330523934530270 a3_x2
+0.29601460997692886 a3_x6
+0.70606920320255395 a3_x4
<= 69.789030

a3_act_1: 
+0.00999950003749688 a3_x1
-0.99995000374968757 a3_z1
<= 0.000000

a3_act_2: 
+0.00999950003749688 a3_x2
-0.99995000374968757 a3_z2
<= 0.000000

a4_local_1: 
+0.65791246880169441 a4_x5
+0.49516223344381732 a4_x4
+0.56742007892406321 a4_x6
<= 56.042117

a4_local_2: 
+0.46674499416990989 a4_x6
+0.78668078385317664 a4_x4
+0.40408223758720513 a4_x2
<= 63.559261

a4_local_3: 
+0.33377120150127304 a4_x1
+0.50195359367288050 a4_x6
+0.79789684474077049 a4_x5
<= 104.062635

a4_local_4: 
+0.72025674452349620 a4_x3
+0.50137787058483607 a4_x5
+0.47942721330378257 a4_x4
<= 97.145671

a4_local_5: 
+0.68103785851420895 a4_x2
+0.28799577571302915 a4_x1
+0.67323537373034015 a4_x5
<= 53.321443

a4_local_6: 
+0.76614781669464860 a4_x6
+0.49577561445159818 a4_x5
+0.40893038905070805 a4_x4
<= 115.237552

a4_local_7: 
+0.69753689818490150 a4_x6
+0.54096086259020282 a4_x1
+0.46989745776738362 a4_x4
<= 66.023181

a4_local_8: 
+0.70757527686791466 a4_x6
+0.64999202479208451 a4_x1
+0.27721398823288151 a4_x2
<= 64.538364

a4_act_1: 
+0.00999950003749688 a4_x1
-0.99995000374968757 a4_z1
<= 0.000000

a4_act_2: 
+0.00999950003749688 a4_x2
-0.99995000374968757 a4_z2
<= 0.000000

coupling_1: 
+0.00572700977595017 a1_x1
+0.04762437718635333 a2_x1
+0.22882830491107792 a3_x1
+0.96610015595288656 a4_x1
+0.07741839444204791 short_1
-0.07741839444204791 surp_1
= 70.561049

coupling_2: 
+0.00418800040122291 a1_x2
+0.04355840913885008 a2_x2
+0.12280704977896895 a3_x2
+0.98444455110223861 a4_x2
+0.08328409204532851 short_2
-0.08328409204532851 surp_2
= 80.827314

coupling_3: 
+0.00898682063834602 a1_x3
+0.04277156867215265 a2_x3
+0.20129243476052669 a3_x3
+0.97279560514675778 a4_x3
+0.07496631337964356 short_3
-0.07496631337964356 surp_3
= 43.584181

bounds
  0.000000 <= a1_x1 <= 100.000000
  0.000000 <= a1_x2 <= 100.000000
  0.000000 <= a1_x3 <= 100.000000
  0.000000 <= a1_x4 <= 100.000000
  0.000000 <= a1_x5 <= 100.000000
  0.000000 <= a1_x6 <= 100.000000
  0.000000 <= a2_x1 <= 100.000000
  0.000000 <= a2_x2 <= 100.000000
  0.000000 <= a2_x3 <= 100.000000
  0.000000 <= a2_x4 <= 100.000000
  0.000000 <= a2_x5 <= 100.000000
  0.000000 <= a2_x6 <= 100.000000
  0.000000 <= a3_x1 <= 100.000000
  0.000000 <= a3_x2 <= 100.000000
  0.000000 <= a3_x3 <= 100.000000
  0.000000 <= a3_x4 <= 100.000000
  0.000000 <= a3_x5 <= 100.000000
  0.000000 <= a3_x6 <= 100.000000
  0.000000 <= a4_x1 <= 100.000000
  0.000000 <= a4_x2 <= 100.000000
  0.000000 <= a4_x3 <= 100.000000
  0.000000 <= a4_x4 <= 100.000000
  0.000000 <= a4_x5 <= 100.000000
  0.000000 <= a4_x6 <= 100.000000
  0.000000 <= short_1 <= +inf
  0.000000 <= surp_1 <= +inf
  0.000000 <= short_2 <= +inf
  0.000000 <= surp_2 <= +inf
  0.000000 <= short_3 <= +inf
  0.000000 <= surp_3 <= +inf
 0 <= a1_z1 <= 1
 0 <= a1_z2 <= 1
 0 <= a2_z1 <= 1
 0 <= a2_z2 <= 1
 0 <= a3_z1 <= 1
 0 <= a3_z2 <= 1
 0 <= a4_z1 <= 1
 0 <= a4_z2 <= 1

binary
  a1_z1
  a1_z2
  a2_z1
  a2_z2
  a3_z1
  a3_z2
  a4_z1
  a4_z2
end
