min
obj: 
  +5.24362332399284625 a1_x1
  +8.06959664561268042 a1_x2
  +3.47810228856863679 a1_x3
  +9.41205830682384104 a1_x4
  +8.31656886029670339 a1_x5
  +6.80028019197109046 a1_x6
  +10.41050343041974102 a1_z1
  +29.39644014342060530 a1_z2
  +8.28066141375753872 a2_x1
  +6.06494311381576523 a2_x2
  +8.65417661359723311 a2_x3
  +4.32929045080204133 a2_x4
  +7.27024404204758401 a2_x5
  +4.53185167774403475 a2_x6
  +14.32924585982750010 a2_z1
  +33.49545064378996528 a2_z2
  +3.46672163395224064 a3_x1
  +8.73068689063360637 a3_x2
  +5.78731633243780319 a3_x3
  +5.65993509091970015 a3_x4
  +4.88699203046912878 a3_x5
  +4.33566741350590856 a3_x6
  +5.90058593924896702 a3_z1
  +40.30367968473242257 a3_z2
  +4.52735162287015491 a4_x1
  +9.79326185053260900 a4_x2
  +5.17425215108361947 a4_x3
  +5.44899982766291835 a4_x4
  +4.65504731238401082 a4_x5
  +5.18157972709797487 a4_x6
  +20.49298729783527051 a4_z1
  +8.57422142752452210 a4_z2
  +1000000.00000000000000000 short_1
  +1000000.00000000000000000 surp_1
  +1000000.00000000000000000 short_2
  +1000000.00000000000000000 surp_2
  +1000000.00000000000000000 short_3
  +1000000.00000000000000000 surp_3

s.t.

a1_local_1: 
+0.71444632207427194 a1_x4
+0.43574013794578387 a1_x6
+0.54744587408942513 a1_x1
<= 111.382878

a1_local_2: 
+0.51791392364174604 a1_x5
+0.28563217064578800 a1_x4
+0.80633704540358753 a1_x1
<= 50.322074

a1_local_3: 
+0.63777507054707416 a1_x3
+0.44182236934932351 a1_x6
+0.63090090611063820 a1_x5
<= 60.070909

a1_local_4: 
+0.33929697537901260 a1_x3
+0.65123208578941427 a1_x5
+0.67880360409843354 a1_x4
<= 95.446497

a1_local_5: 
+0.46140356518349446 a1_x5
+0.60766003031606719 a1_x2
+0.64641785061385582 a1_x1
<= 105.985170

a1_local_6: 
+0.61634174795948904 a1_x3
+0.44824111799900018 a1_x2
+0.64745868583041488 a1_x5
<= 104.823684

a1_local_7: 
+0.36500413164660628 a1_x1
+0.83300487450751204 a1_x5
+0.41578223017299670 a1_x6
<= 100.898320

a1_local_8: 
+0.53847590475921814 a1_x1
+0.69184837387322595 a1_x5
+0.48102965351703048 a1_x3
<= 100.158010

a1_act_1: 
+0.00999950003749688 a1_x1
-0.99995000374968757 a1_z1
<= 0.000000

a1_act_2: 
+0.00999950003749688 a1_x2
-0.99995000374968757 a1_z2
<= 0.000000

a2_local_1: 
+0.33500971416455477 a2_x2
+0.61649091701610470 a2_x5
+0.55874365309521212 a2_x6
<= 77.016831

a2_local_2: 
+0.66344745442923447 a2_x5
+0.50149622458314169 a2_x3
+0.32574793535447438 a2_x4
<= 52.006957

a2_local_3: 
+0.58591545832703640 a2_x3
+0.52869010244594272 a2_x1
+0.47581168389098355 a2_x2
<= 78.916334

a2_local_4: 
+0.27833717259492180 a2_x1
+0.62624213382597171 a2_x3
+0.50749433822435397 a2_x4
<= 98.543096

a2_local_5: 
+0.33676782934670380 a2_x4
+0.48140944719235146 a2_x5
+0.58104999301047666 a2_x2
<= 63.250204

a2_local_6: 
+0.33175991017694112 a2_x6
+0.39217656844989979 a2_x1
+0.44547743238388532 a2_x3
<= 43.535436

a2_local_7: 
+0.52000824122231959 a2_x4
+0.33733296645497685 a2_x6
+0.65264541715230073 a2_x2
<= 100.986228

a2_local_8: 
+0.39070231529925448 a2_x6
+0.47684152191124934 a2_x5
+0.35477976601576117 a2_x4
<= 66.932430

a2_act_1: 
+0.00999950003749688 a2_x1
-0.99995000374968757 a2_z1
<= 0.000000

a2_act_2: 
+0.00999950003749688 a2_x2
-0.99995000374968757 a2_z2
<= 0.000000

a3_local_1: 
+0.75228747269457885 a3_x4
+0.51532305906318088 a3_x1
+0.41049446186832872 a3_x5
<= 100.860431

a3_local_2: 
+0.36688515657882681 a3_x2
+0.33858081319251004 a3_x4
+0.86646310643906144 a3_x3
<= 85.560919

a3_local_3: 
+0.64511379485137166 a3_x4
+0.49493960553075750 a3_x6
+0.58211938515180939 a3_x5
<= 71.402497

a3_local_4: 
+0.77630860263728119 a3_x4
+0.34853725220246684 a3_x2
+0.52523017554069162 a3_x6
<= 96.161252

a3_local_5: 
+0.80818542300958562 a3_x3
+0.41803268102831465 a3_x4
+0.41483129055930273 a3_x2
<= 58.629259

a3_local_6: 
+0.63974129371444322 a3_x4
+0.62238720137125625 a3_x1
+0.45096036265488565 a3_x6
<= 87.688429

a3_local_7: 
+0.78638538747275610 a3_x4
+0.47744873430328560 a3_x5
+0.39197031581678965 a3_x2
<= 110.897026

a3_local_8: 
+0.41632820917113472 a3_x2
+0.68221755016079444 a3_x5
+0.60104079437336000 a3_x3
<= 89.221681

a3_act_1: 
+0.00999950003749688 a3_x1
-0.99995000374968757 a3_z1
<= 0.000000

a3_act_2: 
+0.00999950003749688 a3_x2
-0.99995000374968757 a3_z2
<= 0.000000

a4_local_1: 
+0.80562951948429495 a4_x5
+0.42176101772950608 a4_x6
+0.41602730830953322 a4_x2
<= 57.930044

a4_local_2: 
+0.65725354565990945 a4_x5
+0.35160584100609116 a4_x4
+0.66662666409908689 a4_x1
<= 87.334078

a4_local_3: 
+0.48957808410464171 a4_x6
+0.48669519233211478 a4_x2
+0.72349228698392787 a4_x3
<= 72.199899

a4_local_4: 
+0.53931210015469500 a4_x2
+0.48770524042986796 a4_x6
+0.68650277281594219 a4_x4
<= 102.236599

a4_local_5: 
+0.71518857140941150 a4_x2
+0.40589755795445531 a4_x1
+0.56899251293138686 a4_x3
<= 77.244961

a4_local_6: 
+0.57783038895112515 a4_x3
+0.58408750613795568 a4_x5
+0.57004721451660034 a4_x2
<= 87.122325

a4_local_7: 
+0.35335638496618882 a4_x5
+0.85793641727566383 a4_x2
+0.37294016827880677 a4_x4
<= 77.199909

a4_local_8: 
+0.59212808827821350 a4_x1
+0.69943158707545405 a4_x5
+0.40022466449870348 a4_x4
<= 102.075880

a4_act_1: 
+0.00999950003749688 a4_x1
-0.99995000374968757 a4_z1
<= 0.000000

a4_act_2: 
+0.00999950003749688 a4_x2
-0.99995000374968757 a4_z2
<= 0.000000

coupling_1: 
+0.00755900013951508 a1_x1
+0.02546240122381336 a2_x1
+0.17633402206677279 a3_x1
+0.97855410505055762 a4_x1
+0.07291331768362083 short_1
-0.07291331768362083 surp_1
= 33.219818

coupling_2: 
+0.00726441892197616 a1_x2
+0.02910428693939666 a2_x2
+0.20379364541531367 a3_x2
+0.97160466007953439 a4_x2
+0.08231859844392746 short_2
-0.08231859844392746 surp_2
= 81.483226

coupling_3: 
+0.01506449762315908 a1_x3
+0.04934254701259003 a2_x3
+0.25568262648807244 a3_x3
+0.94811788749516734 a4_x3
+0.12852478338735779 short_3
-0.12852478338735779 surp_3
= 64.695146

bounds
  0.000000 <= a1_x1 <= 100.000000
  0.000000 <= a1_x2 <= 100.000000
  0.000000 <= a1_x3 <= 100.000000
  0.000000 <= a1_x4 <= 100.000000
  0.000000 <= a1_x5 <= 100.000000
  0.000000 <= a1_x6 <= 100.000000
  0.000000 <= a2_x1 <= 100.000000
  0.000000 <= a2_x2 <= 100.000000
  0.000000 <= a2_x3 <= 100.000000
  0.000000 <= a2_x4 <= 100.000000
  0.000000 <= a2_x5 <= 100.000000
  0.000000 <= a2_x6 <= 100.000000
  0.000000 <= a3_x1 <= 100.000000
  0.000000 <= a3_x2 <= 100.000000
  0.000000 <= a3_x3 <= 100.000000
  0.000000 <= a3_x4 <= 100.000000
  0.000000 <= a3_x5 <= 100.000000
  0.000000 <= a3_x6 <= 100.000000
  0.000000 <= a4_x1 <= 100.000000
  0.000000 <= a4_x2 <= 100.000000
  0.000000 <= a4_x3 <= 100.000000
  0.000000 <= a4_x4 <= 100.000000
  0.000000 <= a4_x5 <= 100.000000
  0.000000 <= a4_x6 <= 100.000000
  0.000000 <= short_1 <= +inf
  0.000000 <= surp_1 <= +inf
  0.000000 <= short_2 <= +inf
  0.000000 <= surp_2 <= +inf
  0.000000 <= short_3 <= +inf
  0.000000 <= surp_3 <= +inf
 0 <= a1_z1 <= 1
 0 <= a1_z2 <= 1
 0 <= a2_z1 <= 1
 0 <= a2_z2 <= 1
 0 <= a3_z1 <= 1
 0 <= a3_z2 <= 1
 0 <= a4_z1 <= 1
 0 <= a4_z2 <= 1

binary
  a1_z1
  a1_z2
  a2_z1
  a2_z2
  a3_z1
  a3_z2
  a4_z1
  a4_z2
end
