min
obj: 
  +2.37029411872895501 a1_x1
  +4.08711411622905185 a1_x2
  +7.66136637275760890 a1_x3
  +4.89991689432673461 a1_x4
  +9.18560754331382867 a1_x5
  +7.80552329567271030 a1_x6
  +17.43087311454965516 a1_z1
  +23.40237872614093462 a1_z2
  +7.13711580461956085 a2_x1
  +9.86731097874472596 a2_x2
  +9.26152928173022261 a2_x3
  +3.50078905131847584 a2_x4
  +7.16373731684462012 a2_x5
  +7.92452849914212010 a2_x6
  +12.29105339851766843 a2_z1
  +33.65890549127213660 a2_z2
  +4.07314116822603278 a3_x1
  +2.67328543975586186 a3_x2
  +9.89718173180398963 a3_x3
  +5.22112132820410846 a3_x4
  +8.01142911451852413 a3_x5
  +2.58297506253818687 a3_x6
  +49.51256436548434436 a3_z1
  +27.09261525514139990 a3_z2
  +6.63650565601125653 a4_x1
  +8.20462741556096375 a4_x2
  +7.12140565612760490 a4_x3
  +6.26647229654029836 a4_x4
  +7.50796663445631296 a4_x5
  +5.57360575198759278 a4_x6
  +9.04054185098157959 a4_z1
  +27.56107960188447947 a4_z2
  +1000000.00000000000000000 short_1
  +1000000.00000000000000000 surp_1
  +1000000.00000000000000000 short_2
  +1000000.00000000000000000 surp_2
  +1000000.00000000000000000 short_3
  +1000000.00000000000000000 surp_3

s.t.

a1_local_1: 
+0.00131656490393767 a1_x3
+0.00094617666374969 a1_x2
+0.00052600100211459 a1_x1
<= 0.195068

a1_local_2: 
+0.00111843747468165 a1_x2
+0.00135366897560579 a1_x1
+0.00080495281021142 a1_x5
<= 0.136570

a1_local_3: 
+0.00050525508031606 a1_x4
+0.00098919809361694 a1_x1
+0.00129468130619846 a1_x2
<= 0.194970

a1_local_4: 
+0.00083718510275229 a1_x2
+0.00144747655789337 a1_x5
+0.00057702725861034 a1_x1
<= 0.114359

a1_local_5: 
+0.00062302457661853 a1_x6
+0.00107460802830714 a1_x2
+0.00115481777413384 a1_x5
<= 0.124040

a1_local_6: 
+0.00135826964620306 a1_x1
+0.00092431027187922 a1_x6
+0.00115491810482121 a1_x5
<= 0.123584

a1_local_7: 
+0.00121906794233294 a1_x5
+0.00125797237980321 a1_x4
+0.00124721860775723 a1_x1
<= 0.146119

a1_local_8: 
+0.00142268355326438 a1_x6
+0.00108058798330412 a1_x5
+0.00125238739465301 a1_x2
<= 0.261396

a1_act_1: 
+1.00000000000000000 a1_x1
-100.00000000000000000 a1_z1
<= 0.000000

a1_act_2: 
+1.00000000000000000 a1_x2
-100.00000000000000000 a1_z2
<= 0.000000

a2_local_1: 
+0.13138834305275113 a2_x6
+0.13718789300770001 a2_x1
+0.14549032231069314 a2_x3
<= 28.116935

a2_local_2: 
+0.11969992633923365 a2_x5
+0.10849272736500531 a2_x4
+0.07746391384514953 a2_x2
<= 13.210602

a2_local_3: 
+0.13481162065535746 a2_x1
+0.06705770899386503 a2_x6
+0.13333699700166540 a2_x3
<= 18.277703

a2_local_4: 
+0.05275200623792119 a2_x6
+0.12473534754064459 a2_x2
+0.13783923000771867 a2_x1
<= 20.141158

a2_local_5: 
+0.12129920417471377 a2_x1
+0.07726461008061061 a2_x6
+0.12780732723856145 a2_x2
<= 12.649950

a2_local_6: 
+0.11526951981669993 a2_x2
+0.10052343018951140 a2_x3
+0.11563082659554345 a2_x5
<= 18.012543

a2_local_7: 
+0.06962694543571762 a2_x1
+0.13895653152092005 a2_x4
+0.13426953772475719 a2_x3
<= 16.525050

a2_local_8: 
+0.05815584645110830 a2_x1
+0.05082431989777088 a2_x5
+0.10320230749310455 a2_x3
<= 11.986747

a2_act_1: 
+1.00000000000000000 a2_x1
-100.00000000000000000 a2_z1
<= 0.000000

a2_act_2: 
+1.00000000000000000 a2_x2
-100.00000000000000000 a2_z2
<= 0.000000

a3_local_1: 
+7.78110116539677144 a3_x2
+6.33283697608023211 a3_x1
+8.66867050585020493 a3_x5
<= 1523.019109

a3_local_2: 
+12.24100048433673926 a3_x6
+12.61238675039034973 a3_x5
+10.10780229397685304 a3_x3
<= 1493.702663

a3_local_3: 
+8.31789984169865804 a3_x5
+9.07415186583893529 a3_x1
+10.67646692946045306 a3_x4
<= 1273.369576

a3_local_4: 
+7.44483659944437548 a3_x5
+11.58044090882483168 a3_x2
+9.19863139643443972 a3_x6
<= 1103.642304

a3_local_5: 
+14.95574037232779574 a3_x5
+8.72163325949453849 a3_x1
+11.72101756331965916 a3_x6
<= 2054.541496

a3_local_6: 
+8.79097267489994039 a3_x2
+12.44470758299417312 a3_x3
+10.08410841756331955 a3_x1
<= 2147.908782

a3_local_7: 
+12.52055956509572709 a3_x4
+6.62880440927359871 a3_x3
+14.44921708458854148 a3_x6
<= 1424.211438

a3_local_8: 
+8.03575325773653404 a3_x5
+8.26916588717772072 a3_x6
+8.71275383477451371 a3_x4
<= 1313.494202

a3_act_1: 
+1.00000000000000000 a3_x1
-100.00000000000000000 a3_z1
<= 0.000000

a3_act_2: 
+1.00000000000000000 a3_x2
-100.00000000000000000 a3_z2
<= 0.000000

a4_local_1: 
+980.89186016257622214 a4_x2
+1418.00838728887651996 a4_x3
+661.40910047170928010 a4_x1
<= 119822.497062

a4_local_2: 
+929.65329186269696038 a4_x2
+1186.37835085954793612 a4_x1
+1073.94764956990366045 a4_x6
<= 116661.560562

a4_local_3: 
+772.21997377676052565 a4_x5
+501.20137467573920276 a4_x3
+1003.62716520071717241 a4_x2
<= 122470.982022

a4_local_4: 
+1331.22799077136482993 a4_x2
+1024.67540410281185359 a4_x3
+1298.32875659888259179 a4_x4
<= 157083.871296

a4_local_5: 
+758.05903955648705050 a4_x1
+542.90918198984354603 a4_x3
+590.12186490742919887 a4_x2
<= 75496.751216

a4_local_6: 
+546.57744812032353821 a4_x2
+826.82086774620495362 a4_x6
+1474.10646434502541524 a4_x3
<= 151620.541085

a4_local_7: 
+1422.63321004973045092 a4_x4
+1139.25643580332780402 a4_x2
+511.99038198756528573 a4_x5
<= 129959.050993

a4_local_8: 
+1337.02989581411156905 a4_x5
+1310.61792079009433110 a4_x2
+613.95194443455204691 a4_x4
<= 174928.917930

a4_act_1: 
+1.00000000000000000 a4_x1
-100.00000000000000000 a4_z1
<= 0.000000

a4_act_2: 
+1.00000000000000000 a4_x2
-100.00000000000000000 a4_z2
<= 0.000000

coupling_1: 
+0.09854607830458584 a1_x1
+5.35642143384641223 a2_x1
+740.36803482478330807 a3_x1
+86560.20722889804164879 a4_x1
+69.65874967369205706 short_1
-69.65874967369205706 surp_1
= 5876493.804105

coupling_2: 
+0.11277844287351438 a1_x2
+9.00984213652397870 a2_x2
+1187.81743074436099050 a3_x2
+97048.49688164361577947 a4_x2
+79.91168049773078508 short_2
-79.91168049773078508 surp_2
= 6439843.356348

coupling_3: 
+1.64087609530726541 a1_x3
+122.09847952197573306 a2_x3
+15361.21252817849563144 a3_x3
+1936375.52825214387848973 a4_x3
+1515.67084532085800674 short_3
-1515.67084532085800674 surp_3
= 142514529.186954

bounds
  0.000000 <= a1_x1 <= 100.000000
  0.000000 <= a1_x2 <= 100.000000
  0.000000 <= a1_x3 <= 100.000000
  0.000000 <= a1_x4 <= 100.000000
  0.000000 <= a1_x5 <= 100.000000
  0.000000 <= a1_x6 <= 100.000000
  0.000000 <= a2_x1 <= 100.000000
  0.000000 <= a2_x2 <= 100.000000
  0.000000 <= a2_x3 <= 100.000000
  0.000000 <= a2_x4 <= 100.000000
  0.000000 <= a2_x5 <= 100.000000
  0.000000 <= a2_x6 <= 100.000000
  0.000000 <= a3_x1 <= 100.000000
  0.000000 <= a3_x2 <= 100.000000
  0.000000 <= a3_x3 <= 100.000000
  0.000000 <= a3_x4 <= 100.000000
  0.000000 <= a3_x5 <= 100.000000
  0.000000 <= a3_x6 <= 100.000000
  0.000000 <= a4_x1 <= 100.000000
  0.000000 <= a4_x2 <= 100.000000
  0.000000 <= a4_x3 <= 100.000000
  0.000000 <= a4_x4 <= 100.000000
  0.000000 <= a4_x5 <= 100.000000
  0.000000 <= a4_x6 <= 100.000000
  0.000000 <= short_1 <= +inf
  0.000000 <= surp_1 <= +inf
  0.000000 <= short_2 <= +inf
  0.000000 <= surp_2 <= +inf
  0.000000 <= short_3 <= +inf
  0.000000 <= surp_3 <= +inf
 0 <= a1_z1 <= 1
 0 <= a1_z2 <= 1
 0 <= a2_z1 <= 1
 0 <= a2_z2 <= 1
 0 <= a3_z1 <= 1
 0 <= a3_z2 <= 1
 0 <= a4_z1 <= 1
 0 <= a4_z2 <= 1

binary
  a1_z1
  a1_z2
  a2_z1
  a2_z2
  a3_z1
  a3_z2
  a4_z1
  a4_z2
end
