min
obj: 
  +7.78207569299738466 a1_x1
  +2.62040292120299334 a1_x2
  +1.02293933329670939 a1_x3
  +7.19109322240713489 a1_x4
  +4.26327457704359070 a1_x5
  +6.02462654690972954 a1_x6
  +42.77102711119731282 a1_z1
  +28.11411837117618262 a1_z2
  +1.09429072695693774 a2_x1
  +2.39250112218893918 a2_x2
  +1.83547081268154932 a2_x3
  +3.26801901615166557 a2_x4
  +8.57451293041723162 a2_x5
  +5.28554157085463672 a2_x6
  +40.37542851028292290 a2_z1
  +37.67992106218490278 a2_z2
  +8.27637474833418807 a3_x1
  +6.90983361892269166 a3_x2
  +7.22469297213641504 a3_x3
  +2.76350562177570946 a3_x4
  +4.58041526640907559 a3_x5
  +5.53917660184281146 a3_x6
  +12.64013062893968176 a3_z1
  +24.71990871554554658 a3_z2
  +3.79335491985486684 a4_x1
  +7.87721431876430422 a4_x2
  +7.82223412443215427 a4_x3
  +1.26243572521241743 a4_x4
  +2.93412910760232926 a4_x5
  +4.86803560394161750 a4_x6
  +47.52172151037576953 a4_z1
  +34.58728502900768120 a4_z2
  +1000000.00000000000000000 short_1
  +1000000.00000000000000000 surp_1
  +1000000.00000000000000000 short_2
  +1000000.00000000000000000 surp_2
  +1000000.00000000000000000 short_3
  +1000000.00000000000000000 surp_3

s.t.

a1_local_1: 
+0.00088679212429721 a1_x4
+0.00136253716212662 a1_x6
+0.00063307816455165 a1_x3
<= 0.144082

a1_local_2: 
+0.00071640751935760 a1_x6
+0.00138336210761800 a1_x2
+0.00096983152520084 a1_x4
<= 0.203979

a1_local_3: 
+0.00144501040046799 a1_x2
+0.00144901562289024 a1_x5
+0.00106484249900393 a1_x4
<= 0.262069

a1_local_4: 
+0.00101420736818113 a1_x2
+0.00055163413817396 a1_x1
+0.00086355839508214 a1_x3
<= 0.140361

a1_local_5: 
+0.00149689064238937 a1_x3
+0.00057194387692118 a1_x2
+0.00097784473755249 a1_x6
<= 0.133043

a1_local_6: 
+0.00110939555193016 a1_x4
+0.00128964608771894 a1_x5
+0.00089569905112335 a1_x2
<= 0.120927

a1_local_7: 
+0.00080763814962739 a1_x1
+0.00146989897913951 a1_x5
+0.00078620916609129 a1_x3
<= 0.202057

a1_local_8: 
+0.00105167623006095 a1_x1
+0.00119977494284662 a1_x5
+0.00122158788161470 a1_x4
<= 0.110897

a1_act_1: 
+1.00000000000000000 a1_x1
-100.00000000000000000 a1_z1
<= 0.000000

a1_act_2: 
+1.00000000000000000 a1_x2
-100.00000000000000000 a1_z2
<= 0.000000

a2_local_1: 
+0.07948821028524949 a2_x2
+0.09178893879364121 a2_x3
+0.07364286623179833 a2_x4
<= 17.071841

a2_local_2: 
+0.06273788209646479 a2_x1
+0.10924654695846470 a2_x4
+0.05442213630423625 a2_x5
<= 13.966608

a2_local_3: 
+0.08680548137901799 a2_x5
+0.08635543450346202 a2_x2
+0.13231862361115043 a2_x6
<= 10.278533

a2_local_4: 
+0.05148000698419878 a2_x5
+0.07138037223397058 a2_x4
+0.10723904884267449 a2_x6
<= 10.439724

a2_local_5: 
+0.08460305397674958 a2_x1
+0.10759052044235046 a2_x3
+0.07277762443781331 a2_x2
<= 17.844967

a2_local_6: 
+0.06508689581806064 a2_x5
+0.05581109805203494 a2_x6
+0.05091385540658788 a2_x1
<= 5.173444

a2_local_7: 
+0.14789538400210503 a2_x5
+0.12386731143346950 a2_x6
+0.12435921567305015 a2_x3
<= 22.615091

a2_local_8: 
+0.05137857822628467 a2_x5
+0.05752113415954320 a2_x2
+0.05076342289399990 a2_x4
<= 5.704813

a2_act_1: 
+1.00000000000000000 a2_x1
-100.00000000000000000 a2_z1
<= 0.000000

a2_act_2: 
+1.00000000000000000 a2_x2
-100.00000000000000000 a2_z2
<= 0.000000

a3_local_1: 
+14.95686817670387647 a3_x1
+14.80299873907730301 a3_x5
+8.89634495226159316 a3_x3
<= 2165.426893

a3_local_2: 
+7.20257528924504431 a3_x1
+7.08065462127734602 a3_x3
+6.27649130539688382 a3_x5
<= 1207.841959

a3_local_3: 
+13.36846942361925983 a3_x5
+11.46319646397712155 a3_x2
+5.75808432919016511 a3_x4
<= 1461.225262

a3_local_4: 
+14.96842657635847118 a3_x6
+10.69798773293026173 a3_x3
+7.91137240808054809 a3_x4
<= 2074.390951

a3_local_5: 
+12.13526930422180961 a3_x2
+14.19606152916235686 a3_x4
+13.00414073999897724 a3_x1
<= 2138.356085

a3_local_6: 
+6.17474098227095425 a3_x6
+5.11756231178546628 a3_x4
+14.64860145892930987 a3_x5
<= 1355.178896

a3_local_7: 
+5.52256360401315671 a3_x6
+13.22103849913922602 a3_x5
+6.22299543609049799 a3_x3
<= 1323.842237

a3_local_8: 
+11.41890615360567907 a3_x4
+11.62046405785646108 a3_x6
+5.34711506366408873 a3_x2
<= 1732.053927

a3_act_1: 
+1.00000000000000000 a3_x1
-100.00000000000000000 a3_z1
<= 0.000000

a3_act_2: 
+1.00000000000000000 a3_x2
-100.00000000000000000 a3_z2
<= 0.000000

a4_local_1: 
+588.02134406814275280 a4_x2
+1307.43596039827821187 a4_x3
+984.01070193230896166 a4_x4
<= 158670.785549

a4_local_2: 
+1128.39193792559444773 a4_x4
+809.52130996422863518 a4_x6
+1364.41711560527573965 a4_x1
<= 125599.404737

a4_local_3: 
+955.38318524557257660 a4_x3
+572.34232897860499634 a4_x2
+860.73719826550427570 a4_x5
<= 154601.668329

a4_local_4: 
+887.26609320833006223 a4_x2
+1075.48491261303206556 a4_x1
+748.65572510366132519 a4_x5
<= 104755.641396

a4_local_5: 
+1013.49943502618543789 a4_x6
+1367.30892418768553398 a4_x2
+578.20455843654701766 a4_x3
<= 189571.411306

a4_local_6: 
+711.78231781487852459 a4_x5
+1419.43142212943666891 a4_x6
+918.51659711587683432 a4_x2
<= 122918.729063

a4_local_7: 
+1329.15936205493062516 a4_x6
+1369.26733843696320037 a4_x5
+1061.90804019818642701 a4_x3
<= 176346.211962

a4_local_8: 
+1107.69236675839010786 a4_x5
+1430.76696642229308054 a4_x6
+1314.32958147866224863 a4_x4
<= 124914.533155

a4_act_1: 
+1.00000000000000000 a4_x1
-100.00000000000000000 a4_z1
<= 0.000000

a4_act_2: 
+1.00000000000000000 a4_x2
-100.00000000000000000 a4_z2
<= 0.000000

coupling_1: 
+0.01488564332771464 a1_x1
+1.49420135324962433 a2_x1
+267.69720911691109677 a3_x1
+27711.34537387565069366 a4_x1
+20.19879034037948529 short_1
-20.19879034037948529 surp_1
= 1815201.660355

coupling_2: 
+0.12212903973865308 a1_x2
+27.36639372735778863 a2_x2
+1662.27239531134659956 a3_x2
+287080.36338047741446644 a4_x2
+242.87022952604027637 short_2
-242.87022952604027637 surp_2
= 20208271.727108

coupling_3: 
+1.05497288622679775 a1_x3
+106.96628327188976471 a2_x3
+11137.15813059297761356 a3_x3
+651624.80807027057744563 a4_x3
+858.26013415297245501 short_3
-858.26013415297245501 surp_3
= 33951832.712547

bounds
  0.000000 <= a1_x1 <= 100.000000
  0.000000 <= a1_x2 <= 100.000000
  0.000000 <= a1_x3 <= 100.000000
  0.000000 <= a1_x4 <= 100.000000
  0.000000 <= a1_x5 <= 100.000000
  0.000000 <= a1_x6 <= 100.000000
  0.000000 <= a2_x1 <= 100.000000
  0.000000 <= a2_x2 <= 100.000000
  0.000000 <= a2_x3 <= 100.000000
  0.000000 <= a2_x4 <= 100.000000
  0.000000 <= a2_x5 <= 100.000000
  0.000000 <= a2_x6 <= 100.000000
  0.000000 <= a3_x1 <= 100.000000
  0.000000 <= a3_x2 <= 100.000000
  0.000000 <= a3_x3 <= 100.000000
  0.000000 <= a3_x4 <= 100.000000
  0.000000 <= a3_x5 <= 100.000000
  0.000000 <= a3_x6 <= 100.000000
  0.000000 <= a4_x1 <= 100.000000
  0.000000 <= a4_x2 <= 100.000000
  0.000000 <= a4_x3 <= 100.000000
  0.000000 <= a4_x4 <= 100.000000
  0.000000 <= a4_x5 <= 100.000000
  0.000000 <= a4_x6 <= 100.000000
  0.000000 <= short_1 <= +inf
  0.000000 <= surp_1 <= +inf
  0.000000 <= short_2 <= +inf
  0.000000 <= surp_2 <= +inf
  0.000000 <= short_3 <= +inf
  0.000000 <= surp_3 <= +inf
 0 <= a1_z1 <= 1
 0 <= a1_z2 <= 1
 0 <= a2_z1 <= 1
 0 <= a2_z2 <= 1
 0 <= a3_z1 <= 1
 0 <= a3_z2 <= 1
 0 <= a4_z1 <= 1
 0 <= a4_z2 <= 1

binary
  a1_z1
  a1_z2
  a2_z1
  a2_z2
  a3_z1
  a3_z2
  a4_z1
  a4_z2
end
