min
obj: 
  +7.78207569299738466 a1_x1
  +2.62040292120299334 a1_x2
  +1.02293933329670939 a1_x3
  +7.19109322240713489 a1_x4
  +4.26327457704359070 a1_x5
  +6.02462654690972954 a1_x6
  +42.77102711119731282 a1_z1
  +28.11411837117618262 a1_z2
  +1.09429072695693774 a2_x1
  +2.39250112218893918 a2_x2
  +1.83547081268154932 a2_x3
  +3.26801901615166557 a2_x4
  +8.57451293041723162 a2_x5
  +5.28554157085463672 a2_x6
  +40.37542851028292290 a2_z1
  +37.67992106218490278 a2_z2
  +8.27637474833418807 a3_x1
  +6.90983361892269166 a3_x2
  +7.22469297213641504 a3_x3
  +2.76350562177570946 a3_x4
  +4.58041526640907559 a3_x5
  +5.53917660184281146 a3_x6
  +12.64013062893968176 a3_z1
  +24.71990871554554658 a3_z2
  +3.79335491985486684 a4_x1
  +7.87721431876430422 a4_x2
  +7.82223412443215427 a4_x3
  +1.26243572521241743 a4_x4
  +2.93412910760232926 a4_x5
  +4.86803560394161750 a4_x6
  +47.52172151037576953 a4_z1
  +34.58728502900768120 a4_z2
  +1000000.00000000000000000 short_1
  +1000000.00000000000000000 surp_1
  +1000000.00000000000000000 short_2
  +1000000.00000000000000000 surp_2
  +1000000.00000000000000000 short_3
  +1000000.00000000000000000 surp_3

s.t.

a1_local_1: 
+0.95481444815371730 a1_x4
+1.46705201016064590 a1_x6
+0.68163909191637828 a1_x3
<= 155.134012

a1_local_2: 
+0.71963475570136215 a1_x6
+1.38959380724377501 a1_x2
+0.97420037318314223 a1_x4
<= 204.897650

a1_local_3: 
+1.16330006131659158 a1_x2
+1.16652445021225737 a1_x5
+0.85724735543952202 a1_x4
<= 210.978033

a1_local_4: 
+1.35593169725202278 a1_x2
+0.73750027529161954 a1_x1
+1.15452346044368270 a1_x3
<= 187.654034

a1_local_5: 
+1.61777578015929646 a1_x3
+0.61813263139687602 a1_x2
+1.05681302853461623 a1_x6
<= 143.787671

a1_local_6: 
+1.03221482129353936 a1_x4
+1.19992531396999613 a1_x5
+0.83338520186015930 a1_x2
<= 112.514394

a1_local_7: 
+0.75128380929014060 a1_x1
+1.36733425090074290 a1_x5
+0.73135006991980300 a1_x3
<= 187.957693

a1_local_8: 
+0.92785192085900026 a1_x1
+1.05851349826002683 a1_x5
+1.07775818265721268 a1_x4
<= 97.840018

a1_act_1: 
+0.10000000000000001 a1_x1
-10.00000000000000000 a1_z1
<= 0.000000

a1_act_2: 
+0.10000000000000001 a1_x2
-10.00000000000000000 a1_z2
<= 0.000000

a2_local_1: 
+0.96681237961033728 a2_x2
+1.11642571921707612 a2_x3
+0.89571566006314962 a2_x4
<= 207.644221

a2_local_2: 
+0.81365107293509698 a2_x1
+1.41682452733319209 a2_x4
+0.70580370448713448 a2_x5
<= 181.133720

a2_local_3: 
+0.81206693121382045 a2_x5
+0.80785673412339287 a2_x2
+1.23784324343734298 a2_x6
<= 96.155872

a2_local_4: 
+0.69285574422466201 a2_x5
+0.96068947586547815 a2_x4
+1.44330188258603065 a2_x6
<= 140.505480

a2_local_5: 
+0.95609291175455691 a2_x1
+1.21587258534644116 a2_x3
+0.82245459931565768 a2_x2
<= 201.664665

a2_local_6: 
+1.13065156242701748 a2_x5
+0.96951781799049419 a2_x6
+0.88444577731218488 a2_x1
<= 89.870046

a2_local_7: 
+1.09269499554935479 a2_x5
+0.91516846336177093 a2_x6
+0.91880279789158714 a2_x3
<= 167.087004

a2_local_8: 
+0.95080818726687977 a2_x5
+1.06448187528456595 a2_x2
+0.93942416796215711 a2_x4
<= 105.572854

a2_act_1: 
+0.10000000000000001 a2_x1
-10.00000000000000000 a2_z1
<= 0.000000

a2_act_2: 
+0.10000000000000001 a2_x2
-10.00000000000000000 a2_z2
<= 0.000000

a3_local_1: 
+1.29662540308743868 a3_x1
+1.28328631236147084 a3_x5
+0.77123276901629867 a3_x3
<= 187.722957

a3_local_2: 
+1.07123668672700489 a3_x1
+1.05310346532322696 a3_x3
+0.93350051617009377 a3_x5
<= 179.641943

a3_local_3: 
+1.52370829924245221 a3_x5
+1.30654954090323439 a3_x2
+0.65629359667934717 a3_x4
<= 166.547193

a3_local_4: 
+1.37550496238336950 a3_x6
+0.98307829076727826 a3_x3
+0.72700573778176447 a3_x4
<= 190.623579

a3_local_5: 
+0.92457207616445103 a3_x2
+1.08158144268044398 a3_x4
+0.99077038187629929 a3_x1
<= 162.918867

a3_local_6: 
+0.71316347611818398 a3_x6
+0.59106261104770375 a3_x4
+1.69186813936246661 a3_x5
<= 156.518969

a3_local_7: 
+0.64630509300298700 a3_x6
+1.54725687732647676 a3_x5
+0.72827656365187809 a3_x3
<= 154.929131

a3_local_8: 
+1.44861508372812420 a3_x4
+1.47418494273341216 a3_x6
+0.67834094014405999 a3_x2
<= 219.730280

a3_act_1: 
+0.10000000000000001 a3_x1
-10.00000000000000000 a3_z1
<= 0.000000

a3_act_2: 
+0.10000000000000001 a3_x2
-10.00000000000000000 a3_z2
<= 0.000000

a4_local_1: 
+0.67063518076601991 a4_x2
+1.49112368196635536 a4_x3
+1.12225891393765176 a4_x4
<= 180.963178

a4_local_2: 
+1.07367354510628710 a4_x4
+0.77026570777014081 a4_x6
+1.29825330390849381 a4_x1
<= 119.508793

a4_local_3: 
+1.29199509091322362 a4_x3
+0.77399674892972548 a4_x2
+1.16400231017210798 a4_x5
<= 209.072757

a4_local_4: 
+0.98880498936821370 a4_x2
+1.19856360535159845 a4_x1
+0.83433202504647241 a4_x5
<= 116.743896

a4_local_5: 
+1.13985453417821359 a4_x6
+1.53777419404027715 a4_x2
+0.65029053282045668 a4_x3
<= 213.205677

a4_local_6: 
+0.70813553775724347 a4_x5
+1.41215903832072764 a4_x6
+0.91381062462241536 a4_x2
<= 122.288961

a4_local_7: 
+1.10227377679820027 a4_x6
+1.13553537948367955 a4_x5
+0.88064186996506733 a4_x3
<= 146.244168

a4_local_8: 
+0.87988340984292235 a4_x5
+1.13651421178462853 a4_x6
+1.04402343873974979 a4_x4
<= 99.224504

a4_act_1: 
+0.10000000000000001 a4_x1
-10.00000000000000000 a4_z1
<= 0.000000

a4_act_2: 
+0.10000000000000001 a4_x2
-10.00000000000000000 a4_z2
<= 0.000000

coupling_1: 
+0.00073291734350631 a1_x1
+0.07356928164792854 a2_x1
+13.18048021510276868 a3_x1
+1364.41033748219979316 a4_x1
+0.99451823696118735 short_1
-0.99451823696118735 surp_1
= 89374.221157

coupling_2: 
+0.00065224044790911 a1_x2
+0.14615253620748561 a2_x2
+8.87750607050487872 a3_x2
+1533.17691842893486864 a4_x2
+1.29706896597924781 short_2
-1.29706896597924781 surp_2
= 107923.981315

coupling_3: 
+0.00127239467818997 a1_x3
+0.12901121095888901 a2_x3
+13.43244070111600941 a3_x3
+785.91966560449452572 a4_x3
+1.03514094196737938 short_3
-1.03514094196737938 surp_3
= 40949.044115

bounds
  0.000000 <= a1_x1 <= 100.000000
  0.000000 <= a1_x2 <= 100.000000
  0.000000 <= a1_x3 <= 100.000000
  0.000000 <= a1_x4 <= 100.000000
  0.000000 <= a1_x5 <= 100.000000
  0.000000 <= a1_x6 <= 100.000000
  0.000000 <= a2_x1 <= 100.000000
  0.000000 <= a2_x2 <= 100.000000
  0.000000 <= a2_x3 <= 100.000000
  0.000000 <= a2_x4 <= 100.000000
  0.000000 <= a2_x5 <= 100.000000
  0.000000 <= a2_x6 <= 100.000000
  0.000000 <= a3_x1 <= 100.000000
  0.000000 <= a3_x2 <= 100.000000
  0.000000 <= a3_x3 <= 100.000000
  0.000000 <= a3_x4 <= 100.000000
  0.000000 <= a3_x5 <= 100.000000
  0.000000 <= a3_x6 <= 100.000000
  0.000000 <= a4_x1 <= 100.000000
  0.000000 <= a4_x2 <= 100.000000
  0.000000 <= a4_x3 <= 100.000000
  0.000000 <= a4_x4 <= 100.000000
  0.000000 <= a4_x5 <= 100.000000
  0.000000 <= a4_x6 <= 100.000000
  0.000000 <= short_1 <= +inf
  0.000000 <= surp_1 <= +inf
  0.000000 <= short_2 <= +inf
  0.000000 <= surp_2 <= +inf
  0.000000 <= short_3 <= +inf
  0.000000 <= surp_3 <= +inf
 0 <= a1_z1 <= 1
 0 <= a1_z2 <= 1
 0 <= a2_z1 <= 1
 0 <= a2_z2 <= 1
 0 <= a3_z1 <= 1
 0 <= a3_z2 <= 1
 0 <= a4_z1 <= 1
 0 <= a4_z2 <= 1

binary
  a1_z1
  a1_z2
  a2_z1
  a2_z2
  a3_z1
  a3_z2
  a4_z1
  a4_z2
end
