min
obj: 
  +2.86702301288668870 a1_x1
  +4.61217347674817457 a1_x2
  +8.37266539443051627 a1_x3
  +3.88741117842564377 a1_x4
  +3.57352147071314707 a1_x5
  +7.90632682258909369 a1_x6
  +32.52167325628295202 a1_z1
  +46.95512094955829951 a1_z2
  +6.18957109820114049 a2_x1
  +7.65671715801393571 a2_x2
  +8.20437447093011585 a2_x3
  +3.61886914738285226 a2_x4
  +5.28592570462095690 a2_x5
  +3.39477691808076010 a2_x6
  +12.60548138304202581 a2_z1
  +31.13088232979415793 a2_z2
  +1.00384692741400694 a3_x1
  +6.98746639113835144 a3_x2
  +2.08920162411281263 a3_x3
  +9.36108080061404380 a3_x4
  +4.85098195997041159 a3_x5
  +1.72431460157976346 a3_x6
  +35.01946721881928681 a3_z1
  +33.01267747284549614 a3_z2
  +2.50332166724604033 a4_x1
  +6.42161923356443864 a4_x2
  +2.38773349159600956 a4_x3
  +7.47586240964883597 a4_x4
  +7.41060969147519710 a4_x5
  +8.58602476997859654 a4_x6
  +17.16287865875343854 a4_z1
  +23.31726507162430551 a4_z2
  +1000000.00000000000000000 short_1
  +1000000.00000000000000000 surp_1
  +1000000.00000000000000000 short_2
  +1000000.00000000000000000 surp_2
  +1000000.00000000000000000 short_3
  +1000000.00000000000000000 surp_3

s.t.

a1_local_1: 
+0.75472573801036946 a1_x3
+1.32498462638392334 a1_x1
+1.17726940492991550 a1_x2
<= 195.876542

a1_local_2: 
+0.83501334719060161 a1_x6
+1.19758564742048157 a1_x4
+0.89946252450197961 a1_x3
<= 114.840219

a1_local_3: 
+0.86023087927746555 a1_x5
+1.16247861369488481 a1_x6
+1.11929804140982858 a1_x4
<= 115.254113

a1_local_4: 
+1.20889444057699236 a1_x3
+1.39445729136045382 a1_x6
+0.71712486728394842 a1_x4
<= 111.928132

a1_local_5: 
+1.39104089118424756 a1_x4
+1.10590084617047002 a1_x5
+0.71888612788992934 a1_x2
<= 117.761669

a1_local_6: 
+1.09884614159380267 a1_x5
+1.06563975392349031 a1_x4
+0.91004551242230036 a1_x2
<= 149.558708

a1_local_7: 
+1.10034232255426989 a1_x2
+1.40128976124175941 a1_x3
+0.71362827850383015 a1_x6
<= 200.053802

a1_local_8: 
+1.33173245233488435 a1_x2
+1.28005771666042678 a1_x5
+0.75090157805100521 a1_x1
<= 175.583995

a1_act_1: 
+0.10000000000000001 a1_x1
-10.00000000000000000 a1_z1
<= 0.000000

a1_act_2: 
+0.10000000000000001 a1_x2
-10.00000000000000000 a1_z2
<= 0.000000

a2_local_1: 
+1.09096204252827245 a2_x4
+0.91662217475736318 a2_x3
+1.08784003028169596 a2_x1
<= 166.799313

a2_local_2: 
+1.19734608056762992 a2_x6
+0.70713748685113853 a2_x2
+1.41415215371054503 a2_x5
<= 129.783223

a2_local_3: 
+1.27621351566961860 a2_x6
+1.05941818949947630 a2_x4
+0.78356794354689807 a2_x5
<= 187.659235

a2_local_4: 
+1.26408441133474336 a2_x3
+0.79108641087038067 a2_x4
+0.91668418827015519 a2_x1
<= 193.362131

a2_local_5: 
+0.87198419583563436 a2_x5
+0.84711582467920155 a2_x4
+1.18047611774776473 a2_x3
<= 195.287760

a2_local_6: 
+0.71387563931575115 a2_x6
+1.40080420864129596 a2_x4
+1.27589176230556078 a2_x3
<= 189.959994

a2_local_7: 
+0.92871378714409647 a2_x6
+0.97454969749439158 a2_x3
+1.07675799998093824 a2_x5
<= 111.062357

a2_local_8: 
+0.78168112142113433 a2_x5
+1.27929404023721505 a2_x3
+1.04273300432338911 a2_x4
<= 130.612004

a2_act_1: 
+0.10000000000000001 a2_x1
-10.00000000000000000 a2_z1
<= 0.000000

a2_act_2: 
+0.10000000000000001 a2_x2
-10.00000000000000000 a2_z2
<= 0.000000

a3_local_1: 
+0.93126784523215711 a3_x4
+1.07380492639119129 a3_x2
+0.94722641192316093 a3_x6
<= 98.044679

a3_local_2: 
+0.91186650051630258 a3_x4
+1.58558686633874757 a3_x6
+0.63068130875042094 a3_x3
<= 116.805121

a3_local_3: 
+1.09498483622458131 a3_x4
+0.91325465606256129 a3_x2
+0.95963247686136788 a3_x3
<= 93.204458

a3_local_4: 
+1.07014660432455577 a3_x2
+1.39394002134971040 a3_x4
+0.71739098145107405 a3_x3
<= 164.955860

a3_local_5: 
+0.90265322112945079 a3_x4
+1.10784515757750612 a3_x6
+0.95875510752175996 a3_x1
<= 111.895866

a3_local_6: 
+0.90638225907679659 a3_x3
+1.05355645056875891 a3_x4
+1.10328726096046803 a3_x1
<= 104.618213

a3_local_7: 
+1.02241018488976687 a3_x4
+0.82643913357730192 a3_x1
+1.21001046461997408 a3_x6
<= 178.266010

a3_local_8: 
+1.00859539514839303 a3_x2
+0.99147785604639938 a3_x3
+0.99814337026916689 a3_x1
<= 116.232827

a3_act_1: 
+0.10000000000000001 a3_x1
-10.00000000000000000 a3_z1
<= 0.000000

a3_act_2: 
+0.10000000000000001 a3_x2
-10.00000000000000000 a3_z2
<= 0.000000

a4_local_1: 
+0.89633879767285596 a4_x1
+1.11564957647295548 a4_x4
+0.98904099682244995 a4_x5
<= 94.340779

a4_local_2: 
+0.92326042774078854 a4_x6
+1.08311801302585087 a4_x2
+1.00301281519550378 a4_x3
<= 117.338260

a4_local_3: 
+1.01295713808790366 a4_x1
+0.98720860182459269 a4_x4
+1.00762777197440689 a4_x5
<= 147.181969

a4_local_4: 
+0.71017452675661286 a4_x2
+1.40810457475436124 a4_x6
+1.32700371764590175 a4_x5
<= 120.320504

a4_local_5: 
+0.84812426917146078 a4_x2
+0.73876325011160282 a4_x5
+1.35361362364591464 a4_x1
<= 159.211268

a4_local_6: 
+0.84123829877085554 a4_x5
+1.18872381519138304 a4_x6
+0.98031800258427504 a4_x4
<= 209.602465

a4_local_7: 
+0.70970419192545464 a4_x1
+1.13979625326221057 a4_x5
+1.40903775316158342 a4_x2
<= 109.529798

a4_local_8: 
+1.01436104398474036 a4_x1
+0.94029390323611650 a4_x6
+1.06349727096857571 a4_x5
<= 149.223657

a4_act_1: 
+0.10000000000000001 a4_x1
-10.00000000000000000 a4_z1
<= 0.000000

a4_act_2: 
+0.10000000000000001 a4_x2
-10.00000000000000000 a4_z2
<= 0.000000

coupling_1: 
+0.00000060495143134 a1_x1
+0.00010215566228821 a2_x1
+0.01089738364732508 a3_x1
+0.99993976653295957 a4_x1
+0.00092192719557059 short_1
-0.00092192719557059 surp_1
= 60.072109

coupling_2: 
+0.00000057134817354 a1_x2
+0.00006581011949070 a2_x2
+0.00680065251492525 a3_x2
+0.99997618579784986 a4_x2
+0.00082904500998839 short_2
-0.00082904500998839 surp_2
= 40.111101

coupling_3: 
+0.00000793477643671 a1_x3
+0.00062348602393380 a2_x3
+0.06836972662638734 a3_x3
+4.79108767873199781 a4_x3
+0.00856600089004919 short_3
-0.00856600089004919 surp_3
= 215.210766

bounds
  0.000000 <= a1_x1 <= 100.000000
  0.000000 <= a1_x2 <= 100.000000
  0.000000 <= a1_x3 <= 100.000000
  0.000000 <= a1_x4 <= 100.000000
  0.000000 <= a1_x5 <= 100.000000
  0.000000 <= a1_x6 <= 100.000000
  0.000000 <= a2_x1 <= 100.000000
  0.000000 <= a2_x2 <= 100.000000
  0.000000 <= a2_x3 <= 100.000000
  0.000000 <= a2_x4 <= 100.000000
  0.000000 <= a2_x5 <= 100.000000
  0.000000 <= a2_x6 <= 100.000000
  0.000000 <= a3_x1 <= 100.000000
  0.000000 <= a3_x2 <= 100.000000
  0.000000 <= a3_x3 <= 100.000000
  0.000000 <= a3_x4 <= 100.000000
  0.000000 <= a3_x5 <= 100.000000
  0.000000 <= a3_x6 <= 100.000000
  0.000000 <= a4_x1 <= 100.000000
  0.000000 <= a4_x2 <= 100.000000
  0.000000 <= a4_x3 <= 100.000000
  0.000000 <= a4_x4 <= 100.000000
  0.000000 <= a4_x5 <= 100.000000
  0.000000 <= a4_x6 <= 100.000000
  0.000000 <= short_1 <= +inf
  0.000000 <= surp_1 <= +inf
  0.000000 <= short_2 <= +inf
  0.000000 <= surp_2 <= +inf
  0.000000 <= short_3 <= +inf
  0.000000 <= surp_3 <= +inf
 0 <= a1_z1 <= 1
 0 <= a1_z2 <= 1
 0 <= a2_z1 <= 1
 0 <= a2_z2 <= 1
 0 <= a3_z1 <= 1
 0 <= a3_z2 <= 1
 0 <= a4_z1 <= 1
 0 <= a4_z2 <= 1

binary
  a1_z1
  a1_z2
  a2_z1
  a2_z2
  a3_z1
  a3_z2
  a4_z1
  a4_z2
end
