min
obj: 
  +4.00927114806491947 a1_x1
  +1.96797315584533505 a1_x2
  +5.12450639908132288 a1_x3
  +5.32896604620880687 a1_x4
  +7.73264361972508052 a1_x5
  +5.13954220661915251 a1_x6
  +7.46013036925632012 a1_z1
  +49.87266735161764331 a1_z2
  +4.20073886186967549 a2_x1
  +7.53413172178710777 a2_x2
  +3.45719216892709458 a2_x3
  +4.76571137466424233 a2_x4
  +9.38617884989886875 a2_x5
  +1.72886855476886026 a2_x6
  +29.54080410777594423 a2_z1
  +23.53717041290824596 a2_z2
  +8.21626166621846110 a3_x1
  +4.90875225577424779 a3_x2
  +9.92442060145863181 a3_x3
  +6.78612387718403109 a3_x4
  +8.67367115140907785 a3_x5
  +9.64439582433125331 a3_x6
  +44.88444155829282778 a3_z1
  +12.68276888992290807 a3_z2
  +8.69787784647402162 a4_x1
  +4.12769081519996917 a4_x2
  +7.02237149328651711 a4_x3
  +1.06108582988083655 a4_x4
  +7.09274128796206593 a4_x5
  +7.93550517031278613 a4_x6
  +37.98565391640966737 a4_z1
  +17.37310151636162914 a4_z2
  +1000000.00000000000000000 short_1
  +1000000.00000000000000000 surp_1
  +1000000.00000000000000000 short_2
  +1000000.00000000000000000 surp_2
  +1000000.00000000000000000 short_3
  +1000000.00000000000000000 surp_3

s.t.

a1_local_1: 
+0.78148208496250937 a1_x3
+0.33201208048706404 a1_x6
+0.52825536371465331 a1_x4
<= 62.059019

a1_local_2: 
+0.58670733409151166 a1_x2
+0.70835702872030970 a1_x5
+0.39243448368583234 a1_x3
<= 52.722070

a1_local_3: 
+0.70141876087231569 a1_x4
+0.42474565233078193 a1_x2
+0.57236601289947653 a1_x5
<= 95.189456

a1_local_4: 
+0.79345230999920180 a1_x3
+0.37982485727240284 a1_x6
+0.47556966845555815 a1_x5
<= 96.205015

a1_local_5: 
+0.29643645414095615 a1_x1
+0.68893782062029740 a1_x6
+0.66143035005606710 a1_x3
<= 114.504433

a1_local_6: 
+0.67227183458255102 a1_x1
+0.66920137077852326 a1_x3
+0.31657559251331524 a1_x2
<= 115.418682

a1_local_7: 
+0.35035242415218681 a1_x1
+0.80260096360918509 a1_x5
+0.48278864123371190 a1_x4
<= 64.005943

a1_local_8: 
+0.70654102497080074 a1_x3
+0.44855129487686729 a1_x1
+0.54735867207663391 a1_x6
<= 61.231522

a1_act_1: 
+0.00999950003749688 a1_x1
-0.99995000374968757 a1_z1
<= 0.000000

a1_act_2: 
+0.00999950003749688 a1_x2
-0.99995000374968757 a1_z2
<= 0.000000

a2_local_1: 
+0.54020985595266835 a2_x6
+0.59558297458864928 a2_x5
+0.59452016947428610 a2_x3
<= 95.914269

a2_local_2: 
+0.62236660167150082 a2_x4
+0.67518906541499335 a2_x5
+0.39595396079329132 a2_x3
<= 52.302286

a2_local_3: 
+0.66189878647611888 a2_x1
+0.53092043076500495 a2_x5
+0.52916301142251321 a2_x6
<= 69.297593

a2_local_4: 
+0.52120176967801157 a2_x1
+0.71917277819711234 a2_x4
+0.45949889051526155 a2_x5
<= 109.188042

a2_local_5: 
+0.56445943596860615 a2_x5
+0.66380175462785884 a2_x1
+0.49066564552552366 a2_x3
<= 114.025535

a2_local_6: 
+0.46992072583456412 a2_x6
+0.53791716407550028 a2_x2
+0.69987115673107114 a2_x4
<= 78.194125

a2_local_7: 
+0.61883597777255406 a2_x6
+0.55483054514833396 a2_x4
+0.55606213572287910 a2_x3
<= 95.451225

a2_local_8: 
+0.71118421980183011 a2_x3
+0.57335848946414758 a2_x5
+0.40678870198698158 a2_x4
<= 65.779776

a2_act_1: 
+0.00999950003749688 a2_x1
-0.99995000374968757 a2_z1
<= 0.000000

a2_act_2: 
+0.00999950003749688 a2_x2
-0.99995000374968757 a2_z2
<= 0.000000

a3_local_1: 
+0.69953121069518198 a3_x1
+0.53633760029317357 a3_x2
+0.47222670802813860 a3_x5
<= 62.808330

a3_local_2: 
+0.43189630367180154 a3_x6
+0.63034082954767856 a3_x2
+0.64508605742162761 a3_x3
<= 106.493027

a3_local_3: 
+0.75510023010438276 a3_x1
+0.29490916266949996 a3_x6
+0.58553584712627349 a3_x3
<= 58.979952

a3_local_4: 
+0.57146074104189981 a3_x1
+0.37883649267024910 a3_x2
+0.72795297462758324 a3_x3
<= 55.330092

a3_local_5: 
+0.67667084240502351 a3_x6
+0.44135273582621343 a3_x5
+0.58934228901173613 a3_x3
<= 114.600835

a3_local_6: 
+0.35861113214213280 a3_x5
+0.74032276272145281 a3_x3
+0.56861257715619817 a3_x4
<= 65.986982

a3_local_7: 
+0.49835127935034829 a3_x1
+0.38496605246954757 a3_x5
+0.77681860225916632 a3_x2
<= 85.990269

a3_local_8: 
+0.50684948942356101 a3_x1
+0.47345076046357526 a3_x3
+0.72038043594168910 a3_x6
<= 104.688267

a3_act_1: 
+0.00999950003749688 a3_x1
-0.99995000374968757 a3_z1
<= 0.000000

a3_act_2: 
+0.00999950003749688 a3_x2
-0.99995000374968757 a3_z2
<= 0.000000

a4_local_1: 
+0.47876737216214976 a4_x3
+0.63031011413906779 a4_x5
+0.61113907039801108 a4_x2
<= 98.306199

a4_local_2: 
+0.69690273659467528 a4_x6
+0.50071677348457855 a4_x4
+0.51342895173338832 a4_x5
<= 67.686482

a4_local_3: 
+0.63729999423649852 a4_x6
+0.53225356559906001 a4_x3
+0.55727449183795075 a4_x2
<= 113.984769

a4_local_4: 
+0.41786782847028692 a4_x3
+0.41464613717888876 a4_x6
+0.80836567149536553 a4_x5
<= 60.763549

a4_local_5: 
+0.45540817434513819 a4_x1
+0.78287001754602525 a4_x6
+0.42393151612862445 a4_x3
<= 65.479722

a4_local_6: 
+0.48012846594096420 a4_x6
+0.54205873239743174 a4_x3
+0.68967310142187344 a4_x4
<= 99.982316

a4_local_7: 
+0.57385155974912383 a4_x6
+0.56322130822241245 a4_x4
+0.59453859869459424 a4_x5
<= 57.470832

a4_local_8: 
+0.62719280563484525 a4_x2
+0.64269795211341441 a4_x4
+0.43996423367032295 a4_x1
<= 52.768534

a4_act_1: 
+0.00999950003749688 a4_x1
-0.99995000374968757 a4_z1
<= 0.000000

a4_act_2: 
+0.00999950003749688 a4_x2
-0.99995000374968757 a4_z2
<= 0.000000

coupling_1: 
+0.00000049253785171 a1_x1
+0.00011502912775234 a2_x1
+0.01006917123307565 a3_x1
+0.99994862635431025 a4_x1
+0.00081951536413277 short_1
-0.00081951536413277 surp_1
= 74.968602

coupling_2: 
+0.00000092028593894 a1_x2
+0.00011843517515595 a2_x2
+0.01206582100674516 a3_x2
+0.99992506341112497 a4_x2
+0.00146107801866861 short_2
-0.00146107801866861 surp_2
= 24.933734

coupling_3: 
+0.00000085226463404 a1_x3
+0.00007947993478397 a2_x3
+0.00688802743898074 a3_x3
+0.99997538076925108 a4_x3
+0.00094514961904348 short_3
-0.00094514961904348 surp_3
= 50.036061

bounds
  0.000000 <= a1_x1 <= 100.000000
  0.000000 <= a1_x2 <= 100.000000
  0.000000 <= a1_x3 <= 100.000000
  0.000000 <= a1_x4 <= 100.000000
  0.000000 <= a1_x5 <= 100.000000
  0.000000 <= a1_x6 <= 100.000000
  0.000000 <= a2_x1 <= 100.000000
  0.000000 <= a2_x2 <= 100.000000
  0.000000 <= a2_x3 <= 100.000000
  0.000000 <= a2_x4 <= 100.000000
  0.000000 <= a2_x5 <= 100.000000
  0.000000 <= a2_x6 <= 100.000000
  0.000000 <= a3_x1 <= 100.000000
  0.000000 <= a3_x2 <= 100.000000
  0.000000 <= a3_x3 <= 100.000000
  0.000000 <= a3_x4 <= 100.000000
  0.000000 <= a3_x5 <= 100.000000
  0.000000 <= a3_x6 <= 100.000000
  0.000000 <= a4_x1 <= 100.000000
  0.000000 <= a4_x2 <= 100.000000
  0.000000 <= a4_x3 <= 100.000000
  0.000000 <= a4_x4 <= 100.000000
  0.000000 <= a4_x5 <= 100.000000
  0.000000 <= a4_x6 <= 100.000000
  0.000000 <= short_1 <= +inf
  0.000000 <= surp_1 <= +inf
  0.000000 <= short_2 <= +inf
  0.000000 <= surp_2 <= +inf
  0.000000 <= short_3 <= +inf
  0.000000 <= surp_3 <= +inf
 0 <= a1_z1 <= 1
 0 <= a1_z2 <= 1
 0 <= a2_z1 <= 1
 0 <= a2_z2 <= 1
 0 <= a3_z1 <= 1
 0 <= a3_z2 <= 1
 0 <= a4_z1 <= 1
 0 <= a4_z2 <= 1

binary
  a1_z1
  a1_z2
  a2_z1
  a2_z2
  a3_z1
  a3_z2
  a4_z1
  a4_z2
end
