min
obj: 
  +1.58690782181034451 a1_x1
  +1.85914319529187777 a1_x2
  +3.32311090405199927 a1_x3
  +9.20870591814637862 a1_x4
  +9.62032466035919853 a1_x5
  +2.65221673698665317 a1_x6
  +45.97121590191820673 a1_z1
  +15.23159126469524693 a1_z2
  +9.69669699253390860 a2_x1
  +9.50992409015265672 a2_x2
  +7.57539983332453648 a2_x3
  +7.25458697589536605 a2_x4
  +4.07761765395989872 a2_x5
  +7.08231795774132511 a2_x6
  +41.74035632470042145 a2_z1
  +13.29578844905750223 a2_z2
  +8.20725746769122999 a3_x1
  +8.76504266892960793 a3_x2
  +7.77977201232387294 a3_x3
  +6.04838547653606717 a3_x4
  +6.48681552366104786 a3_x5
  +7.59141867997845843 a3_x6
  +13.33539359650109901 a3_z1
  +17.07642873173313092 a3_z2
  +4.07491661896622936 a4_x1
  +3.95786841150633606 a4_x2
  +4.77265222387028487 a4_x3
  +6.62265288598760282 a4_x4
  +9.50730455200969438 a4_x5
  +5.10859874083684673 a4_x6
  +30.99543174940450641 a4_z1
  +14.10084107909216655 a4_z2
  +1000000.00000000000000000 short_1
  +1000000.00000000000000000 surp_1
  +1000000.00000000000000000 short_2
  +1000000.00000000000000000 surp_2
  +1000000.00000000000000000 short_3
  +1000000.00000000000000000 surp_3

s.t.

a1_local_1: 
+0.00069026813349135 a1_x4
+0.00089464331444936 a1_x1
+0.00063535848743652 a1_x3
<= 0.098435

a1_local_2: 
+0.00144490708872331 a1_x3
+0.00127711204220917 a1_x5
+0.00086811311644212 a1_x2
<= 0.178108

a1_local_3: 
+0.00076232545841716 a1_x1
+0.00110671793005598 a1_x2
+0.00065722297294828 a1_x5
<= 0.158414

a1_local_4: 
+0.00093765416981877 a1_x3
+0.00131394893887242 a1_x5
+0.00131303217827950 a1_x6
<= 0.234462

a1_local_5: 
+0.00105388380252787 a1_x4
+0.00119881246756515 a1_x5
+0.00117024394385574 a1_x6
<= 0.184565

a1_local_6: 
+0.00129485279562564 a1_x4
+0.00136136081383661 a1_x6
+0.00149823912897958 a1_x1
<= 0.269992

a1_local_7: 
+0.00092912544732829 a1_x5
+0.00080740616413266 a1_x2
+0.00081500407085397 a1_x4
<= 0.092703

a1_local_8: 
+0.00120989134304726 a1_x2
+0.00097705757572827 a1_x6
+0.00135684823959495 a1_x3
<= 0.129895

a1_act_1: 
+1.00000000000000000 a1_x1
-100.00000000000000000 a1_z1
<= 0.000000

a1_act_2: 
+1.00000000000000000 a1_x2
-100.00000000000000000 a1_z2
<= 0.000000

a2_local_1: 
+0.06203677972594859 a2_x5
+0.11017919584897960 a2_x3
+0.13449776304881764 a2_x6
<= 10.004164

a2_local_2: 
+0.12996602403586191 a2_x5
+0.11202160626285440 a2_x1
+0.10334684741744544 a2_x4
<= 21.310521

a2_local_3: 
+0.13419903114028339 a2_x6
+0.08039956407190543 a2_x1
+0.10882494857312029 a2_x3
<= 17.620746

a2_local_4: 
+0.06096873751282807 a2_x4
+0.14408038668268822 a2_x2
+0.11758811949425135 a2_x5
<= 14.764702

a2_local_5: 
+0.10935120959601563 a2_x5
+0.13739436840651295 a2_x3
+0.12223765280266199 a2_x1
<= 20.169961

a2_local_6: 
+0.12671867328184225 a2_x6
+0.05274728048072796 a2_x2
+0.14846286885746326 a2_x1
<= 16.563893

a2_local_7: 
+0.11869506194298159 a2_x2
+0.10495890633420234 a2_x1
+0.11392074144917053 a2_x3
<= 10.863719

a2_local_8: 
+0.08987264797033356 a2_x6
+0.07495014377485758 a2_x3
+0.07464678737369329 a2_x5
<= 11.440547

a2_act_1: 
+1.00000000000000000 a2_x1
-100.00000000000000000 a2_z1
<= 0.000000

a2_act_2: 
+1.00000000000000000 a2_x2
-100.00000000000000000 a2_z2
<= 0.000000

a3_local_1: 
+12.88013969623462707 a3_x2
+11.04831798289784395 a3_x3
+6.76633224146646839 a3_x1
<= 1026.648509

a3_local_2: 
+8.44079022099298193 a3_x6
+13.78659211882729352 a3_x2
+5.34655436732263656 a3_x3
<= 1344.629992

a3_local_3: 
+9.57358809643972997 a3_x4
+7.42284087539260895 a3_x2
+6.56671355719625094 a3_x3
<= 815.613769

a3_local_4: 
+8.51602567756874507 a3_x4
+9.49397213878107848 a3_x1
+6.78391760614566586 a3_x3
<= 1395.494091

a3_local_5: 
+6.12798073034741630 a3_x3
+6.16172189948302140 a3_x4
+7.47903742201590660 a3_x6
<= 663.175944

a3_local_6: 
+11.80650809728610184 a3_x3
+7.97236195302688522 a3_x4
+10.23103801958118808 a3_x5
<= 1915.093983

a3_local_7: 
+7.58000533783581432 a3_x5
+9.67053964135529220 a3_x6
+10.78398461122933227 a3_x2
<= 1406.385811

a3_local_8: 
+12.33665034720961629 a3_x4
+14.03366934832258295 a3_x6
+12.27671770396947259 a3_x5
<= 1299.968271

a3_act_1: 
+1.00000000000000000 a3_x1
-100.00000000000000000 a3_z1
<= 0.000000

a3_act_2: 
+1.00000000000000000 a3_x2
-100.00000000000000000 a3_z2
<= 0.000000

a4_local_1: 
+1414.06474427052239662 a4_x4
+674.59844590050374791 a4_x6
+1354.67572988573033399 a4_x5
<= 138560.109364

a4_local_2: 
+615.13562907119421652 a4_x5
+921.43012424365713287 a4_x4
+847.26413431944274635 a4_x2
<= 75388.160593

a4_local_3: 
+1217.01235972543258868 a4_x4
+1474.91730492355804927 a4_x2
+664.68936019158104500 a4_x1
<= 148319.141739

a4_local_4: 
+1114.06878114641972388 a4_x6
+1263.10708724332516795 a4_x1
+623.43503429776296798 a4_x5
<= 201117.828376

a4_local_5: 
+917.72138852192949798 a4_x3
+500.32041683754079031 a4_x6
+1372.31995159901202896 a4_x1
<= 163801.594008

a4_local_6: 
+1000.95534278294849173 a4_x5
+714.94825736606833289 a4_x2
+734.87750552554791739 a4_x1
<= 130879.706009

a4_local_7: 
+1229.73702659990021857 a4_x2
+589.02308851630186837 a4_x4
+597.86498325616219063 a4_x1
<= 151490.879347

a4_local_8: 
+1474.05535252105232757 a4_x6
+753.10121957964702233 a4_x5
+1021.84193788225854860 a4_x4
<= 125715.515875

a4_act_1: 
+1.00000000000000000 a4_x1
-100.00000000000000000 a4_z1
<= 0.000000

a4_act_2: 
+1.00000000000000000 a4_x2
-100.00000000000000000 a4_z2
<= 0.000000

coupling_1: 
+420.00663740977455518 a1_x1
+19410.28015824661997613 a2_x1
+2526318.75442654918879271 a3_x1
+298315152.24526178836822510 a4_x1
+301603.80362772959051654 short_1
-301603.80362772959051654 surp_1
= 17440476735.481285

coupling_2: 
+37.58494813451693517 a1_x2
+3487.46454618285633842 a2_x2
+412782.10060538694960997 a3_x2
+39727301.26890738308429718 a4_x2
+39827.98058922249038005 short_2
-39827.98058922249038005 surp_2
= 1778222884.737717

coupling_3: 
+4.33114934421726350 a1_x3
+270.17452570978565518 a2_x3
+44456.83377772348467261 a3_x3
+3960737.79533416312187910 a4_x3
+2971.93352006881104899 short_3
-2971.93352006881104899 surp_3
= 176150296.618388

bounds
  0.000000 <= a1_x1 <= 100.000000
  0.000000 <= a1_x2 <= 100.000000
  0.000000 <= a1_x3 <= 100.000000
  0.000000 <= a1_x4 <= 100.000000
  0.000000 <= a1_x5 <= 100.000000
  0.000000 <= a1_x6 <= 100.000000
  0.000000 <= a2_x1 <= 100.000000
  0.000000 <= a2_x2 <= 100.000000
  0.000000 <= a2_x3 <= 100.000000
  0.000000 <= a2_x4 <= 100.000000
  0.000000 <= a2_x5 <= 100.000000
  0.000000 <= a2_x6 <= 100.000000
  0.000000 <= a3_x1 <= 100.000000
  0.000000 <= a3_x2 <= 100.000000
  0.000000 <= a3_x3 <= 100.000000
  0.000000 <= a3_x4 <= 100.000000
  0.000000 <= a3_x5 <= 100.000000
  0.000000 <= a3_x6 <= 100.000000
  0.000000 <= a4_x1 <= 100.000000
  0.000000 <= a4_x2 <= 100.000000
  0.000000 <= a4_x3 <= 100.000000
  0.000000 <= a4_x4 <= 100.000000
  0.000000 <= a4_x5 <= 100.000000
  0.000000 <= a4_x6 <= 100.000000
  0.000000 <= short_1 <= +inf
  0.000000 <= surp_1 <= +inf
  0.000000 <= short_2 <= +inf
  0.000000 <= surp_2 <= +inf
  0.000000 <= short_3 <= +inf
  0.000000 <= surp_3 <= +inf
 0 <= a1_z1 <= 1
 0 <= a1_z2 <= 1
 0 <= a2_z1 <= 1
 0 <= a2_z2 <= 1
 0 <= a3_z1 <= 1
 0 <= a3_z2 <= 1
 0 <= a4_z1 <= 1
 0 <= a4_z2 <= 1

binary
  a1_z1
  a1_z2
  a2_z1
  a2_z2
  a3_z1
  a3_z2
  a4_z1
  a4_z2
end
