min
obj: 
  +4.68205187695116365 a1_x1
  +5.71291625483064269 a1_x2
  +9.00563589084773142 a1_x3
  +9.01724711762336106 a1_x4
  +9.40638568868457803 a1_x5
  +5.77535620951187667 a1_x6
  +36.44079832510822570 a1_z1
  +20.35589591192510284 a1_z2
  +7.59221324303607314 a2_x1
  +9.57055811069523088 a2_x2
  +1.26049992587512483 a2_x3
  +5.39403189015226747 a2_x4
  +5.18163926236740036 a2_x5
  +3.59512023493198285 a2_x6
  +41.62149658815251030 a2_z1
  +8.22405720557796727 a2_z2
  +7.86202629574308798 a3_x1
  +4.44432428569451421 a3_x2
  +6.87835612826100196 a3_x3
  +6.09227189830646143 a3_x4
  +7.96998209317280093 a3_x5
  +3.38862436120579025 a3_x6
  +44.38425278971256915 a3_z1
  +46.43685776379189178 a3_z2
  +5.32725959516227121 a4_x1
  +2.14266889482626155 a4_x2
  +3.71753864038075932 a4_x3
  +7.47528281002840789 a4_x4
  +1.46230104481487744 a4_x5
  +9.33481878718765401 a4_x6
  +27.54992178484519982 a4_z1
  +29.02492698326168252 a4_z2
  +1000000.00000000000000000 short_1
  +1000000.00000000000000000 surp_1
  +1000000.00000000000000000 short_2
  +1000000.00000000000000000 surp_2
  +1000000.00000000000000000 short_3
  +1000000.00000000000000000 surp_3

s.t.

a1_local_1: 
+0.00129575802375005 a1_x4
+0.00106018809563787 a1_x2
+0.00069810076583414 a1_x6
<= 0.133986

a1_local_2: 
+0.00107004665563475 a1_x5
+0.00118808990912049 a1_x4
+0.00053136372283527 a1_x1
<= 0.147366

a1_local_3: 
+0.00125106849601422 a1_x6
+0.00098902633868452 a1_x2
+0.00060919940674207 a1_x1
<= 0.150562

a1_local_4: 
+0.00124454243494006 a1_x5
+0.00082321047218287 a1_x2
+0.00100984408353384 a1_x6
<= 0.111507

a1_local_5: 
+0.00120536507215073 a1_x6
+0.00117080672142234 a1_x2
+0.00061085046132833 a1_x1
<= 0.159143

a1_local_6: 
+0.00124628866685148 a1_x5
+0.00085112779134138 a1_x4
+0.00083468631150077 a1_x2
<= 0.117952

a1_local_7: 
+0.00147617599202815 a1_x1
+0.00086652807460299 a1_x4
+0.00125017950375208 a1_x3
<= 0.233120

a1_local_8: 
+0.00096086537733216 a1_x5
+0.00123147930638971 a1_x6
+0.00117823983715536 a1_x4
<= 0.127673

a1_act_1: 
+1.00000000000000000 a1_x1
-100.00000000000000000 a1_z1
<= 0.000000

a1_act_2: 
+1.00000000000000000 a1_x2
-100.00000000000000000 a1_z2
<= 0.000000

a2_local_1: 
+0.05408261396002824 a2_x3
+0.07286413703075605 a2_x4
+0.10508939013471458 a2_x5
<= 13.229313

a2_local_2: 
+0.07514620212261580 a2_x3
+0.10781288765701989 a2_x2
+0.13253941994695981 a2_x5
<= 19.926943

a2_local_3: 
+0.13000313114037235 a2_x4
+0.13624956719155987 a2_x6
+0.05789200336885092 a2_x5
<= 22.080316

a2_local_4: 
+0.09103753669575630 a2_x1
+0.10681447171700914 a2_x4
+0.13455304237443388 a2_x5
<= 23.082196

a2_local_5: 
+0.08620577278674746 a2_x2
+0.13364775493508829 a2_x5
+0.09281142362256108 a2_x1
<= 10.320325

a2_local_6: 
+0.12026605442546323 a2_x5
+0.09019984950962792 a2_x4
+0.07430454595506662 a2_x3
<= 19.092075

a2_local_7: 
+0.05820211777887997 a2_x3
+0.06605430754476159 a2_x5
+0.05911662742876236 a2_x6
<= 5.895781

a2_local_8: 
+0.10267329351558714 a2_x2
+0.06449469194146859 a2_x6
+0.08941465439550991 a2_x4
<= 16.117521

a2_act_1: 
+1.00000000000000000 a2_x1
-100.00000000000000000 a2_z1
<= 0.000000

a2_act_2: 
+1.00000000000000000 a2_x2
-100.00000000000000000 a2_z2
<= 0.000000

a3_local_1: 
+9.18532980084565054 a3_x2
+13.44666818946034681 a3_x6
+10.68050699359111988 a3_x5
<= 2276.652668

a3_local_2: 
+9.55939304361596953 a3_x4
+14.88910877803321853 a3_x5
+10.97503154508867240 a3_x3
<= 1719.309275

a3_local_3: 
+8.69432355572340221 a3_x4
+9.65726838432118484 a3_x5
+7.93477337102431601 a3_x1
<= 1484.785311

a3_local_4: 
+14.79412172092199640 a3_x3
+6.99980929321691647 a3_x4
+14.62136810355944405 a3_x5
<= 1485.263664

a3_local_5: 
+8.30263118907144282 a3_x5
+7.18085650931923691 a3_x3
+11.71568484268021848 a3_x2
<= 1371.901642

a3_local_6: 
+6.62396613126790434 a3_x1
+9.04884730067350951 a3_x3
+10.17361934822140057 a3_x5
<= 1387.448074

a3_local_7: 
+5.40775477341560862 a3_x6
+10.99179932733585829 a3_x4
+9.43551767183830137 a3_x1
<= 1772.717252

a3_local_8: 
+14.84391506776334069 a3_x4
+12.43733202547456784 a3_x3
+13.99605235427757499 a3_x5
<= 1342.977470

a3_act_1: 
+1.00000000000000000 a3_x1
-100.00000000000000000 a3_z1
<= 0.000000

a3_act_2: 
+1.00000000000000000 a3_x2
-100.00000000000000000 a3_z2
<= 0.000000

a4_local_1: 
+896.10255459542815970 a4_x1
+1390.66693556938275833 a4_x4
+1459.41857429394781320 a4_x6
<= 128178.639890

a4_local_2: 
+1288.54330391606617923 a4_x3
+1030.33589359063080337 a4_x5
+935.71783637545240708 a4_x2
<= 147629.664816

a4_local_3: 
+1327.11028504985620202 a4_x5
+910.22565302329280712 a4_x1
+1432.31637742250677547 a4_x3
<= 207154.056541

a4_local_4: 
+1339.12594588995148115 a4_x3
+1121.93727869621602622 a4_x1
+725.75656458492721868 a4_x5
<= 165178.574880

a4_local_5: 
+971.47721903564774948 a4_x6
+996.68313682538473586 a4_x4
+1222.52379439718060894 a4_x2
<= 167362.180786

a4_local_6: 
+1121.60322206721434668 a4_x1
+824.41671436308342891 a4_x4
+639.97214529514315018 a4_x5
<= 106494.893924

a4_local_7: 
+1347.34845330098437444 a4_x2
+1125.74667788634110366 a4_x5
+704.93122972634898815 a4_x4
<= 124900.553156

a4_local_8: 
+798.17396698449044834 a4_x5
+608.93881289209878105 a4_x6
+930.52565205892540234 a4_x2
<= 135372.186269

a4_act_1: 
+1.00000000000000000 a4_x1
-100.00000000000000000 a4_z1
<= 0.000000

a4_act_2: 
+1.00000000000000000 a4_x2
-100.00000000000000000 a4_z2
<= 0.000000

coupling_1: 
+133.48715108702327825 a1_x1
+17717.29232419886466232 a2_x1
+787990.36641536594834179 a3_x1
+144101746.22376731038093567 a4_x1
+135730.35749204750754870 short_1
-135730.35749204750754870 surp_1
= 3548468488.711492

coupling_2: 
+0.00483543455770980 a1_x2
+0.48215657784364629 a2_x2
+45.54393834983098799 a3_x2
+5218.09585193134626024 a4_x2
+3.55978733688330884 short_2
-3.55978733688330884 surp_2
= 405123.963471

coupling_3: 
+0.00000227466496173 a1_x3
+0.00021508906722908 a2_x3
+0.02580558885839124 a3_x3
+2.28519334313565459 a4_x3
+0.00356134804176463 short_3
-0.00356134804176463 surp_3
= 89.509171

bounds
  0.000000 <= a1_x1 <= 100.000000
  0.000000 <= a1_x2 <= 100.000000
  0.000000 <= a1_x3 <= 100.000000
  0.000000 <= a1_x4 <= 100.000000
  0.000000 <= a1_x5 <= 100.000000
  0.000000 <= a1_x6 <= 100.000000
  0.000000 <= a2_x1 <= 100.000000
  0.000000 <= a2_x2 <= 100.000000
  0.000000 <= a2_x3 <= 100.000000
  0.000000 <= a2_x4 <= 100.000000
  0.000000 <= a2_x5 <= 100.000000
  0.000000 <= a2_x6 <= 100.000000
  0.000000 <= a3_x1 <= 100.000000
  0.000000 <= a3_x2 <= 100.000000
  0.000000 <= a3_x3 <= 100.000000
  0.000000 <= a3_x4 <= 100.000000
  0.000000 <= a3_x5 <= 100.000000
  0.000000 <= a3_x6 <= 100.000000
  0.000000 <= a4_x1 <= 100.000000
  0.000000 <= a4_x2 <= 100.000000
  0.000000 <= a4_x3 <= 100.000000
  0.000000 <= a4_x4 <= 100.000000
  0.000000 <= a4_x5 <= 100.000000
  0.000000 <= a4_x6 <= 100.000000
  0.000000 <= short_1 <= +inf
  0.000000 <= surp_1 <= +inf
  0.000000 <= short_2 <= +inf
  0.000000 <= surp_2 <= +inf
  0.000000 <= short_3 <= +inf
  0.000000 <= surp_3 <= +inf
 0 <= a1_z1 <= 1
 0 <= a1_z2 <= 1
 0 <= a2_z1 <= 1
 0 <= a2_z2 <= 1
 0 <= a3_z1 <= 1
 0 <= a3_z2 <= 1
 0 <= a4_z1 <= 1
 0 <= a4_z2 <= 1

binary
  a1_z1
  a1_z2
  a2_z1
  a2_z2
  a3_z1
  a3_z2
  a4_z1
  a4_z2
end
