min
obj: 
  +3.05711040055168581 a1_x1
  +8.05560131874530505 a1_x2
  +1.97423451738110156 a1_x3
  +4.43855917145081946 a1_x4
  +2.09177435273224699 a1_x5
  +8.36067334918018190 a1_x6
  +15.66642560195388789 a1_z1
  +12.32473257168471292 a1_z2
  +9.22293190738236213 a2_x1
  +7.63381403352449350 a2_x2
  +9.96116936913966633 a2_x3
  +9.94077753687388643 a2_x4
  +8.29981383037531018 a2_x5
  +5.15933962158974069 a2_x6
  +11.18650581061075044 a2_z1
  +36.51341922859109701 a2_z2
  +6.07766745897419902 a3_x1
  +8.77356431574039775 a3_x2
  +3.66477499322525757 a3_x3
  +8.98940674965133013 a3_x4
  +1.83133745097963319 a3_x5
  +5.96614000496332153 a3_x6
  +11.77177519345455892 a3_z1
  +18.83602233642604062 a3_z2
  +3.57390445949198776 a4_x1
  +7.85154573325681415 a4_x2
  +9.06414056673653157 a4_x3
  +3.88034584638911362 a4_x4
  +5.56052955494331336 a4_x5
  +7.24881590451171665 a4_x6
  +49.90852608237385368 a4_z1
  +15.56555023854576802 a4_z2
  +1000000.00000000000000000 short_1
  +1000000.00000000000000000 surp_1
  +1000000.00000000000000000 short_2
  +1000000.00000000000000000 surp_2
  +1000000.00000000000000000 short_3
  +1000000.00000000000000000 surp_3

s.t.

a1_local_1: 
+0.00082781145254359 a1_x5
+0.00136254506998332 a1_x1
+0.00057355998076486 a1_x6
<= 0.108129

a1_local_2: 
+0.00112137097597323 a1_x6
+0.00055215626186557 a1_x4
+0.00110145892966778 a1_x1
<= 0.134369

a1_local_3: 
+0.00063846559159221 a1_x3
+0.00086628693024507 a1_x1
+0.00116106546249357 a1_x2
<= 0.081716

a1_local_4: 
+0.00051157163523663 a1_x4
+0.00051986987792316 a1_x5
+0.00125815618416190 a1_x2
<= 0.159881

a1_local_5: 
+0.00146708882091542 a1_x4
+0.00128531509250222 a1_x1
+0.00116521601981967 a1_x2
<= 0.176467

a1_local_6: 
+0.00088592150321656 a1_x4
+0.00074751357227123 a1_x2
+0.00105249365815478 a1_x6
<= 0.094780

a1_local_7: 
+0.00094173718296571 a1_x3
+0.00077708703104757 a1_x5
+0.00147205154313215 a1_x6
<= 0.107850

a1_local_8: 
+0.00056064992272181 a1_x4
+0.00073383371916741 a1_x6
+0.00099916557191106 a1_x3
<= 0.071264

a1_act_1: 
+1.00000000000000000 a1_x1
-100.00000000000000000 a1_z1
<= 0.000000

a1_act_2: 
+1.00000000000000000 a1_x2
-100.00000000000000000 a1_z2
<= 0.000000

a2_local_1: 
+0.09485685880267308 a2_x3
+0.05773380630004032 a2_x4
+0.07372052183475823 a2_x1
<= 9.991431

a2_local_2: 
+0.14850235550562285 a2_x5
+0.14429540857268053 a2_x1
+0.06115222161656855 a2_x6
<= 23.225184

a2_local_3: 
+0.05147728979140909 a2_x1
+0.13207428214799935 a2_x5
+0.14511707036613578 a2_x3
<= 20.013469

a2_local_4: 
+0.12083585016387755 a2_x2
+0.13103403723041093 a2_x5
+0.13619895827796863 a2_x3
<= 23.546109

a2_local_5: 
+0.08579273529172418 a2_x5
+0.07401863617445856 a2_x6
+0.05866250717255153 a2_x4
<= 7.566096

a2_local_6: 
+0.13226377932572433 a2_x4
+0.07716420908748095 a2_x5
+0.06135820929567135 a2_x1
<= 16.908018

a2_local_7: 
+0.09847467159513834 a2_x4
+0.09315574663324705 a2_x5
+0.13352320823883432 a2_x1
<= 15.846482

a2_local_8: 
+0.09991622777097356 a2_x4
+0.14132096627137744 a2_x2
+0.11649312339050399 a2_x6
<= 15.809442

a2_act_1: 
+1.00000000000000000 a2_x1
-100.00000000000000000 a2_z1
<= 0.000000

a2_act_2: 
+1.00000000000000000 a2_x2
-100.00000000000000000 a2_z2
<= 0.000000

a3_local_1: 
+5.43998179132025506 a3_x3
+10.63341937217219701 a3_x1
+7.24896775648014913 a3_x2
<= 1031.085183

a3_local_2: 
+7.50187952081683562 a3_x1
+10.83355507892754588 a3_x3
+8.93610654735655707 a3_x2
<= 1585.526214

a3_local_3: 
+8.58503739521927400 a3_x4
+6.28065185766335876 a3_x5
+5.89159702769966298 a3_x1
<= 1288.394165

a3_local_4: 
+9.81042520992097700 a3_x4
+9.48726634744056874 a3_x5
+6.35536643030907378 a3_x2
<= 1614.444529

a3_local_5: 
+6.44774499965260439 a3_x6
+9.06987197712189008 a3_x3
+10.41625589886665892 a3_x2
<= 1116.225179

a3_local_6: 
+8.28853192723450860 a3_x3
+14.27117307550201986 a3_x4
+13.63207764382707232 a3_x5
<= 2234.333560

a3_local_7: 
+5.37057297953366319 a3_x6
+10.04725940395568529 a3_x2
+11.35245122287431485 a3_x3
<= 1307.191530

a3_local_8: 
+5.61433740421721694 a3_x5
+7.20068178089813671 a3_x3
+9.84249760761072778 a3_x4
<= 1033.264988

a3_act_1: 
+1.00000000000000000 a3_x1
-100.00000000000000000 a3_z1
<= 0.000000

a3_act_2: 
+1.00000000000000000 a3_x2
-100.00000000000000000 a3_z2
<= 0.000000

a4_local_1: 
+872.92527892613497897 a4_x2
+1238.35849750545571624 a4_x5
+685.19113522987606757 a4_x1
<= 141573.696690

a4_local_2: 
+1203.48888465637219269 a4_x2
+1049.06211613136861160 a4_x6
+1326.47107790253880921 a4_x3
<= 234314.098370

a4_local_3: 
+1393.00506845417521617 a4_x5
+1164.56875895962070899 a4_x2
+779.48066741835657467 a4_x1
<= 169037.224568

a4_local_4: 
+1057.31906942353771228 a4_x6
+1028.66498025739269906 a4_x4
+593.18389520992627695 a4_x2
<= 142491.344717

a4_local_5: 
+798.24513523580196761 a4_x6
+1277.87993141343031311 a4_x4
+652.91778694716253995 a4_x1
<= 121097.082589

a4_local_6: 
+1284.26067037653592706 a4_x5
+516.36119962206555556 a4_x2
+1446.47583916645680802 a4_x3
<= 101685.160453

a4_local_7: 
+1357.25311387298688715 a4_x6
+1266.90837701219470546 a4_x2
+926.46305316549512554 a4_x3
<= 190223.895184

a4_local_8: 
+627.33224859489303071 a4_x3
+1078.77662889113730671 a4_x2
+1152.38089166133499930 a4_x1
<= 131248.668032

a4_act_1: 
+1.00000000000000000 a4_x1
-100.00000000000000000 a4_z1
<= 0.000000

a4_act_2: 
+1.00000000000000000 a4_x2
-100.00000000000000000 a4_z2
<= 0.000000

coupling_1: 
+3.09521213931362738 a1_x1
+380.59568524903625075 a2_x1
+68375.00220726571569685 a3_x1
+5953114.36016694828867912 a4_x1
+4911.42902482748286275 short_1
-4911.42902482748286275 surp_1
= 226591828.817887

coupling_2: 
+0.00177868924938788 a1_x2
+0.09209762148470475 a2_x2
+17.53664436227853685 a3_x2
+1063.73217204315665185 a4_x2
+1.33021822756773989 short_2
-1.33021822756773989 surp_2
= 84825.357195

coupling_3: 
+31.93009115395597419 a1_x3
+4534.04701542817747395 a2_x3
+641067.14431079546920955 a3_x3
+52080533.83685617148876190 a4_x3
+43811.14593059819890186 short_3
-43811.14593059819890186 surp_3
= 1787120847.583954

bounds
  0.000000 <= a1_x1 <= 100.000000
  0.000000 <= a1_x2 <= 100.000000
  0.000000 <= a1_x3 <= 100.000000
  0.000000 <= a1_x4 <= 100.000000
  0.000000 <= a1_x5 <= 100.000000
  0.000000 <= a1_x6 <= 100.000000
  0.000000 <= a2_x1 <= 100.000000
  0.000000 <= a2_x2 <= 100.000000
  0.000000 <= a2_x3 <= 100.000000
  0.000000 <= a2_x4 <= 100.000000
  0.000000 <= a2_x5 <= 100.000000
  0.000000 <= a2_x6 <= 100.000000
  0.000000 <= a3_x1 <= 100.000000
  0.000000 <= a3_x2 <= 100.000000
  0.000000 <= a3_x3 <= 100.000000
  0.000000 <= a3_x4 <= 100.000000
  0.000000 <= a3_x5 <= 100.000000
  0.000000 <= a3_x6 <= 100.000000
  0.000000 <= a4_x1 <= 100.000000
  0.000000 <= a4_x2 <= 100.000000
  0.000000 <= a4_x3 <= 100.000000
  0.000000 <= a4_x4 <= 100.000000
  0.000000 <= a4_x5 <= 100.000000
  0.000000 <= a4_x6 <= 100.000000
  0.000000 <= short_1 <= +inf
  0.000000 <= surp_1 <= +inf
  0.000000 <= short_2 <= +inf
  0.000000 <= surp_2 <= +inf
  0.000000 <= short_3 <= +inf
  0.000000 <= surp_3 <= +inf
 0 <= a1_z1 <= 1
 0 <= a1_z2 <= 1
 0 <= a2_z1 <= 1
 0 <= a2_z2 <= 1
 0 <= a3_z1 <= 1
 0 <= a3_z2 <= 1
 0 <= a4_z1 <= 1
 0 <= a4_z2 <= 1

binary
  a1_z1
  a1_z2
  a2_z1
  a2_z2
  a3_z1
  a3_z2
  a4_z1
  a4_z2
end
