min
obj: 
  +1.58690782181034451 a1_x1
  +1.85914319529187777 a1_x2
  +3.32311090405199927 a1_x3
  +9.20870591814637862 a1_x4
  +9.62032466035919853 a1_x5
  +2.65221673698665317 a1_x6
  +45.97121590191820673 a1_z1
  +15.23159126469524693 a1_z2
  +9.69669699253390860 a2_x1
  +9.50992409015265672 a2_x2
  +7.57539983332453648 a2_x3
  +7.25458697589536605 a2_x4
  +4.07761765395989872 a2_x5
  +7.08231795774132511 a2_x6
  +41.74035632470042145 a2_z1
  +13.29578844905750223 a2_z2
  +8.20725746769122999 a3_x1
  +8.76504266892960793 a3_x2
  +7.77977201232387294 a3_x3
  +6.04838547653606717 a3_x4
  +6.48681552366104786 a3_x5
  +7.59141867997845843 a3_x6
  +13.33539359650109901 a3_z1
  +17.07642873173313092 a3_z2
  +4.07491661896622936 a4_x1
  +3.95786841150633606 a4_x2
  +4.77265222387028487 a4_x3
  +6.62265288598760282 a4_x4
  +9.50730455200969438 a4_x5
  +5.10859874083684673 a4_x6
  +30.99543174940450641 a4_z1
  +14.10084107909216655 a4_z2
  +1000000.00000000000000000 short_1
  +1000000.00000000000000000 surp_1
  +1000000.00000000000000000 short_2
  +1000000.00000000000000000 surp_2
  +1000000.00000000000000000 short_3
  +1000000.00000000000000000 surp_3

s.t.

a1_local_1: 
+0.91555290746555551 a1_x4
+1.18663059751256639 a1_x1
+0.84272224405490281 a1_x3
<= 130.560998

a1_local_2: 
+1.29012503196843031 a1_x3
+1.14030460999273586 a1_x5
+0.77511867084249408 a1_x2
<= 159.028255

a1_local_3: 
+0.89385193114482808 a1_x1
+1.29766354788561866 a1_x2
+0.77061577450439711 a1_x5
<= 185.746210

a1_local_4: 
+0.84475758585644267 a1_x3
+1.18377155380755461 a1_x5
+1.18294561980095758 a1_x6
<= 211.233004

a1_local_5: 
+0.93760678057692992 a1_x4
+1.06654518793547792 a1_x5
+1.04112868425948779 a1_x6
<= 164.201806

a1_local_6: 
+0.92965033855685086 a1_x4
+0.97740032361727958 a1_x6
+1.07567324888232374 a1_x1
<= 193.842975

a1_local_7: 
+1.07273178045153594 a1_x5
+0.93219947262033975 a1_x2
+0.94097171756131359 a1_x4
<= 107.031089

a1_local_8: 
+1.05080142561415468 a1_x2
+0.84858322144575615 a1_x6
+1.17843480135780942 a1_x3
<= 112.814999

a1_act_1: 
+0.10000000000000001 a1_x1
-10.00000000000000000 a1_z1
<= 0.000000

a1_act_2: 
+0.10000000000000001 a1_x2
-10.00000000000000000 a1_z2
<= 0.000000

a2_local_1: 
+0.67915216943815160 a2_x5
+1.20619478023109616 a2_x3
+1.47242406783045232 a2_x6
<= 109.521319

a2_local_2: 
+1.12141484272016512 a2_x5
+0.96658101915817396 a2_x1
+0.89173066193269346 a2_x4
<= 183.878322

a2_local_3: 
+1.29195635703573575 a2_x6
+0.77401995396686596 a2_x1
+1.04767585070087610 a2_x3
<= 169.637852

a2_local_4: 
+0.65050579285849552 a2_x4
+1.53726532642504821 a2_x2
+1.25460614772043333 a2_x5
<= 157.531952

a2_local_5: 
+0.89212832764996985 a2_x5
+1.12091497266338780 a2_x3
+0.99726078178352362 a2_x1
<= 164.554135

a2_local_6: 
+1.43196253780060401 a2_x6
+0.59606155638378677 a2_x2
+1.67767907406551298 a2_x1
<= 187.177415

a2_local_7: 
+1.06342453829790040 a2_x2
+0.94035821441602530 a2_x1
+1.02064997393349421 a2_x3
<= 97.331302

a2_local_8: 
+1.09725661605803149 a2_x6
+0.91506752041633344 a2_x3
+0.91136383719659630 a2_x5
<= 139.677819

a2_act_1: 
+0.10000000000000001 a2_x1
-10.00000000000000000 a2_z1
<= 0.000000

a2_act_2: 
+0.10000000000000001 a2_x2
-10.00000000000000000 a2_z2
<= 0.000000

a3_local_1: 
+1.37969670556987301 a3_x2
+1.18347535683551364 a3_x3
+0.72479697600419912 a3_x1
<= 109.972687

a3_local_2: 
+0.98314516938065866 a3_x6
+1.60580006006262077 a3_x2
+0.62274253493364762 a3_x3
<= 156.616436

a3_local_3: 
+1.20743381033112329 a3_x4
+0.93617867735399618 a3_x2
+0.82820274821173256 a3_x3
<= 102.866306

a3_local_4: 
+1.06114004352934477 a3_x4
+1.18299713857705346 a3_x1
+0.84531058224099498 a3_x3
<= 173.885650

a3_local_5: 
+0.90518186067258943 a3_x3
+0.91016586692250856 a3_x4
+1.10475037497653417 a3_x6
<= 97.959648

a3_local_6: 
+1.21693457628371138 a3_x3
+0.82173686202080909 a3_x4
+1.05454583308705008 a3_x5
<= 197.394866

a3_local_7: 
+0.83838813987461258 a3_x5
+1.06961214143609107 a3_x6
+1.19276496462552251 a3_x2
<= 155.553609

a3_local_8: 
+0.93987587291272368 a3_x4
+1.06916438884940934 a3_x6
+0.93530986481523093 a3_x5
<= 99.038943

a3_act_1: 
+0.10000000000000001 a3_x1
-10.00000000000000000 a3_z1
<= 0.000000

a3_act_2: 
+0.10000000000000001 a3_x2
-10.00000000000000000 a3_z2
<= 0.000000

a4_local_1: 
+1.44781135716079712 a4_x4
+0.69069771766470378 a4_x6
+1.38700502572139417 a4_x5
<= 141.866842

a4_local_2: 
+0.81706054229146818 a4_x5
+1.22389951324227853 a4_x4
+1.12538773619148325 a4_x2
<= 100.135138

a4_local_3: 
+1.22914123850633517 a4_x4
+1.48961649270116547 a4_x2
+0.67131372732499139 a4_x1
<= 149.797307

a4_local_4: 
+1.25544102532665236 a4_x6
+1.42339187987506222 a4_x1
+0.70254721425541278 a4_x5
<= 226.639124

a4_local_5: 
+1.10753906095615640 a4_x3
+0.60380460951652060 a4_x6
+1.65616489877532036 a4_x1
<= 197.681634

a4_local_6: 
+1.18323237760559263 a4_x5
+0.84514252561581837 a4_x2
+0.86870095092785171 a4_x1
<= 154.713301

a4_local_7: 
+1.44490723431403434 a4_x2
+0.69208595282225638 a4_x4
+0.70247493631898905 a4_x1
<= 177.997623

a4_local_8: 
+1.39904028670951419 a4_x6
+0.71477569981344824 a4_x5
+0.96984013205581665 a4_x4
<= 119.317820

a4_act_1: 
+0.10000000000000001 a4_x1
-10.00000000000000000 a4_z1
<= 0.000000

a4_act_2: 
+0.10000000000000001 a4_x2
-10.00000000000000000 a4_z2
<= 0.000000

coupling_1: 
+0.00000420006637410 a1_x1
+0.00019410280158247 a2_x1
+0.02526318754426549 a3_x1
+2.98315152245261794 a4_x1
+0.00301603803627730 short_1
-0.00301603803627730 surp_1
= 174.404767

coupling_2: 
+0.00000094602151028 a1_x2
+0.00008778025887408 a2_x2
+0.01038981735008177 a3_x2
+0.99994501551851611 a4_x2
+0.00100247913642025 short_2
-0.00100247913642025 surp_2
= 44.758266

coupling_3: 
+0.00000109345134970 a1_x3
+0.00006820884627017 a2_x3
+0.01122366860027544 a3_x3
+0.99993644733402753 a4_x3
+0.00075030077711059 short_3
-0.00075030077711059 surp_3
= 44.471286

bounds
  0.000000 <= a1_x1 <= 100.000000
  0.000000 <= a1_x2 <= 100.000000
  0.000000 <= a1_x3 <= 100.000000
  0.000000 <= a1_x4 <= 100.000000
  0.000000 <= a1_x5 <= 100.000000
  0.000000 <= a1_x6 <= 100.000000
  0.000000 <= a2_x1 <= 100.000000
  0.000000 <= a2_x2 <= 100.000000
  0.000000 <= a2_x3 <= 100.000000
  0.000000 <= a2_x4 <= 100.000000
  0.000000 <= a2_x5 <= 100.000000
  0.000000 <= a2_x6 <= 100.000000
  0.000000 <= a3_x1 <= 100.000000
  0.000000 <= a3_x2 <= 100.000000
  0.000000 <= a3_x3 <= 100.000000
  0.000000 <= a3_x4 <= 100.000000
  0.000000 <= a3_x5 <= 100.000000
  0.000000 <= a3_x6 <= 100.000000
  0.000000 <= a4_x1 <= 100.000000
  0.000000 <= a4_x2 <= 100.000000
  0.000000 <= a4_x3 <= 100.000000
  0.000000 <= a4_x4 <= 100.000000
  0.000000 <= a4_x5 <= 100.000000
  0.000000 <= a4_x6 <= 100.000000
  0.000000 <= short_1 <= +inf
  0.000000 <= surp_1 <= +inf
  0.000000 <= short_2 <= +inf
  0.000000 <= surp_2 <= +inf
  0.000000 <= short_3 <= +inf
  0.000000 <= surp_3 <= +inf
 0 <= a1_z1 <= 1
 0 <= a1_z2 <= 1
 0 <= a2_z1 <= 1
 0 <= a2_z2 <= 1
 0 <= a3_z1 <= 1
 0 <= a3_z2 <= 1
 0 <= a4_z1 <= 1
 0 <= a4_z2 <= 1

binary
  a1_z1
  a1_z2
  a2_z1
  a2_z2
  a3_z1
  a3_z2
  a4_z1
  a4_z2
end
