min
obj: 
  +9.92789069156587445 a1_x1
  +4.10293210566149646 a1_x2
  +3.32901181929639423 a1_x3
  +9.10176472428019245 a1_x4
  +1.02767819950250816 a1_x5
  +7.50152284301075145 a1_x6
  +48.47610588570461232 a1_z1
  +46.46239370281180214 a1_z2
  +6.93758052846583873 a2_x1
  +8.73612443817434503 a2_x2
  +2.04228756855595339 a2_x3
  +7.91416373752481395 a2_x4
  +8.85104976446995906 a2_x5
  +5.35890260317347789 a2_x6
  +22.32551298055883748 a2_z1
  +43.59910462783197715 a2_z2
  +2.44474458582316245 a3_x1
  +8.77121756982191414 a3_x2
  +5.76281450528001393 a3_x3
  +8.52709380603204359 a3_x4
  +1.13892657158295396 a3_x5
  +2.91144295006929399 a3_x6
  +15.13786411581276603 a3_z1
  +21.64888772902043002 a3_z2
  +4.31354625098332889 a4_x1
  +3.73746776663401503 a4_x2
  +6.30470396079639350 a4_x3
  +7.23244248154489888 a4_x4
  +3.53129435828251648 a4_x5
  +2.19432544763669313 a4_x6
  +13.98335585286305616 a4_z1
  +25.76781967633817416 a4_z2
  +1000000.00000000000000000 short_1
  +1000000.00000000000000000 surp_1
  +1000000.00000000000000000 short_2
  +1000000.00000000000000000 surp_2
  +1000000.00000000000000000 short_3
  +1000000.00000000000000000 surp_3

s.t.

a1_local_1: 
+0.00111345040748342 a1_x4
+0.00108286777237603 a1_x6
+0.00075423202546379 a1_x1
<= 0.117642

a1_local_2: 
+0.00072981777699219 a1_x4
+0.00063301305721456 a1_x3
+0.00076105004001530 a1_x5
<= 0.107129

a1_local_3: 
+0.00077521577989207 a1_x4
+0.00097322373212838 a1_x3
+0.00135404714824075 a1_x2
<= 0.166939

a1_local_4: 
+0.00089624177448795 a1_x4
+0.00113055417398452 a1_x5
+0.00061834428152886 a1_x2
<= 0.173291

a1_local_5: 
+0.00130772373506020 a1_x2
+0.00056190733572092 a1_x1
+0.00116511342800481 a1_x6
<= 0.152896

a1_local_6: 
+0.00059182175107169 a1_x3
+0.00119993055527378 a1_x5
+0.00096166051266273 a1_x4
<= 0.188623

a1_local_7: 
+0.00066232905162997 a1_x6
+0.00073614684931469 a1_x4
+0.00124697215487455 a1_x3
<= 0.088660

a1_local_8: 
+0.00141414262692624 a1_x1
+0.00077447165674464 a1_x3
+0.00127228788267107 a1_x4
<= 0.210557

a1_act_1: 
+1.00000000000000000 a1_x1
-100.00000000000000000 a1_z1
<= 0.000000

a1_act_2: 
+1.00000000000000000 a1_x2
-100.00000000000000000 a1_z2
<= 0.000000

a2_local_1: 
+0.08108955112011416 a2_x3
+0.07832226669981096 a2_x1
+0.14335329760817869 a2_x6
<= 18.209736

a2_local_2: 
+0.08214917118527712 a2_x4
+0.14666463514908071 a2_x1
+0.13030364155217714 a2_x5
<= 12.626570

a2_local_3: 
+0.05185374881942845 a2_x2
+0.12230245286696564 a2_x5
+0.14069058174133120 a2_x1
<= 16.251759

a2_local_4: 
+0.10044629798077681 a2_x2
+0.09699444276385275 a2_x1
+0.08660432838333190 a2_x4
<= 15.820182

a2_local_5: 
+0.10290361983072122 a2_x4
+0.13814633552002939 a2_x5
+0.14208602753984412 a2_x2
<= 14.860415

a2_local_6: 
+0.10655675377767725 a2_x1
+0.12337325986812915 a2_x2
+0.08070537393219775 a2_x3
<= 20.293046

a2_local_7: 
+0.11006580463553491 a2_x1
+0.12425913982224475 a2_x2
+0.14733873506606285 a2_x4
<= 24.365827

a2_local_8: 
+0.06359239814161369 a2_x6
+0.14791616535128882 a2_x3
+0.12283444715723922 a2_x5
<= 15.052896

a2_act_1: 
+1.00000000000000000 a2_x1
-100.00000000000000000 a2_z1
<= 0.000000

a2_act_2: 
+1.00000000000000000 a2_x2
-100.00000000000000000 a2_z2
<= 0.000000

a3_local_1: 
+13.95346277553815284 a3_x4
+5.37544991635378899 a3_x6
+14.24501980546414792 a3_x3
<= 1438.605642

a3_local_2: 
+12.34941955760283427 a3_x6
+12.18029273105356758 a3_x4
+10.78310063984336509 a3_x3
<= 1409.014382

a3_local_3: 
+9.65167014204377516 a3_x2
+7.05573695785992605 a3_x1
+7.71129832031671825 a3_x4
<= 1124.535733

a3_local_4: 
+5.04141706155851210 a3_x5
+5.41792591521109301 a3_x3
+9.35276926711007484 a3_x2
<= 1152.454777

a3_local_5: 
+5.24862162250090325 a3_x1
+7.12758975575547638 a3_x2
+13.77131635652548880 a3_x5
<= 910.445267

a3_local_6: 
+9.38779654332423874 a3_x6
+8.03535501057080026 a3_x4
+7.22787429627026867 a3_x2
<= 1445.905848

a3_local_7: 
+10.84233351773424303 a3_x2
+6.65863068827476567 a3_x3
+5.56162034602899791 a3_x5
<= 1206.498890

a3_local_8: 
+5.89288972132833244 a3_x5
+7.89378828173951685 a3_x2
+14.22313878698821199 a3_x3
<= 1596.442945

a3_act_1: 
+1.00000000000000000 a3_x1
-100.00000000000000000 a3_z1
<= 0.000000

a3_act_2: 
+1.00000000000000000 a3_x2
-100.00000000000000000 a3_z2
<= 0.000000

a4_local_1: 
+685.56465866345615723 a4_x1
+1386.22828192639917688 a4_x4
+1047.81625953765910708 a4_x6
<= 133928.072560

a4_local_2: 
+1364.73341705549910330 a4_x6
+1362.73817190050817771 a4_x3
+1087.76553950924085257 a4_x4
<= 255192.096970

a4_local_3: 
+735.24033586375901450 a4_x1
+1392.12785943274047895 a4_x2
+595.98220757298531680 a4_x5
<= 95870.417562

a4_local_4: 
+1303.29557648422428429 a4_x4
+1085.36060893936223692 a4_x5
+1243.08170341392474256 a4_x1
<= 132259.530996

a4_local_5: 
+564.16931736229946637 a4_x4
+1237.06423442162758874 a4_x6
+849.24011403493659600 a4_x2
<= 180500.859554

a4_local_6: 
+1376.46579451476327449 a4_x6
+1266.11441027027353812 a4_x2
+928.76616409906239369 a4_x3
<= 180398.315642

a4_local_7: 
+1393.54861772972958534 a4_x6
+1224.78747332830857886 a4_x3
+622.20460593405630334 a4_x4
<= 201720.214349

a4_local_8: 
+1209.88904395551821835 a4_x2
+1189.32367253135362262 a4_x4
+1369.45148321313695305 a4_x3
<= 171361.820680

a4_act_1: 
+1.00000000000000000 a4_x1
-100.00000000000000000 a4_z1
<= 0.000000

a4_act_2: 
+1.00000000000000000 a4_x2
-100.00000000000000000 a4_z2
<= 0.000000

coupling_1: 
+0.00002455150448196 a1_x1
+0.00143307403420548 a2_x1
+0.24392428349103870 a3_x1
+9.81319505057809849 a4_x1
+0.01861423724644573 short_1
-0.01861423724644573 surp_1
= 447.380321

coupling_2: 
+0.00003779200799976 a1_x2
+0.00633081404747027 a2_x2
+0.41444629678850892 a3_x2
+41.70516278016317102 a4_x2
+0.05815363415529494 short_2
-0.05815363415529494 surp_2
= 1994.032148

coupling_3: 
+0.00031454252073209 a1_x3
+0.01497627979769375 a2_x3
+2.21017071271274057 a3_x3
+227.08756338411234310 a4_x3
+0.28041596501854932 short_3
-0.28041596501854932 surp_3
= 15474.695039

bounds
  0.000000 <= a1_x1 <= 100.000000
  0.000000 <= a1_x2 <= 100.000000
  0.000000 <= a1_x3 <= 100.000000
  0.000000 <= a1_x4 <= 100.000000
  0.000000 <= a1_x5 <= 100.000000
  0.000000 <= a1_x6 <= 100.000000
  0.000000 <= a2_x1 <= 100.000000
  0.000000 <= a2_x2 <= 100.000000
  0.000000 <= a2_x3 <= 100.000000
  0.000000 <= a2_x4 <= 100.000000
  0.000000 <= a2_x5 <= 100.000000
  0.000000 <= a2_x6 <= 100.000000
  0.000000 <= a3_x1 <= 100.000000
  0.000000 <= a3_x2 <= 100.000000
  0.000000 <= a3_x3 <= 100.000000
  0.000000 <= a3_x4 <= 100.000000
  0.000000 <= a3_x5 <= 100.000000
  0.000000 <= a3_x6 <= 100.000000
  0.000000 <= a4_x1 <= 100.000000
  0.000000 <= a4_x2 <= 100.000000
  0.000000 <= a4_x3 <= 100.000000
  0.000000 <= a4_x4 <= 100.000000
  0.000000 <= a4_x5 <= 100.000000
  0.000000 <= a4_x6 <= 100.000000
  0.000000 <= short_1 <= +inf
  0.000000 <= surp_1 <= +inf
  0.000000 <= short_2 <= +inf
  0.000000 <= surp_2 <= +inf
  0.000000 <= short_3 <= +inf
  0.000000 <= surp_3 <= +inf
 0 <= a1_z1 <= 1
 0 <= a1_z2 <= 1
 0 <= a2_z1 <= 1
 0 <= a2_z2 <= 1
 0 <= a3_z1 <= 1
 0 <= a3_z2 <= 1
 0 <= a4_z1 <= 1
 0 <= a4_z2 <= 1

binary
  a1_z1
  a1_z2
  a2_z1
  a2_z2
  a3_z1
  a3_z2
  a4_z1
  a4_z2
end
