min
obj: 
  +2.86702301288668870 a1_x1
  +4.61217347674817457 a1_x2
  +8.37266539443051627 a1_x3
  +3.88741117842564377 a1_x4
  +3.57352147071314707 a1_x5
  +7.90632682258909369 a1_x6
  +32.52167325628295202 a1_z1
  +46.95512094955829951 a1_z2
  +6.18957109820114049 a2_x1
  +7.65671715801393571 a2_x2
  +8.20437447093011585 a2_x3
  +3.61886914738285226 a2_x4
  +5.28592570462095690 a2_x5
  +3.39477691808076010 a2_x6
  +12.60548138304202581 a2_z1
  +31.13088232979415793 a2_z2
  +1.00384692741400694 a3_x1
  +6.98746639113835144 a3_x2
  +2.08920162411281263 a3_x3
  +9.36108080061404380 a3_x4
  +4.85098195997041159 a3_x5
  +1.72431460157976346 a3_x6
  +35.01946721881928681 a3_z1
  +33.01267747284549614 a3_z2
  +2.50332166724604033 a4_x1
  +6.42161923356443864 a4_x2
  +2.38773349159600956 a4_x3
  +7.47586240964883597 a4_x4
  +7.41060969147519710 a4_x5
  +8.58602476997859654 a4_x6
  +17.16287865875343854 a4_z1
  +23.31726507162430551 a4_z2
  +1000000.00000000000000000 short_1
  +1000000.00000000000000000 surp_1
  +1000000.00000000000000000 short_2
  +1000000.00000000000000000 surp_2
  +1000000.00000000000000000 short_3
  +1000000.00000000000000000 surp_3

s.t.

a1_local_1: 
+0.00073514418900839 a1_x3
+0.00129060756716661 a1_x1
+0.00114672485426712 a1_x2
<= 0.190794

a1_local_2: 
+0.00073593099284626 a1_x6
+0.00105548060697454 a1_x4
+0.00079273265620465 a1_x3
<= 0.101213

a1_local_3: 
+0.00108946018734366 a1_x5
+0.00147224913539814 a1_x6
+0.00141756205602848 a1_x4
<= 0.145966

a1_local_4: 
+0.00129076841703651 a1_x3
+0.00148889875755841 a1_x6
+0.00076569309833191 a1_x4
<= 0.119509

a1_local_5: 
+0.00116002720337288 a1_x4
+0.00092224108861291 a1_x5
+0.00059949888588089 a1_x2
<= 0.098205

a1_local_6: 
+0.00135541933830960 a1_x5
+0.00131445948205669 a1_x4
+0.00112253502978129 a1_x2
<= 0.184480

a1_local_7: 
+0.00077147845633171 a1_x2
+0.00098248048786009 a1_x3
+0.00050034323992626 a1_x6
<= 0.140263

a1_local_8: 
+0.00149094617573585 a1_x2
+0.00143309352717952 a1_x5
+0.00084067474227746 a1_x1
<= 0.196576

a1_act_1: 
+1.00000000000000000 a1_x1
-100.00000000000000000 a1_z1
<= 0.000000

a1_act_2: 
+1.00000000000000000 a1_x2
-100.00000000000000000 a1_z2
<= 0.000000

a2_local_1: 
+0.13785872657464901 a2_x4
+0.11582837975672350 a2_x3
+0.13746421547720875 a2_x1
<= 21.077489

a2_local_2: 
+0.09358577385447225 a2_x6
+0.05527057715601931 a2_x2
+0.11053155457796207 a2_x5
<= 10.143987

a2_local_3: 
+0.14335715966185206 a2_x6
+0.11900452445926263 a2_x4
+0.08801824570085602 a2_x5
<= 21.079776

a2_local_4: 
+0.14932150308135941 a2_x3
+0.09344804103206522 a2_x4
+0.10828443070418337 a2_x1
<= 22.841136

a2_local_5: 
+0.07962121687680437 a2_x5
+0.07735047621123337 a2_x4
+0.10778973453642704 a2_x3
<= 17.831801

a2_local_6: 
+0.07311695819418838 a2_x6
+0.14347392896000857 a2_x4
+0.13068007858374706 a2_x3
<= 19.456186

a2_local_7: 
+0.06774125298844755 a2_x6
+0.07108456719566238 a2_x3
+0.07853973645459215 a2_x5
<= 8.100992

a2_local_8: 
+0.05137098051559783 a2_x5
+0.08407339951522279 a2_x3
+0.06852694197178720 a2_x4
<= 8.583637

a2_act_1: 
+1.00000000000000000 a2_x1
-100.00000000000000000 a2_z1
<= 0.000000

a2_act_2: 
+1.00000000000000000 a2_x2
-100.00000000000000000 a2_z2
<= 0.000000

a3_local_1: 
+9.67684898508019131 a3_x4
+11.15795865316525592 a3_x2
+9.84267521936693157 a3_x6
<= 1018.786981

a3_local_2: 
+7.97574361806921317 a3_x4
+13.86851509835625862 a3_x6
+5.51632549331904976 a3_x3
<= 1021.649222

a3_local_3: 
+8.27810186354620292 a3_x4
+6.90421896280322223 a3_x2
+7.25483598696726339 a3_x3
<= 704.627104

a3_local_4: 
+7.88712284407056874 a3_x2
+10.27352340438505429 a3_x4
+5.28726697357903141 a3_x3
<= 1215.746632

a3_local_5: 
+8.39644884524495261 a3_x4
+10.30513709618486651 a3_x6
+8.91830663978686466 a3_x1
<= 1040.851448

a3_local_6: 
+9.78647457464163750 a3_x3
+11.37555740217466393 a3_x4
+11.91251551957041599 a3_x1
<= 1129.593467

a3_local_7: 
+12.22256344893056301 a3_x4
+9.87979667663116423 a3_x1
+14.46526051506630139 a3_x6
<= 2131.109070

a3_local_8: 
+10.32786383894559457 a3_x2
+10.15258283533045613 a3_x3
+10.22083668979027138 a3_x1
<= 1190.206519

a3_act_1: 
+1.00000000000000000 a3_x1
-100.00000000000000000 a3_z1
<= 0.000000

a3_act_2: 
+1.00000000000000000 a3_x2
-100.00000000000000000 a3_z2
<= 0.000000

a4_local_1: 
+1177.64130344056115973 a4_x1
+1465.77948520314134839 a4_x4
+1299.43669924599748811 a4_x5
<= 123948.219115

a4_local_2: 
+564.42982571877303144 a4_x6
+662.15781913343710130 a4_x2
+613.18597815332657319 a4_x3
<= 71734.054573

a4_local_3: 
+1385.85835009017660013 a4_x1
+1350.63097210805653958 a4_x4
+1378.56707758577545064 a4_x5
<= 201364.256527

a4_local_4: 
+568.16998098916224080 a4_x2
+1126.54385552626854405 a4_x6
+1061.65970282092916932 a4_x5
<= 96261.546965

a4_local_5: 
+580.69692442736266003 a4_x2
+505.81920929920011076 a4_x5
+926.79728276381956675 a4_x1
<= 109009.371849

a4_local_6: 
+930.54395096373104934 a4_x5
+1314.91844487952403142 a4_x6
+1084.38832214191188541 a4_x4
<= 231853.811404

a4_local_7: 
+751.85613369095483449 a4_x1
+1207.49294413520260605 a4_x5
+1492.72568679985192830 a4_x2
<= 116035.175563

a4_local_8: 
+995.59283898788225997 a4_x1
+922.89612476474928826 a4_x6
+1043.81992342698617904 a4_x5
<= 146462.647740

a4_act_1: 
+1.00000000000000000 a4_x1
-100.00000000000000000 a4_z1
<= 0.000000

a4_act_2: 
+1.00000000000000000 a4_x2
-100.00000000000000000 a4_z2
<= 0.000000

coupling_1: 
+0.00000961048316613 a1_x1
+0.00162288279998161 a2_x1
+0.17311988479062163 a3_x1
+15.88541458960558117 a4_x1
+0.01464607790712203 short_1
-0.01464607790712203 surp_1
= 954.327843

coupling_2: 
+0.00000001109446415 a1_x2
+0.00000127790381651 a2_x2
+0.00013205537189220 a3_x2
+0.01941758188777701 a4_x2
+0.00001609843274143 short_2
-0.00001609843274143 surp_2
= 0.778879

coupling_3: 
+793.47764367074148595 a1_x3
+62348.60239337979146512 a2_x3
+6836972.66263873316347599 a3_x3
+479108767.87319976091384888 a4_x3
+856600.08900491858366877 short_3
-856600.08900491858366877 surp_3
= 21521076630.893070

bounds
  0.000000 <= a1_x1 <= 100.000000
  0.000000 <= a1_x2 <= 100.000000
  0.000000 <= a1_x3 <= 100.000000
  0.000000 <= a1_x4 <= 100.000000
  0.000000 <= a1_x5 <= 100.000000
  0.000000 <= a1_x6 <= 100.000000
  0.000000 <= a2_x1 <= 100.000000
  0.000000 <= a2_x2 <= 100.000000
  0.000000 <= a2_x3 <= 100.000000
  0.000000 <= a2_x4 <= 100.000000
  0.000000 <= a2_x5 <= 100.000000
  0.000000 <= a2_x6 <= 100.000000
  0.000000 <= a3_x1 <= 100.000000
  0.000000 <= a3_x2 <= 100.000000
  0.000000 <= a3_x3 <= 100.000000
  0.000000 <= a3_x4 <= 100.000000
  0.000000 <= a3_x5 <= 100.000000
  0.000000 <= a3_x6 <= 100.000000
  0.000000 <= a4_x1 <= 100.000000
  0.000000 <= a4_x2 <= 100.000000
  0.000000 <= a4_x3 <= 100.000000
  0.000000 <= a4_x4 <= 100.000000
  0.000000 <= a4_x5 <= 100.000000
  0.000000 <= a4_x6 <= 100.000000
  0.000000 <= short_1 <= +inf
  0.000000 <= surp_1 <= +inf
  0.000000 <= short_2 <= +inf
  0.000000 <= surp_2 <= +inf
  0.000000 <= short_3 <= +inf
  0.000000 <= surp_3 <= +inf
 0 <= a1_z1 <= 1
 0 <= a1_z2 <= 1
 0 <= a2_z1 <= 1
 0 <= a2_z2 <= 1
 0 <= a3_z1 <= 1
 0 <= a3_z2 <= 1
 0 <= a4_z1 <= 1
 0 <= a4_z2 <= 1

binary
  a1_z1
  a1_z2
  a2_z1
  a2_z2
  a3_z1
  a3_z2
  a4_z1
  a4_z2
end
