min
obj: 
  +4.00927114806491947 a1_x1
  +1.96797315584533505 a1_x2
  +5.12450639908132288 a1_x3
  +5.32896604620880687 a1_x4
  +7.73264361972508052 a1_x5
  +5.13954220661915251 a1_x6
  +7.46013036925632012 a1_z1
  +49.87266735161764331 a1_z2
  +4.20073886186967549 a2_x1
  +7.53413172178710777 a2_x2
  +3.45719216892709458 a2_x3
  +4.76571137466424233 a2_x4
  +9.38617884989886875 a2_x5
  +1.72886855476886026 a2_x6
  +29.54080410777594423 a2_z1
  +23.53717041290824596 a2_z2
  +8.21626166621846110 a3_x1
  +4.90875225577424779 a3_x2
  +9.92442060145863181 a3_x3
  +6.78612387718403109 a3_x4
  +8.67367115140907785 a3_x5
  +9.64439582433125331 a3_x6
  +44.88444155829282778 a3_z1
  +12.68276888992290807 a3_z2
  +8.69787784647402162 a4_x1
  +4.12769081519996917 a4_x2
  +7.02237149328651711 a4_x3
  +1.06108582988083655 a4_x4
  +7.09274128796206593 a4_x5
  +7.93550517031278613 a4_x6
  +37.98565391640966737 a4_z1
  +17.37310151636162914 a4_z2
  +1000000.00000000000000000 short_1
  +1000000.00000000000000000 surp_1
  +1000000.00000000000000000 short_2
  +1000000.00000000000000000 surp_2
  +1000000.00000000000000000 short_3
  +1000000.00000000000000000 surp_3

s.t.

a1_local_1: 
+0.00134632971936915 a1_x3
+0.00057198717635448 a1_x6
+0.00091007319204166 a1_x4
<= 0.106915

a1_local_2: 
+0.00113609508308859 a1_x2
+0.00137165651533319 a1_x5
+0.00075990679073451 a1_x3
<= 0.102091

a1_local_3: 
+0.00083410003067605 a1_x4
+0.00050509108310423 a1_x2
+0.00068063549985982 a1_x5
<= 0.113196

a1_local_4: 
+0.00140020560702242 a1_x3
+0.00067027707669015 a1_x6
+0.00083923798306408 a1_x5
<= 0.169773

a1_local_5: 
+0.00060010966400186 a1_x1
+0.00139469433760676 a1_x6
+0.00133900787028047 a1_x3
<= 0.231804

a1_local_6: 
+0.00134634902468505 a1_x1
+0.00134019985148571 a1_x3
+0.00063400133442160 a1_x2
<= 0.231147

a1_local_7: 
+0.00062975314302053 a1_x1
+0.00144266300039824 a1_x5
+0.00086780522488828 a1_x4
<= 0.115050

a1_local_8: 
+0.00130702607434897 a1_x3
+0.00082977239447814 a1_x1
+0.00101255557871499 a1_x6
<= 0.113272

a1_act_1: 
+1.00000000000000000 a1_x1
-100.00000000000000000 a1_z1
<= 0.000000

a1_act_2: 
+1.00000000000000000 a1_x2
-100.00000000000000000 a1_z2
<= 0.000000

a2_local_1: 
+0.11389186482915387 a2_x6
+0.12556612007156542 a2_x5
+0.12534205000862420 a2_x3
<= 20.221503

a2_local_2: 
+0.11201780160919497 a2_x4
+0.12152515024942710 a2_x5
+0.07126650451260695 a2_x3
<= 9.413724

a2_local_3: 
+0.14918041363191711 a2_x1
+0.11966018232006029 a2_x5
+0.11926409072751723 a2_x6
<= 15.618466

a2_local_4: 
+0.07001952236608541 a2_x1
+0.09661543255918249 a2_x4
+0.06173020644481158 a2_x5
<= 14.668589

a2_local_5: 
+0.08289905960372967 a2_x5
+0.09748892075393664 a2_x1
+0.07206137058214608 a2_x3
<= 16.746305

a2_local_6: 
+0.08875742972445627 a2_x6
+0.10160042378045352 a2_x2
+0.13218988138778309 a2_x4
<= 14.769107

a2_local_7: 
+0.10988390136959236 a2_x6
+0.09851874663034602 a2_x4
+0.09873743458980849 a2_x3
<= 16.948842

a2_local_8: 
+0.11029831671209277 a2_x3
+0.08892277767089021 a2_x5
+0.06308929224999342 a2_x4
<= 10.201855

a2_act_1: 
+1.00000000000000000 a2_x1
-100.00000000000000000 a2_z1
<= 0.000000

a2_act_2: 
+1.00000000000000000 a2_x2
-100.00000000000000000 a2_z2
<= 0.000000

a3_local_1: 
+14.16895568267351635 a3_x1
+10.86348053284619297 a3_x2
+9.56491889986744503 a3_x5
<= 1272.178330

a3_local_2: 
+9.66165260846254625 a3_x6
+14.10091743838510148 a3_x2
+14.43077270257595401 a3_x3
<= 2382.281639

a3_local_3: 
+13.06956501847784580 a3_x1
+5.10440114092016284 a3_x6
+10.13467950288990060 a3_x3
<= 1020.847675

a3_local_4: 
+11.57132936990759653 a3_x1
+7.67094135991859183 a3_x2
+14.74009154130527932 a3_x3
<= 1120.361684

a3_local_5: 
+13.47805318112294692 a3_x6
+8.79094424100997784 a3_x5
+11.73862713657534762 a3_x3
<= 2282.640328

a3_local_6: 
+5.21131317912256620 a3_x5
+10.75832126886017903 a3_x3
+8.26304024487029487 a3_x4
<= 958.918443

a3_local_7: 
+7.17321517030218736 a3_x1
+5.54116030609117871 a3_x5
+11.18144412022466838 a3_x2
<= 1237.734765

a3_local_8: 
+9.63144671423476062 a3_x1
+8.99678477807080057 a3_x3
+13.68908507857137025 a3_x6
<= 1989.346911

a3_act_1: 
+1.00000000000000000 a3_x1
-100.00000000000000000 a3_z1
<= 0.000000

a3_act_2: 
+1.00000000000000000 a3_x2
-100.00000000000000000 a3_z2
<= 0.000000

a4_local_1: 
+1062.46621791562256476 a4_x3
+1398.76533369214280356 a4_x5
+1356.22152740670321691 a4_x2
<= 218158.172614

a4_local_2: 
+1388.59054773439038399 a4_x6
+997.68668171715728477 a4_x4
+1023.01591294340573768 a4_x5
<= 134866.466069

a4_local_3: 
+893.58721284099624427 a4_x6
+746.29685314550351904 a4_x3
+781.37982810660719224 a4_x2
<= 159823.211729

a4_local_4: 
+768.36115453843126488 a4_x3
+762.43721813661011311 a4_x6
+1486.39531048171784278 a4_x5
<= 111729.947793

a4_local_5: 
+774.83512694042974545 a4_x1
+1331.98133804996950857 a4_x6
+721.28048774247542951 a4_x3
<= 111407.725729

a4_local_6: 
+638.03244202547750774 a4_x6
+720.33024760355181115 a4_x3
+916.49182315632288010 a4_x4
<= 132864.359671

a4_local_7: 
+1239.70937883359147236 a4_x6
+1216.74451572023576773 a4_x4
+1284.40023270564029190 a4_x5
<= 124156.026485

a4_local_8: 
+1443.95342466878651067 a4_x2
+1479.65011818404332189 a4_x4
+1012.90680669878213394 a4_x1
<= 121486.256367

a4_act_1: 
+1.00000000000000000 a4_x1
-100.00000000000000000 a4_z1
<= 0.000000

a4_act_2: 
+1.00000000000000000 a4_x2
-100.00000000000000000 a4_z2
<= 0.000000

coupling_1: 
+0.00002254161206686 a1_x1
+0.00526445219429315 a2_x1
+0.46082824088528124 a3_x1
+45.76390209204500792 a4_x1
+0.03750614771464270 short_1
-0.03750614771464270 surp_1
= 3431.032013

coupling_2: 
+78.07158706077706256 a1_x2
+10047.33604741346607625 a2_x2
+1023592.51111911819316447 a3_x2
+84827696.84845821559429169 a4_x2
+123949.17156767786946148 short_2
-123949.17156767786946148 surp_2
= 2115229702.761971

coupling_3: 
+0.00060167161484541 a1_x3
+0.05611029579227914 a2_x3
+4.86272740506218959 a3_x3
+705.95068494292797823 a4_x3
+0.66724544800694141 short_3
-0.66724544800694141 surp_3
= 35323.861197

bounds
  0.000000 <= a1_x1 <= 100.000000
  0.000000 <= a1_x2 <= 100.000000
  0.000000 <= a1_x3 <= 100.000000
  0.000000 <= a1_x4 <= 100.000000
  0.000000 <= a1_x5 <= 100.000000
  0.000000 <= a1_x6 <= 100.000000
  0.000000 <= a2_x1 <= 100.000000
  0.000000 <= a2_x2 <= 100.000000
  0.000000 <= a2_x3 <= 100.000000
  0.000000 <= a2_x4 <= 100.000000
  0.000000 <= a2_x5 <= 100.000000
  0.000000 <= a2_x6 <= 100.000000
  0.000000 <= a3_x1 <= 100.000000
  0.000000 <= a3_x2 <= 100.000000
  0.000000 <= a3_x3 <= 100.000000
  0.000000 <= a3_x4 <= 100.000000
  0.000000 <= a3_x5 <= 100.000000
  0.000000 <= a3_x6 <= 100.000000
  0.000000 <= a4_x1 <= 100.000000
  0.000000 <= a4_x2 <= 100.000000
  0.000000 <= a4_x3 <= 100.000000
  0.000000 <= a4_x4 <= 100.000000
  0.000000 <= a4_x5 <= 100.000000
  0.000000 <= a4_x6 <= 100.000000
  0.000000 <= short_1 <= +inf
  0.000000 <= surp_1 <= +inf
  0.000000 <= short_2 <= +inf
  0.000000 <= surp_2 <= +inf
  0.000000 <= short_3 <= +inf
  0.000000 <= surp_3 <= +inf
 0 <= a1_z1 <= 1
 0 <= a1_z2 <= 1
 0 <= a2_z1 <= 1
 0 <= a2_z2 <= 1
 0 <= a3_z1 <= 1
 0 <= a3_z2 <= 1
 0 <= a4_z1 <= 1
 0 <= a4_z2 <= 1

binary
  a1_z1
  a1_z2
  a2_z1
  a2_z2
  a3_z1
  a3_z2
  a4_z1
  a4_z2
end
